<?xml version="1.0"?>
<VTKFile type="UnstructuredGrid" version="0.1">
<UnstructuredGrid>
<Piece NumberOfPoints="      1156" NumberOfCells="      1024">
<Points>
<DataArray type="Float64"                                    Name="coordinates"                                                      NumberOfComponents=" 3" format="ascii">
              0.133000000               0.000000000               0.000000000               0.155937500               0.000000000               0.000000000               0.178875000               0.000000000               0.000000000               0.201812500               0.000000000               0.000000000               0.224750000               0.000000000               0.000000000               0.247687500               0.000000000               0.000000000               0.270625000               0.000000000               0.000000000               0.293562500               0.000000000               0.000000000               0.316500000               0.000000000               0.000000000               0.339437500               0.000000000               0.000000000               0.362375000               0.000000000               0.000000000               0.385312500               0.000000000               0.000000000               0.408250000               0.000000000               0.000000000               0.431187500               0.000000000               0.000000000               0.454125000               0.000000000               0.000000000               0.477062500               0.000000000               0.000000000               0.500000000               0.000000000               0.000000000               0.132359569               0.013036280               0.000000000               0.155337096               0.016127762               0.000000000               0.178314623               0.019219245               0.000000000               0.201292150               0.022310727               0.000000000               0.224269676               0.025402210               0.000000000               0.247247203               0.028493692               0.000000000               0.270224730               0.031585175               0.000000000               0.293202257               0.034676657               0.000000000               0.316179784               0.037768140               0.000000000               0.339157311               0.040859622               0.000000000               0.362134838               0.043951105               0.000000000               0.385112365               0.047042587               0.000000000               0.408089892               0.050134070               0.000000000               0.431067419               0.053225552               0.000000000               0.454044946               0.056317035               0.000000000               0.477022473               0.059408517               0.000000000               0.500000000               0.062500000               0.000000000               0.130444442               0.025947013               0.000000000               0.153541665               0.032137825               0.000000000               0.176638887               0.038328636               0.000000000               0.199736109               0.044519448               0.000000000               0.222833332               0.050710260               0.000000000               0.245930554               0.056901071               0.000000000               0.269027776               0.063091883               0.000000000               0.292124999               0.069282695               0.000000000               0.315222221               0.075473506               0.000000000               0.338319444               0.081664318               0.000000000               0.361416666               0.087855130               0.000000000               0.384513888               0.094045942               0.000000000               0.407611111               0.100236753               0.000000000               0.430708333               0.106427565               0.000000000               0.453805555               0.112618377               0.000000000               0.476902778               0.118809188               0.000000000               0.500000000               0.125000000               0.000000000               0.127273065               0.038607862               0.000000000               0.150568498               0.047913621               0.000000000               0.173863932               0.057219379               0.000000000               0.197159365               0.066525138               0.000000000               0.220454798               0.075830897               0.000000000               0.243750232               0.085136655               0.000000000               0.267045665               0.094442414               0.000000000               0.290341099               0.103748172               0.000000000               0.313636532               0.113053931               0.000000000               0.336931966               0.122359690               0.000000000               0.360227399               0.131665448               0.000000000               0.383522833               0.140971207               0.000000000               0.406818266               0.150276966               0.000000000               0.430113700               0.159582724               0.000000000               0.453409133               0.168888483               0.000000000               0.476704567               0.178194241               0.000000000               0.500000000               0.187500000               0.000000000               0.122875978               0.050896897               0.000000000               0.146446229               0.063340840               0.000000000               0.170016481               0.075784784               0.000000000               0.193586732               0.088228728               0.000000000               0.217156983               0.100672672               0.000000000               0.240727235               0.113116616               0.000000000               0.264297486               0.125560560               0.000000000               0.287867738               0.138004504               0.000000000               0.311437989               0.150448448               0.000000000               0.335008240               0.162892392               0.000000000               0.358578492               0.175336336               0.000000000               0.382148743               0.187780280               0.000000000               0.405718994               0.200224224               0.000000000               0.429289246               0.212668168               0.000000000               0.452859497               0.225112112               0.000000000               0.476429749               0.237556056               0.000000000               0.500000000               0.250000000               0.000000000               0.117295528               0.062695766               0.000000000               0.141214558               0.078308531               0.000000000               0.165133587               0.093921295               0.000000000               0.189052617               0.109534060               0.000000000               0.212971646               0.125146824               0.000000000               0.236890676               0.140759589               0.000000000               0.260809705               0.156372354               0.000000000               0.284728735               0.171985118               0.000000000               0.308647764               0.187597883               0.000000000               0.332566794               0.203210648               0.000000000               0.356485823               0.218823412               0.000000000               0.380404853               0.234436177               0.000000000               0.404323882               0.250048941               0.000000000               0.428242912               0.265661706               0.000000000               0.452161941               0.281274471               0.000000000               0.476080971               0.296887235               0.000000000               0.500000000               0.312500000               0.000000000               0.110585458               0.073890841               0.000000000               0.134923867               0.092710163               0.000000000               0.159262276               0.111529486               0.000000000               0.183600685               0.130348808               0.000000000               0.207939094               0.149168131               0.000000000               0.232277503               0.167987453               0.000000000               0.256615912               0.186806776               0.000000000               0.280954320               0.205626098               0.000000000               0.305292729               0.224445420               0.000000000               0.329631138               0.243264743               0.000000000               0.353969547               0.262084065               0.000000000               0.378307956               0.280903388               0.000000000               0.402646365               0.299722710               0.000000000               0.426984773               0.318542033               0.000000000               0.451323182               0.337361355               0.000000000               0.475661591               0.356180678               0.000000000               0.500000000               0.375000000               0.000000000               0.102810390               0.084374307               0.000000000               0.127634741               0.106444663               0.000000000               0.152459092               0.128515018               0.000000000               0.177283442               0.150585374               0.000000000               0.202107793               0.172655730               0.000000000               0.226932143               0.194726086               0.000000000               0.251756494               0.216796442               0.000000000               0.276580845               0.238866798               0.000000000               0.301405195               0.260937153               0.000000000               0.326229546               0.283007509               0.000000000               0.351053896               0.305077865               0.000000000               0.375878247               0.327148221               0.000000000               0.400702598               0.349218577               0.000000000               0.425526948               0.371288933               0.000000000               0.450351299               0.393359288               0.000000000               0.475175649               0.415429644               0.000000000               0.500000000               0.437500000               0.000000000               0.094045202               0.094045202               0.000000000               0.119417377               0.119417377               0.000000000               0.144789552               0.144789552               0.000000000               0.170161727               0.170161727               0.000000000               0.195533901               0.195533901               0.000000000               0.220906076               0.220906076               0.000000000               0.246278251               0.246278251               0.000000000               0.271650426               0.271650426               0.000000000               0.297022601               0.297022601               0.000000000               0.322394776               0.322394776               0.000000000               0.347766951               0.347766951               0.000000000               0.373139126               0.373139126               0.000000000               0.398511300               0.398511300               0.000000000               0.423883475               0.423883475               0.000000000               0.449255650               0.449255650               0.000000000               0.474627825               0.474627825               0.000000000               0.500000000               0.500000000               0.000000000               0.084374307               0.102810390               0.000000000               0.106444663               0.127634741               0.000000000               0.128515018               0.152459092               0.000000000               0.150585374               0.177283442               0.000000000               0.172655730               0.202107793               0.000000000               0.194726086               0.226932143               0.000000000               0.216796442               0.251756494               0.000000000               0.238866798               0.276580845               0.000000000               0.260937153               0.301405195               0.000000000               0.283007509               0.326229546               0.000000000               0.305077865               0.351053896               0.000000000               0.327148221               0.375878247               0.000000000               0.349218577               0.400702598               0.000000000               0.371288933               0.425526948               0.000000000               0.393359288               0.450351299               0.000000000               0.415429644               0.475175649               0.000000000               0.437500000               0.500000000               0.000000000               0.073890841               0.110585458               0.000000000               0.092710163               0.134923867               0.000000000               0.111529486               0.159262276               0.000000000               0.130348808               0.183600685               0.000000000               0.149168131               0.207939094               0.000000000               0.167987453               0.232277503               0.000000000               0.186806776               0.256615912               0.000000000               0.205626098               0.280954320               0.000000000               0.224445420               0.305292729               0.000000000               0.243264743               0.329631138               0.000000000               0.262084065               0.353969547               0.000000000               0.280903388               0.378307956               0.000000000               0.299722710               0.402646365               0.000000000               0.318542033               0.426984773               0.000000000               0.337361355               0.451323182               0.000000000               0.356180678               0.475661591               0.000000000               0.375000000               0.500000000               0.000000000               0.062695766               0.117295528               0.000000000               0.078308531               0.141214558               0.000000000               0.093921295               0.165133587               0.000000000               0.109534060               0.189052617               0.000000000               0.125146824               0.212971646               0.000000000               0.140759589               0.236890676               0.000000000               0.156372354               0.260809705               0.000000000               0.171985118               0.284728735               0.000000000               0.187597883               0.308647764               0.000000000               0.203210648               0.332566794               0.000000000               0.218823412               0.356485823               0.000000000               0.234436177               0.380404853               0.000000000               0.250048941               0.404323882               0.000000000               0.265661706               0.428242912               0.000000000               0.281274471               0.452161941               0.000000000               0.296887235               0.476080971               0.000000000               0.312500000               0.500000000               0.000000000               0.050896897               0.122875978               0.000000000               0.063340840               0.146446229               0.000000000               0.075784784               0.170016481               0.000000000               0.088228728               0.193586732               0.000000000               0.100672672               0.217156983               0.000000000               0.113116616               0.240727235               0.000000000               0.125560560               0.264297486               0.000000000               0.138004504               0.287867738               0.000000000               0.150448448               0.311437989               0.000000000               0.162892392               0.335008240               0.000000000               0.175336336               0.358578492               0.000000000               0.187780280               0.382148743               0.000000000               0.200224224               0.405718994               0.000000000               0.212668168               0.429289246               0.000000000               0.225112112               0.452859497               0.000000000               0.237556056               0.476429749               0.000000000               0.250000000               0.500000000               0.000000000               0.038607862               0.127273065               0.000000000               0.047913621               0.150568498               0.000000000               0.057219379               0.173863932               0.000000000               0.066525138               0.197159365               0.000000000               0.075830897               0.220454798               0.000000000               0.085136655               0.243750232               0.000000000               0.094442414               0.267045665               0.000000000               0.103748172               0.290341099               0.000000000               0.113053931               0.313636532               0.000000000               0.122359690               0.336931966               0.000000000               0.131665448               0.360227399               0.000000000               0.140971207               0.383522833               0.000000000               0.150276966               0.406818266               0.000000000               0.159582724               0.430113700               0.000000000               0.168888483               0.453409133               0.000000000               0.178194241               0.476704567               0.000000000               0.187500000               0.500000000               0.000000000               0.025947013               0.130444442               0.000000000               0.032137825               0.153541665               0.000000000               0.038328636               0.176638887               0.000000000               0.044519448               0.199736109               0.000000000               0.050710260               0.222833332               0.000000000               0.056901071               0.245930554               0.000000000               0.063091883               0.269027776               0.000000000               0.069282695               0.292124999               0.000000000               0.075473506               0.315222221               0.000000000               0.081664318               0.338319444               0.000000000               0.087855130               0.361416666               0.000000000               0.094045942               0.384513888               0.000000000               0.100236753               0.407611111               0.000000000               0.106427565               0.430708333               0.000000000               0.112618377               0.453805555               0.000000000               0.118809188               0.476902778               0.000000000               0.125000000               0.500000000               0.000000000               0.013036280               0.132359569               0.000000000               0.016127762               0.155337096               0.000000000               0.019219245               0.178314623               0.000000000               0.022310727               0.201292150               0.000000000               0.025402210               0.224269676               0.000000000               0.028493692               0.247247203               0.000000000               0.031585175               0.270224730               0.000000000               0.034676657               0.293202257               0.000000000               0.037768140               0.316179784               0.000000000               0.040859622               0.339157311               0.000000000               0.043951105               0.362134838               0.000000000               0.047042587               0.385112365               0.000000000               0.050134070               0.408089892               0.000000000               0.053225552               0.431067419               0.000000000               0.056317035               0.454044946               0.000000000               0.059408517               0.477022473               0.000000000               0.062500000               0.500000000               0.000000000               0.000000000               0.133000000               0.000000000               0.000000000               0.155937500               0.000000000               0.000000000               0.178875000               0.000000000               0.000000000               0.201812500               0.000000000               0.000000000               0.224750000               0.000000000               0.000000000               0.247687500               0.000000000               0.000000000               0.270625000               0.000000000               0.000000000               0.293562500               0.000000000               0.000000000               0.316500000               0.000000000               0.000000000               0.339437500               0.000000000               0.000000000               0.362375000               0.000000000               0.000000000               0.385312500               0.000000000               0.000000000               0.408250000               0.000000000               0.000000000               0.431187500               0.000000000               0.000000000               0.454125000               0.000000000               0.000000000               0.477062500               0.000000000               0.000000000               0.500000000               0.000000000               0.133000000               0.000000000               0.000000000               0.155937500               0.000000000               0.000000000               0.178875000               0.000000000               0.000000000               0.201812500               0.000000000               0.000000000               0.224750000               0.000000000               0.000000000               0.247687500               0.000000000               0.000000000               0.270625000               0.000000000               0.000000000               0.293562500               0.000000000               0.000000000               0.316500000               0.000000000               0.000000000               0.339437500               0.000000000               0.000000000               0.362375000               0.000000000               0.000000000               0.385312500               0.000000000               0.000000000               0.408250000               0.000000000               0.000000000               0.431187500               0.000000000               0.000000000               0.454125000               0.000000000               0.000000000               0.477062500               0.000000000               0.000000000               0.500000000               0.000000000               0.000000000               0.132359569              -0.013036280               0.000000000               0.155337096              -0.016127762               0.000000000               0.178314623              -0.019219245               0.000000000               0.201292150              -0.022310727               0.000000000               0.224269676              -0.025402210               0.000000000               0.247247203              -0.028493692               0.000000000               0.270224730              -0.031585175               0.000000000               0.293202257              -0.034676657               0.000000000               0.316179784              -0.037768140               0.000000000               0.339157311              -0.040859622               0.000000000               0.362134838              -0.043951105               0.000000000               0.385112365              -0.047042587               0.000000000               0.408089892              -0.050134070               0.000000000               0.431067419              -0.053225552               0.000000000               0.454044946              -0.056317035               0.000000000               0.477022473              -0.059408517               0.000000000               0.500000000              -0.062500000               0.000000000               0.130444442              -0.025947013               0.000000000               0.153541665              -0.032137825               0.000000000               0.176638887              -0.038328636               0.000000000               0.199736109              -0.044519448               0.000000000               0.222833332              -0.050710260               0.000000000               0.245930554              -0.056901071               0.000000000               0.269027776              -0.063091883               0.000000000               0.292124999              -0.069282695               0.000000000               0.315222221              -0.075473506               0.000000000               0.338319444              -0.081664318               0.000000000               0.361416666              -0.087855130               0.000000000               0.384513888              -0.094045942               0.000000000               0.407611111              -0.100236753               0.000000000               0.430708333              -0.106427565               0.000000000               0.453805555              -0.112618377               0.000000000               0.476902778              -0.118809188               0.000000000               0.500000000              -0.125000000               0.000000000               0.127273065              -0.038607862               0.000000000               0.150568498              -0.047913621               0.000000000               0.173863932              -0.057219379               0.000000000               0.197159365              -0.066525138               0.000000000               0.220454798              -0.075830897               0.000000000               0.243750232              -0.085136655               0.000000000               0.267045665              -0.094442414               0.000000000               0.290341099              -0.103748172               0.000000000               0.313636532              -0.113053931               0.000000000               0.336931966              -0.122359690               0.000000000               0.360227399              -0.131665448               0.000000000               0.383522833              -0.140971207               0.000000000               0.406818266              -0.150276966               0.000000000               0.430113700              -0.159582724               0.000000000               0.453409133              -0.168888483               0.000000000               0.476704567              -0.178194241               0.000000000               0.500000000              -0.187500000               0.000000000               0.122875978              -0.050896897               0.000000000               0.146446229              -0.063340840               0.000000000               0.170016481              -0.075784784               0.000000000               0.193586732              -0.088228728               0.000000000               0.217156983              -0.100672672               0.000000000               0.240727235              -0.113116616               0.000000000               0.264297486              -0.125560560               0.000000000               0.287867738              -0.138004504               0.000000000               0.311437989              -0.150448448               0.000000000               0.335008240              -0.162892392               0.000000000               0.358578492              -0.175336336               0.000000000               0.382148743              -0.187780280               0.000000000               0.405718994              -0.200224224               0.000000000               0.429289246              -0.212668168               0.000000000               0.452859497              -0.225112112               0.000000000               0.476429749              -0.237556056               0.000000000               0.500000000              -0.250000000               0.000000000               0.117295528              -0.062695766               0.000000000               0.141214558              -0.078308531               0.000000000               0.165133587              -0.093921295               0.000000000               0.189052617              -0.109534060               0.000000000               0.212971646              -0.125146824               0.000000000               0.236890676              -0.140759589               0.000000000               0.260809705              -0.156372354               0.000000000               0.284728735              -0.171985118               0.000000000               0.308647764              -0.187597883               0.000000000               0.332566794              -0.203210648               0.000000000               0.356485823              -0.218823412               0.000000000               0.380404853              -0.234436177               0.000000000               0.404323882              -0.250048941               0.000000000               0.428242912              -0.265661706               0.000000000               0.452161941              -0.281274471               0.000000000               0.476080971              -0.296887235               0.000000000               0.500000000              -0.312500000               0.000000000               0.110585458              -0.073890841               0.000000000               0.134923867              -0.092710163               0.000000000               0.159262276              -0.111529486               0.000000000               0.183600685              -0.130348808               0.000000000               0.207939094              -0.149168131               0.000000000               0.232277503              -0.167987453               0.000000000               0.256615912              -0.186806776               0.000000000               0.280954320              -0.205626098               0.000000000               0.305292729              -0.224445420               0.000000000               0.329631138              -0.243264743               0.000000000               0.353969547              -0.262084065               0.000000000               0.378307956              -0.280903388               0.000000000               0.402646365              -0.299722710               0.000000000               0.426984773              -0.318542033               0.000000000               0.451323182              -0.337361355               0.000000000               0.475661591              -0.356180678               0.000000000               0.500000000              -0.375000000               0.000000000               0.102810390              -0.084374307               0.000000000               0.127634741              -0.106444663               0.000000000               0.152459092              -0.128515018               0.000000000               0.177283442              -0.150585374               0.000000000               0.202107793              -0.172655730               0.000000000               0.226932143              -0.194726086               0.000000000               0.251756494              -0.216796442               0.000000000               0.276580845              -0.238866798               0.000000000               0.301405195              -0.260937153               0.000000000               0.326229546              -0.283007509               0.000000000               0.351053896              -0.305077865               0.000000000               0.375878247              -0.327148221               0.000000000               0.400702598              -0.349218577               0.000000000               0.425526948              -0.371288933               0.000000000               0.450351299              -0.393359288               0.000000000               0.475175649              -0.415429644               0.000000000               0.500000000              -0.437500000               0.000000000               0.094045202              -0.094045202               0.000000000               0.119417377              -0.119417377               0.000000000               0.144789552              -0.144789552               0.000000000               0.170161727              -0.170161727               0.000000000               0.195533901              -0.195533901               0.000000000               0.220906076              -0.220906076               0.000000000               0.246278251              -0.246278251               0.000000000               0.271650426              -0.271650426               0.000000000               0.297022601              -0.297022601               0.000000000               0.322394776              -0.322394776               0.000000000               0.347766951              -0.347766951               0.000000000               0.373139126              -0.373139126               0.000000000               0.398511300              -0.398511300               0.000000000               0.423883475              -0.423883475               0.000000000               0.449255650              -0.449255650               0.000000000               0.474627825              -0.474627825               0.000000000               0.500000000              -0.500000000               0.000000000               0.084374307              -0.102810390               0.000000000               0.106444663              -0.127634741               0.000000000               0.128515018              -0.152459092               0.000000000               0.150585374              -0.177283442               0.000000000               0.172655730              -0.202107793               0.000000000               0.194726086              -0.226932143               0.000000000               0.216796442              -0.251756494               0.000000000               0.238866798              -0.276580845               0.000000000               0.260937153              -0.301405195               0.000000000               0.283007509              -0.326229546               0.000000000               0.305077865              -0.351053896               0.000000000               0.327148221              -0.375878247               0.000000000               0.349218577              -0.400702598               0.000000000               0.371288933              -0.425526948               0.000000000               0.393359288              -0.450351299               0.000000000               0.415429644              -0.475175649               0.000000000               0.437500000              -0.500000000               0.000000000               0.073890841              -0.110585458               0.000000000               0.092710163              -0.134923867               0.000000000               0.111529486              -0.159262276               0.000000000               0.130348808              -0.183600685               0.000000000               0.149168131              -0.207939094               0.000000000               0.167987453              -0.232277503               0.000000000               0.186806776              -0.256615912               0.000000000               0.205626098              -0.280954320               0.000000000               0.224445420              -0.305292729               0.000000000               0.243264743              -0.329631138               0.000000000               0.262084065              -0.353969547               0.000000000               0.280903388              -0.378307956               0.000000000               0.299722710              -0.402646365               0.000000000               0.318542033              -0.426984773               0.000000000               0.337361355              -0.451323182               0.000000000               0.356180678              -0.475661591               0.000000000               0.375000000              -0.500000000               0.000000000               0.062695766              -0.117295528               0.000000000               0.078308531              -0.141214558               0.000000000               0.093921295              -0.165133587               0.000000000               0.109534060              -0.189052617               0.000000000               0.125146824              -0.212971646               0.000000000               0.140759589              -0.236890676               0.000000000               0.156372354              -0.260809705               0.000000000               0.171985118              -0.284728735               0.000000000               0.187597883              -0.308647764               0.000000000               0.203210648              -0.332566794               0.000000000               0.218823412              -0.356485823               0.000000000               0.234436177              -0.380404853               0.000000000               0.250048941              -0.404323882               0.000000000               0.265661706              -0.428242912               0.000000000               0.281274471              -0.452161941               0.000000000               0.296887235              -0.476080971               0.000000000               0.312500000              -0.500000000               0.000000000               0.050896897              -0.122875978               0.000000000               0.063340840              -0.146446229               0.000000000               0.075784784              -0.170016481               0.000000000               0.088228728              -0.193586732               0.000000000               0.100672672              -0.217156983               0.000000000               0.113116616              -0.240727235               0.000000000               0.125560560              -0.264297486               0.000000000               0.138004504              -0.287867738               0.000000000               0.150448448              -0.311437989               0.000000000               0.162892392              -0.335008240               0.000000000               0.175336336              -0.358578492               0.000000000               0.187780280              -0.382148743               0.000000000               0.200224224              -0.405718994               0.000000000               0.212668168              -0.429289246               0.000000000               0.225112112              -0.452859497               0.000000000               0.237556056              -0.476429749               0.000000000               0.250000000              -0.500000000               0.000000000               0.038607862              -0.127273065               0.000000000               0.047913621              -0.150568498               0.000000000               0.057219379              -0.173863932               0.000000000               0.066525138              -0.197159365               0.000000000               0.075830897              -0.220454798               0.000000000               0.085136655              -0.243750232               0.000000000               0.094442414              -0.267045665               0.000000000               0.103748172              -0.290341099               0.000000000               0.113053931              -0.313636532               0.000000000               0.122359690              -0.336931966               0.000000000               0.131665448              -0.360227399               0.000000000               0.140971207              -0.383522833               0.000000000               0.150276966              -0.406818266               0.000000000               0.159582724              -0.430113700               0.000000000               0.168888483              -0.453409133               0.000000000               0.178194241              -0.476704567               0.000000000               0.187500000              -0.500000000               0.000000000               0.025947013              -0.130444442               0.000000000               0.032137825              -0.153541665               0.000000000               0.038328636              -0.176638887               0.000000000               0.044519448              -0.199736109               0.000000000               0.050710260              -0.222833332               0.000000000               0.056901071              -0.245930554               0.000000000               0.063091883              -0.269027776               0.000000000               0.069282695              -0.292124999               0.000000000               0.075473506              -0.315222221               0.000000000               0.081664318              -0.338319444               0.000000000               0.087855130              -0.361416666               0.000000000               0.094045942              -0.384513888               0.000000000               0.100236753              -0.407611111               0.000000000               0.106427565              -0.430708333               0.000000000               0.112618377              -0.453805555               0.000000000               0.118809188              -0.476902778               0.000000000               0.125000000              -0.500000000               0.000000000               0.013036280              -0.132359569               0.000000000               0.016127762              -0.155337096               0.000000000               0.019219245              -0.178314623               0.000000000               0.022310727              -0.201292150               0.000000000               0.025402210              -0.224269676               0.000000000               0.028493692              -0.247247203               0.000000000               0.031585175              -0.270224730               0.000000000               0.034676657              -0.293202257               0.000000000               0.037768140              -0.316179784               0.000000000               0.040859622              -0.339157311               0.000000000               0.043951105              -0.362134838               0.000000000               0.047042587              -0.385112365               0.000000000               0.050134070              -0.408089892               0.000000000               0.053225552              -0.431067419               0.000000000               0.056317035              -0.454044946               0.000000000               0.059408517              -0.477022473               0.000000000               0.062500000              -0.500000000               0.000000000               0.000000000              -0.133000000               0.000000000               0.000000000              -0.155937500               0.000000000               0.000000000              -0.178875000               0.000000000               0.000000000              -0.201812500               0.000000000               0.000000000              -0.224750000               0.000000000               0.000000000              -0.247687500               0.000000000               0.000000000              -0.270625000               0.000000000               0.000000000              -0.293562500               0.000000000               0.000000000              -0.316500000               0.000000000               0.000000000              -0.339437500               0.000000000               0.000000000              -0.362375000               0.000000000               0.000000000              -0.385312500               0.000000000               0.000000000              -0.408250000               0.000000000               0.000000000              -0.431187500               0.000000000               0.000000000              -0.454125000               0.000000000               0.000000000              -0.477062500               0.000000000               0.000000000              -0.500000000               0.000000000              -0.133000000               0.000000000               0.000000000              -0.155937500               0.000000000               0.000000000              -0.178875000               0.000000000               0.000000000              -0.201812500               0.000000000               0.000000000              -0.224750000               0.000000000               0.000000000              -0.247687500               0.000000000               0.000000000              -0.270625000               0.000000000               0.000000000              -0.293562500               0.000000000               0.000000000              -0.316500000               0.000000000               0.000000000              -0.339437500               0.000000000               0.000000000              -0.362375000               0.000000000               0.000000000              -0.385312500               0.000000000               0.000000000              -0.408250000               0.000000000               0.000000000              -0.431187500               0.000000000               0.000000000              -0.454125000               0.000000000               0.000000000              -0.477062500               0.000000000               0.000000000              -0.500000000               0.000000000               0.000000000              -0.132359569              -0.013036280               0.000000000              -0.155337096              -0.016127762               0.000000000              -0.178314623              -0.019219245               0.000000000              -0.201292150              -0.022310727               0.000000000              -0.224269676              -0.025402210               0.000000000              -0.247247203              -0.028493692               0.000000000              -0.270224730              -0.031585175               0.000000000              -0.293202257              -0.034676657               0.000000000              -0.316179784              -0.037768140               0.000000000              -0.339157311              -0.040859622               0.000000000              -0.362134838              -0.043951105               0.000000000              -0.385112365              -0.047042587               0.000000000              -0.408089892              -0.050134070               0.000000000              -0.431067419              -0.053225552               0.000000000              -0.454044946              -0.056317035               0.000000000              -0.477022473              -0.059408517               0.000000000              -0.500000000              -0.062500000               0.000000000              -0.130444442              -0.025947013               0.000000000              -0.153541665              -0.032137825               0.000000000              -0.176638887              -0.038328636               0.000000000              -0.199736109              -0.044519448               0.000000000              -0.222833332              -0.050710260               0.000000000              -0.245930554              -0.056901071               0.000000000              -0.269027776              -0.063091883               0.000000000              -0.292124999              -0.069282695               0.000000000              -0.315222221              -0.075473506               0.000000000              -0.338319444              -0.081664318               0.000000000              -0.361416666              -0.087855130               0.000000000              -0.384513888              -0.094045942               0.000000000              -0.407611111              -0.100236753               0.000000000              -0.430708333              -0.106427565               0.000000000              -0.453805555              -0.112618377               0.000000000              -0.476902778              -0.118809188               0.000000000              -0.500000000              -0.125000000               0.000000000              -0.127273065              -0.038607862               0.000000000              -0.150568498              -0.047913621               0.000000000              -0.173863932              -0.057219379               0.000000000              -0.197159365              -0.066525138               0.000000000              -0.220454798              -0.075830897               0.000000000              -0.243750232              -0.085136655               0.000000000              -0.267045665              -0.094442414               0.000000000              -0.290341099              -0.103748172               0.000000000              -0.313636532              -0.113053931               0.000000000              -0.336931966              -0.122359690               0.000000000              -0.360227399              -0.131665448               0.000000000              -0.383522833              -0.140971207               0.000000000              -0.406818266              -0.150276966               0.000000000              -0.430113700              -0.159582724               0.000000000              -0.453409133              -0.168888483               0.000000000              -0.476704567              -0.178194241               0.000000000              -0.500000000              -0.187500000               0.000000000              -0.122875978              -0.050896897               0.000000000              -0.146446229              -0.063340840               0.000000000              -0.170016481              -0.075784784               0.000000000              -0.193586732              -0.088228728               0.000000000              -0.217156983              -0.100672672               0.000000000              -0.240727235              -0.113116616               0.000000000              -0.264297486              -0.125560560               0.000000000              -0.287867738              -0.138004504               0.000000000              -0.311437989              -0.150448448               0.000000000              -0.335008240              -0.162892392               0.000000000              -0.358578492              -0.175336336               0.000000000              -0.382148743              -0.187780280               0.000000000              -0.405718994              -0.200224224               0.000000000              -0.429289246              -0.212668168               0.000000000              -0.452859497              -0.225112112               0.000000000              -0.476429749              -0.237556056               0.000000000              -0.500000000              -0.250000000               0.000000000              -0.117295528              -0.062695766               0.000000000              -0.141214558              -0.078308531               0.000000000              -0.165133587              -0.093921295               0.000000000              -0.189052617              -0.109534060               0.000000000              -0.212971646              -0.125146824               0.000000000              -0.236890676              -0.140759589               0.000000000              -0.260809705              -0.156372354               0.000000000              -0.284728735              -0.171985118               0.000000000              -0.308647764              -0.187597883               0.000000000              -0.332566794              -0.203210648               0.000000000              -0.356485823              -0.218823412               0.000000000              -0.380404853              -0.234436177               0.000000000              -0.404323882              -0.250048941               0.000000000              -0.428242912              -0.265661706               0.000000000              -0.452161941              -0.281274471               0.000000000              -0.476080971              -0.296887235               0.000000000              -0.500000000              -0.312500000               0.000000000              -0.110585458              -0.073890841               0.000000000              -0.134923867              -0.092710163               0.000000000              -0.159262276              -0.111529486               0.000000000              -0.183600685              -0.130348808               0.000000000              -0.207939094              -0.149168131               0.000000000              -0.232277503              -0.167987453               0.000000000              -0.256615912              -0.186806776               0.000000000              -0.280954320              -0.205626098               0.000000000              -0.305292729              -0.224445420               0.000000000              -0.329631138              -0.243264743               0.000000000              -0.353969547              -0.262084065               0.000000000              -0.378307956              -0.280903388               0.000000000              -0.402646365              -0.299722710               0.000000000              -0.426984773              -0.318542033               0.000000000              -0.451323182              -0.337361355               0.000000000              -0.475661591              -0.356180678               0.000000000              -0.500000000              -0.375000000               0.000000000              -0.102810390              -0.084374307               0.000000000              -0.127634741              -0.106444663               0.000000000              -0.152459092              -0.128515018               0.000000000              -0.177283442              -0.150585374               0.000000000              -0.202107793              -0.172655730               0.000000000              -0.226932143              -0.194726086               0.000000000              -0.251756494              -0.216796442               0.000000000              -0.276580845              -0.238866798               0.000000000              -0.301405195              -0.260937153               0.000000000              -0.326229546              -0.283007509               0.000000000              -0.351053896              -0.305077865               0.000000000              -0.375878247              -0.327148221               0.000000000              -0.400702598              -0.349218577               0.000000000              -0.425526948              -0.371288933               0.000000000              -0.450351299              -0.393359288               0.000000000              -0.475175649              -0.415429644               0.000000000              -0.500000000              -0.437500000               0.000000000              -0.094045202              -0.094045202               0.000000000              -0.119417377              -0.119417377               0.000000000              -0.144789552              -0.144789552               0.000000000              -0.170161727              -0.170161727               0.000000000              -0.195533901              -0.195533901               0.000000000              -0.220906076              -0.220906076               0.000000000              -0.246278251              -0.246278251               0.000000000              -0.271650426              -0.271650426               0.000000000              -0.297022601              -0.297022601               0.000000000              -0.322394776              -0.322394776               0.000000000              -0.347766951              -0.347766951               0.000000000              -0.373139126              -0.373139126               0.000000000              -0.398511300              -0.398511300               0.000000000              -0.423883475              -0.423883475               0.000000000              -0.449255650              -0.449255650               0.000000000              -0.474627825              -0.474627825               0.000000000              -0.500000000              -0.500000000               0.000000000              -0.084374307              -0.102810390               0.000000000              -0.106444663              -0.127634741               0.000000000              -0.128515018              -0.152459092               0.000000000              -0.150585374              -0.177283442               0.000000000              -0.172655730              -0.202107793               0.000000000              -0.194726086              -0.226932143               0.000000000              -0.216796442              -0.251756494               0.000000000              -0.238866798              -0.276580845               0.000000000              -0.260937153              -0.301405195               0.000000000              -0.283007509              -0.326229546               0.000000000              -0.305077865              -0.351053896               0.000000000              -0.327148221              -0.375878247               0.000000000              -0.349218577              -0.400702598               0.000000000              -0.371288933              -0.425526948               0.000000000              -0.393359288              -0.450351299               0.000000000              -0.415429644              -0.475175649               0.000000000              -0.437500000              -0.500000000               0.000000000              -0.073890841              -0.110585458               0.000000000              -0.092710163              -0.134923867               0.000000000              -0.111529486              -0.159262276               0.000000000              -0.130348808              -0.183600685               0.000000000              -0.149168131              -0.207939094               0.000000000              -0.167987453              -0.232277503               0.000000000              -0.186806776              -0.256615912               0.000000000              -0.205626098              -0.280954320               0.000000000              -0.224445420              -0.305292729               0.000000000              -0.243264743              -0.329631138               0.000000000              -0.262084065              -0.353969547               0.000000000              -0.280903388              -0.378307956               0.000000000              -0.299722710              -0.402646365               0.000000000              -0.318542033              -0.426984773               0.000000000              -0.337361355              -0.451323182               0.000000000              -0.356180678              -0.475661591               0.000000000              -0.375000000              -0.500000000               0.000000000              -0.062695766              -0.117295528               0.000000000              -0.078308531              -0.141214558               0.000000000              -0.093921295              -0.165133587               0.000000000              -0.109534060              -0.189052617               0.000000000              -0.125146824              -0.212971646               0.000000000              -0.140759589              -0.236890676               0.000000000              -0.156372354              -0.260809705               0.000000000              -0.171985118              -0.284728735               0.000000000              -0.187597883              -0.308647764               0.000000000              -0.203210648              -0.332566794               0.000000000              -0.218823412              -0.356485823               0.000000000              -0.234436177              -0.380404853               0.000000000              -0.250048941              -0.404323882               0.000000000              -0.265661706              -0.428242912               0.000000000              -0.281274471              -0.452161941               0.000000000              -0.296887235              -0.476080971               0.000000000              -0.312500000              -0.500000000               0.000000000              -0.050896897              -0.122875978               0.000000000              -0.063340840              -0.146446229               0.000000000              -0.075784784              -0.170016481               0.000000000              -0.088228728              -0.193586732               0.000000000              -0.100672672              -0.217156983               0.000000000              -0.113116616              -0.240727235               0.000000000              -0.125560560              -0.264297486               0.000000000              -0.138004504              -0.287867738               0.000000000              -0.150448448              -0.311437989               0.000000000              -0.162892392              -0.335008240               0.000000000              -0.175336336              -0.358578492               0.000000000              -0.187780280              -0.382148743               0.000000000              -0.200224224              -0.405718994               0.000000000              -0.212668168              -0.429289246               0.000000000              -0.225112112              -0.452859497               0.000000000              -0.237556056              -0.476429749               0.000000000              -0.250000000              -0.500000000               0.000000000              -0.038607862              -0.127273065               0.000000000              -0.047913621              -0.150568498               0.000000000              -0.057219379              -0.173863932               0.000000000              -0.066525138              -0.197159365               0.000000000              -0.075830897              -0.220454798               0.000000000              -0.085136655              -0.243750232               0.000000000              -0.094442414              -0.267045665               0.000000000              -0.103748172              -0.290341099               0.000000000              -0.113053931              -0.313636532               0.000000000              -0.122359690              -0.336931966               0.000000000              -0.131665448              -0.360227399               0.000000000              -0.140971207              -0.383522833               0.000000000              -0.150276966              -0.406818266               0.000000000              -0.159582724              -0.430113700               0.000000000              -0.168888483              -0.453409133               0.000000000              -0.178194241              -0.476704567               0.000000000              -0.187500000              -0.500000000               0.000000000              -0.025947013              -0.130444442               0.000000000              -0.032137825              -0.153541665               0.000000000              -0.038328636              -0.176638887               0.000000000              -0.044519448              -0.199736109               0.000000000              -0.050710260              -0.222833332               0.000000000              -0.056901071              -0.245930554               0.000000000              -0.063091883              -0.269027776               0.000000000              -0.069282695              -0.292124999               0.000000000              -0.075473506              -0.315222221               0.000000000              -0.081664318              -0.338319444               0.000000000              -0.087855130              -0.361416666               0.000000000              -0.094045942              -0.384513888               0.000000000              -0.100236753              -0.407611111               0.000000000              -0.106427565              -0.430708333               0.000000000              -0.112618377              -0.453805555               0.000000000              -0.118809188              -0.476902778               0.000000000              -0.125000000              -0.500000000               0.000000000              -0.013036280              -0.132359569               0.000000000              -0.016127762              -0.155337096               0.000000000              -0.019219245              -0.178314623               0.000000000              -0.022310727              -0.201292150               0.000000000              -0.025402210              -0.224269676               0.000000000              -0.028493692              -0.247247203               0.000000000              -0.031585175              -0.270224730               0.000000000              -0.034676657              -0.293202257               0.000000000              -0.037768140              -0.316179784               0.000000000              -0.040859622              -0.339157311               0.000000000              -0.043951105              -0.362134838               0.000000000              -0.047042587              -0.385112365               0.000000000              -0.050134070              -0.408089892               0.000000000              -0.053225552              -0.431067419               0.000000000              -0.056317035              -0.454044946               0.000000000              -0.059408517              -0.477022473               0.000000000              -0.062500000              -0.500000000               0.000000000               0.000000000              -0.133000000               0.000000000               0.000000000              -0.155937500               0.000000000               0.000000000              -0.178875000               0.000000000               0.000000000              -0.201812500               0.000000000               0.000000000              -0.224750000               0.000000000               0.000000000              -0.247687500               0.000000000               0.000000000              -0.270625000               0.000000000               0.000000000              -0.293562500               0.000000000               0.000000000              -0.316500000               0.000000000               0.000000000              -0.339437500               0.000000000               0.000000000              -0.362375000               0.000000000               0.000000000              -0.385312500               0.000000000               0.000000000              -0.408250000               0.000000000               0.000000000              -0.431187500               0.000000000               0.000000000              -0.454125000               0.000000000               0.000000000              -0.477062500               0.000000000               0.000000000              -0.500000000               0.000000000              -0.133000000               0.000000000               0.000000000              -0.155937500               0.000000000               0.000000000              -0.178875000               0.000000000               0.000000000              -0.201812500               0.000000000               0.000000000              -0.224750000               0.000000000               0.000000000              -0.247687500               0.000000000               0.000000000              -0.270625000               0.000000000               0.000000000              -0.293562500               0.000000000               0.000000000              -0.316500000               0.000000000               0.000000000              -0.339437500               0.000000000               0.000000000              -0.362375000               0.000000000               0.000000000              -0.385312500               0.000000000               0.000000000              -0.408250000               0.000000000               0.000000000              -0.431187500               0.000000000               0.000000000              -0.454125000               0.000000000               0.000000000              -0.477062500               0.000000000               0.000000000              -0.500000000               0.000000000               0.000000000              -0.132359569               0.013036280               0.000000000              -0.155337096               0.016127762               0.000000000              -0.178314623               0.019219245               0.000000000              -0.201292150               0.022310727               0.000000000              -0.224269676               0.025402210               0.000000000              -0.247247203               0.028493692               0.000000000              -0.270224730               0.031585175               0.000000000              -0.293202257               0.034676657               0.000000000              -0.316179784               0.037768140               0.000000000              -0.339157311               0.040859622               0.000000000              -0.362134838               0.043951105               0.000000000              -0.385112365               0.047042587               0.000000000              -0.408089892               0.050134070               0.000000000              -0.431067419               0.053225552               0.000000000              -0.454044946               0.056317035               0.000000000              -0.477022473               0.059408517               0.000000000              -0.500000000               0.062500000               0.000000000              -0.130444442               0.025947013               0.000000000              -0.153541665               0.032137825               0.000000000              -0.176638887               0.038328636               0.000000000              -0.199736109               0.044519448               0.000000000              -0.222833332               0.050710260               0.000000000              -0.245930554               0.056901071               0.000000000              -0.269027776               0.063091883               0.000000000              -0.292124999               0.069282695               0.000000000              -0.315222221               0.075473506               0.000000000              -0.338319444               0.081664318               0.000000000              -0.361416666               0.087855130               0.000000000              -0.384513888               0.094045942               0.000000000              -0.407611111               0.100236753               0.000000000              -0.430708333               0.106427565               0.000000000              -0.453805555               0.112618377               0.000000000              -0.476902778               0.118809188               0.000000000              -0.500000000               0.125000000               0.000000000              -0.127273065               0.038607862               0.000000000              -0.150568498               0.047913621               0.000000000              -0.173863932               0.057219379               0.000000000              -0.197159365               0.066525138               0.000000000              -0.220454798               0.075830897               0.000000000              -0.243750232               0.085136655               0.000000000              -0.267045665               0.094442414               0.000000000              -0.290341099               0.103748172               0.000000000              -0.313636532               0.113053931               0.000000000              -0.336931966               0.122359690               0.000000000              -0.360227399               0.131665448               0.000000000              -0.383522833               0.140971207               0.000000000              -0.406818266               0.150276966               0.000000000              -0.430113700               0.159582724               0.000000000              -0.453409133               0.168888483               0.000000000              -0.476704567               0.178194241               0.000000000              -0.500000000               0.187500000               0.000000000              -0.122875978               0.050896897               0.000000000              -0.146446229               0.063340840               0.000000000              -0.170016481               0.075784784               0.000000000              -0.193586732               0.088228728               0.000000000              -0.217156983               0.100672672               0.000000000              -0.240727235               0.113116616               0.000000000              -0.264297486               0.125560560               0.000000000              -0.287867738               0.138004504               0.000000000              -0.311437989               0.150448448               0.000000000              -0.335008240               0.162892392               0.000000000              -0.358578492               0.175336336               0.000000000              -0.382148743               0.187780280               0.000000000              -0.405718994               0.200224224               0.000000000              -0.429289246               0.212668168               0.000000000              -0.452859497               0.225112112               0.000000000              -0.476429749               0.237556056               0.000000000              -0.500000000               0.250000000               0.000000000              -0.117295528               0.062695766               0.000000000              -0.141214558               0.078308531               0.000000000              -0.165133587               0.093921295               0.000000000              -0.189052617               0.109534060               0.000000000              -0.212971646               0.125146824               0.000000000              -0.236890676               0.140759589               0.000000000              -0.260809705               0.156372354               0.000000000              -0.284728735               0.171985118               0.000000000              -0.308647764               0.187597883               0.000000000              -0.332566794               0.203210648               0.000000000              -0.356485823               0.218823412               0.000000000              -0.380404853               0.234436177               0.000000000              -0.404323882               0.250048941               0.000000000              -0.428242912               0.265661706               0.000000000              -0.452161941               0.281274471               0.000000000              -0.476080971               0.296887235               0.000000000              -0.500000000               0.312500000               0.000000000              -0.110585458               0.073890841               0.000000000              -0.134923867               0.092710163               0.000000000              -0.159262276               0.111529486               0.000000000              -0.183600685               0.130348808               0.000000000              -0.207939094               0.149168131               0.000000000              -0.232277503               0.167987453               0.000000000              -0.256615912               0.186806776               0.000000000              -0.280954320               0.205626098               0.000000000              -0.305292729               0.224445420               0.000000000              -0.329631138               0.243264743               0.000000000              -0.353969547               0.262084065               0.000000000              -0.378307956               0.280903388               0.000000000              -0.402646365               0.299722710               0.000000000              -0.426984773               0.318542033               0.000000000              -0.451323182               0.337361355               0.000000000              -0.475661591               0.356180678               0.000000000              -0.500000000               0.375000000               0.000000000              -0.102810390               0.084374307               0.000000000              -0.127634741               0.106444663               0.000000000              -0.152459092               0.128515018               0.000000000              -0.177283442               0.150585374               0.000000000              -0.202107793               0.172655730               0.000000000              -0.226932143               0.194726086               0.000000000              -0.251756494               0.216796442               0.000000000              -0.276580845               0.238866798               0.000000000              -0.301405195               0.260937153               0.000000000              -0.326229546               0.283007509               0.000000000              -0.351053896               0.305077865               0.000000000              -0.375878247               0.327148221               0.000000000              -0.400702598               0.349218577               0.000000000              -0.425526948               0.371288933               0.000000000              -0.450351299               0.393359288               0.000000000              -0.475175649               0.415429644               0.000000000              -0.500000000               0.437500000               0.000000000              -0.094045202               0.094045202               0.000000000              -0.119417377               0.119417377               0.000000000              -0.144789552               0.144789552               0.000000000              -0.170161727               0.170161727               0.000000000              -0.195533901               0.195533901               0.000000000              -0.220906076               0.220906076               0.000000000              -0.246278251               0.246278251               0.000000000              -0.271650426               0.271650426               0.000000000              -0.297022601               0.297022601               0.000000000              -0.322394776               0.322394776               0.000000000              -0.347766951               0.347766951               0.000000000              -0.373139126               0.373139126               0.000000000              -0.398511300               0.398511300               0.000000000              -0.423883475               0.423883475               0.000000000              -0.449255650               0.449255650               0.000000000              -0.474627825               0.474627825               0.000000000              -0.500000000               0.500000000               0.000000000              -0.084374307               0.102810390               0.000000000              -0.106444663               0.127634741               0.000000000              -0.128515018               0.152459092               0.000000000              -0.150585374               0.177283442               0.000000000              -0.172655730               0.202107793               0.000000000              -0.194726086               0.226932143               0.000000000              -0.216796442               0.251756494               0.000000000              -0.238866798               0.276580845               0.000000000              -0.260937153               0.301405195               0.000000000              -0.283007509               0.326229546               0.000000000              -0.305077865               0.351053896               0.000000000              -0.327148221               0.375878247               0.000000000              -0.349218577               0.400702598               0.000000000              -0.371288933               0.425526948               0.000000000              -0.393359288               0.450351299               0.000000000              -0.415429644               0.475175649               0.000000000              -0.437500000               0.500000000               0.000000000              -0.073890841               0.110585458               0.000000000              -0.092710163               0.134923867               0.000000000              -0.111529486               0.159262276               0.000000000              -0.130348808               0.183600685               0.000000000              -0.149168131               0.207939094               0.000000000              -0.167987453               0.232277503               0.000000000              -0.186806776               0.256615912               0.000000000              -0.205626098               0.280954320               0.000000000              -0.224445420               0.305292729               0.000000000              -0.243264743               0.329631138               0.000000000              -0.262084065               0.353969547               0.000000000              -0.280903388               0.378307956               0.000000000              -0.299722710               0.402646365               0.000000000              -0.318542033               0.426984773               0.000000000              -0.337361355               0.451323182               0.000000000              -0.356180678               0.475661591               0.000000000              -0.375000000               0.500000000               0.000000000              -0.062695766               0.117295528               0.000000000              -0.078308531               0.141214558               0.000000000              -0.093921295               0.165133587               0.000000000              -0.109534060               0.189052617               0.000000000              -0.125146824               0.212971646               0.000000000              -0.140759589               0.236890676               0.000000000              -0.156372354               0.260809705               0.000000000              -0.171985118               0.284728735               0.000000000              -0.187597883               0.308647764               0.000000000              -0.203210648               0.332566794               0.000000000              -0.218823412               0.356485823               0.000000000              -0.234436177               0.380404853               0.000000000              -0.250048941               0.404323882               0.000000000              -0.265661706               0.428242912               0.000000000              -0.281274471               0.452161941               0.000000000              -0.296887235               0.476080971               0.000000000              -0.312500000               0.500000000               0.000000000              -0.050896897               0.122875978               0.000000000              -0.063340840               0.146446229               0.000000000              -0.075784784               0.170016481               0.000000000              -0.088228728               0.193586732               0.000000000              -0.100672672               0.217156983               0.000000000              -0.113116616               0.240727235               0.000000000              -0.125560560               0.264297486               0.000000000              -0.138004504               0.287867738               0.000000000              -0.150448448               0.311437989               0.000000000              -0.162892392               0.335008240               0.000000000              -0.175336336               0.358578492               0.000000000              -0.187780280               0.382148743               0.000000000              -0.200224224               0.405718994               0.000000000              -0.212668168               0.429289246               0.000000000              -0.225112112               0.452859497               0.000000000              -0.237556056               0.476429749               0.000000000              -0.250000000               0.500000000               0.000000000              -0.038607862               0.127273065               0.000000000              -0.047913621               0.150568498               0.000000000              -0.057219379               0.173863932               0.000000000              -0.066525138               0.197159365               0.000000000              -0.075830897               0.220454798               0.000000000              -0.085136655               0.243750232               0.000000000              -0.094442414               0.267045665               0.000000000              -0.103748172               0.290341099               0.000000000              -0.113053931               0.313636532               0.000000000              -0.122359690               0.336931966               0.000000000              -0.131665448               0.360227399               0.000000000              -0.140971207               0.383522833               0.000000000              -0.150276966               0.406818266               0.000000000              -0.159582724               0.430113700               0.000000000              -0.168888483               0.453409133               0.000000000              -0.178194241               0.476704567               0.000000000              -0.187500000               0.500000000               0.000000000              -0.025947013               0.130444442               0.000000000              -0.032137825               0.153541665               0.000000000              -0.038328636               0.176638887               0.000000000              -0.044519448               0.199736109               0.000000000              -0.050710260               0.222833332               0.000000000              -0.056901071               0.245930554               0.000000000              -0.063091883               0.269027776               0.000000000              -0.069282695               0.292124999               0.000000000              -0.075473506               0.315222221               0.000000000              -0.081664318               0.338319444               0.000000000              -0.087855130               0.361416666               0.000000000              -0.094045942               0.384513888               0.000000000              -0.100236753               0.407611111               0.000000000              -0.106427565               0.430708333               0.000000000              -0.112618377               0.453805555               0.000000000              -0.118809188               0.476902778               0.000000000              -0.125000000               0.500000000               0.000000000              -0.013036280               0.132359569               0.000000000              -0.016127762               0.155337096               0.000000000              -0.019219245               0.178314623               0.000000000              -0.022310727               0.201292150               0.000000000              -0.025402210               0.224269676               0.000000000              -0.028493692               0.247247203               0.000000000              -0.031585175               0.270224730               0.000000000              -0.034676657               0.293202257               0.000000000              -0.037768140               0.316179784               0.000000000              -0.040859622               0.339157311               0.000000000              -0.043951105               0.362134838               0.000000000              -0.047042587               0.385112365               0.000000000              -0.050134070               0.408089892               0.000000000              -0.053225552               0.431067419               0.000000000              -0.056317035               0.454044946               0.000000000              -0.059408517               0.477022473               0.000000000              -0.062500000               0.500000000               0.000000000               0.000000000               0.133000000               0.000000000               0.000000000               0.155937500               0.000000000               0.000000000               0.178875000               0.000000000               0.000000000               0.201812500               0.000000000               0.000000000               0.224750000               0.000000000               0.000000000               0.247687500               0.000000000               0.000000000               0.270625000               0.000000000               0.000000000               0.293562500               0.000000000               0.000000000               0.316500000               0.000000000               0.000000000               0.339437500               0.000000000               0.000000000               0.362375000               0.000000000               0.000000000               0.385312500               0.000000000               0.000000000               0.408250000               0.000000000               0.000000000               0.431187500               0.000000000               0.000000000               0.454125000               0.000000000               0.000000000               0.477062500               0.000000000               0.000000000               0.500000000               0.000000000 </DataArray>
</Points>
<Cells>
<DataArray type="Int32"                                    Name="connectivity"                                                      NumberOfComponents=" 1" format="ascii">
         0          1         18         17          1          2         19         18          2          3         20         19          3          4         21         20          4          5         22         21          5          6         23         22          6          7         24         23          7          8         25         24          8          9         26         25          9         10         27         26         10         11         28         27         11         12         29         28         12         13         30         29         13         14         31         30         14         15         32         31         15         16         33         32         17         18         35         34         18         19         36         35         19         20         37         36         20         21         38         37         21         22         39         38         22         23         40         39         23         24         41         40         24         25         42         41         25         26         43         42         26         27         44         43         27         28         45         44         28         29         46         45         29         30         47         46         30         31         48         47         31         32         49         48         32         33         50         49         34         35         52         51         35         36         53         52         36         37         54         53         37         38         55         54         38         39         56         55         39         40         57         56         40         41         58         57         41         42         59         58         42         43         60         59         43         44         61         60         44         45         62         61         45         46         63         62         46         47         64         63         47         48         65         64         48         49         66         65         49         50         67         66         51         52         69         68         52         53         70         69         53         54         71         70         54         55         72         71         55         56         73         72         56         57         74         73         57         58         75         74         58         59         76         75         59         60         77         76         60         61         78         77         61         62         79         78         62         63         80         79         63         64         81         80         64         65         82         81         65         66         83         82         66         67         84         83         68         69         86         85         69         70         87         86         70         71         88         87         71         72         89         88         72         73         90         89         73         74         91         90         74         75         92         91         75         76         93         92         76         77         94         93         77         78         95         94         78         79         96         95         79         80         97         96         80         81         98         97         81         82         99         98         82         83        100         99         83         84        101        100         85         86        103        102         86         87        104        103         87         88        105        104         88         89        106        105         89         90        107        106         90         91        108        107         91         92        109        108         92         93        110        109         93         94        111        110         94         95        112        111         95         96        113        112         96         97        114        113         97         98        115        114         98         99        116        115         99        100        117        116        100        101        118        117        102        103        120        119        103        104        121        120        104        105        122        121        105        106        123        122        106        107        124        123        107        108        125        124        108        109        126        125        109        110        127        126        110        111        128        127        111        112        129        128        112        113        130        129        113        114        131        130        114        115        132        131        115        116        133        132        116        117        134        133        117        118        135        134        119        120        137        136        120        121        138        137        121        122        139        138        122        123        140        139        123        124        141        140        124        125        142        141        125        126        143        142        126        127        144        143        127        128        145        144        128        129        146        145        129        130        147        146        130        131        148        147        131        132        149        148        132        133        150        149        133        134        151        150        134        135        152        151        136        137        154        153        137        138        155        154        138        139        156        155        139        140        157        156        140        141        158        157        141        142        159        158        142        143        160        159        143        144        161        160        144        145        162        161        145        146        163        162        146        147        164        163        147        148        165        164        148        149        166        165        149        150        167        166        150        151        168        167        151        152        169        168        153        154        171        170        154        155        172        171        155        156        173        172        156        157        174        173        157        158        175        174        158        159        176        175        159        160        177        176        160        161        178        177        161        162        179        178        162        163        180        179        163        164        181        180        164        165        182        181        165        166        183        182        166        167        184        183        167        168        185        184        168        169        186        185        170        171        188        187        171        172        189        188        172        173        190        189        173        174        191        190        174        175        192        191        175        176        193        192        176        177        194        193        177        178        195        194        178        179        196        195        179        180        197        196        180        181        198        197        181        182        199        198        182        183        200        199        183        184        201        200        184        185        202        201        185        186        203        202        187        188        205        204        188        189        206        205        189        190        207        206        190        191        208        207        191        192        209        208        192        193        210        209        193        194        211        210        194        195        212        211        195        196        213        212        196        197        214        213        197        198        215        214        198        199        216        215        199        200        217        216        200        201        218        217        201        202        219        218        202        203        220        219        204        205        222        221        205        206        223        222        206        207        224        223        207        208        225        224        208        209        226        225        209        210        227        226        210        211        228        227        211        212        229        228        212        213        230        229        213        214        231        230        214        215        232        231        215        216        233        232        216        217        234        233        217        218        235        234        218        219        236        235        219        220        237        236        221        222        239        238        222        223        240        239        223        224        241        240        224        225        242        241        225        226        243        242        226        227        244        243        227        228        245        244        228        229        246        245        229        230        247        246        230        231        248        247        231        232        249        248        232        233        250        249        233        234        251        250        234        235        252        251        235        236        253        252        236        237        254        253        238        239        256        255        239        240        257        256        240        241        258        257        241        242        259        258        242        243        260        259        243        244        261        260        244        245        262        261        245        246        263        262        246        247        264        263        247        248        265        264        248        249        266        265        249        250        267        266        250        251        268        267        251        252        269        268        252        253        270        269        253        254        271        270        255        256        273        272        256        257        274        273        257        258        275        274        258        259        276        275        259        260        277        276        260        261        278        277        261        262        279        278        262        263        280        279        263        264        281        280        264        265        282        281        265        266        283        282        266        267        284        283        267        268        285        284        268        269        286        285        269        270        287        286        270        271        288        287        306        307          1          0        307        308          2          1        308        309          3          2        309        310          4          3        310        311          5          4        311        312          6          5        312        313          7          6        313        314          8          7        314        315          9          8        315        316         10          9        316        317         11         10        317        318         12         11        318        319         13         12        319        320         14         13        320        321         15         14        321        322         16         15        323        324        307        306        324        325        308        307        325        326        309        308        326        327        310        309        327        328        311        310        328        329        312        311        329        330        313        312        330        331        314        313        331        332        315        314        332        333        316        315        333        334        317        316        334        335        318        317        335        336        319        318        336        337        320        319        337        338        321        320        338        339        322        321        340        341        324        323        341        342        325        324        342        343        326        325        343        344        327        326        344        345        328        327        345        346        329        328        346        347        330        329        347        348        331        330        348        349        332        331        349        350        333        332        350        351        334        333        351        352        335        334        352        353        336        335        353        354        337        336        354        355        338        337        355        356        339        338        357        358        341        340        358        359        342        341        359        360        343        342        360        361        344        343        361        362        345        344        362        363        346        345        363        364        347        346        364        365        348        347        365        366        349        348        366        367        350        349        367        368        351        350        368        369        352        351        369        370        353        352        370        371        354        353        371        372        355        354        372        373        356        355        374        375        358        357        375        376        359        358        376        377        360        359        377        378        361        360        378        379        362        361        379        380        363        362        380        381        364        363        381        382        365        364        382        383        366        365        383        384        367        366        384        385        368        367        385        386        369        368        386        387        370        369        387        388        371        370        388        389        372        371        389        390        373        372        391        392        375        374        392        393        376        375        393        394        377        376        394        395        378        377        395        396        379        378        396        397        380        379        397        398        381        380        398        399        382        381        399        400        383        382        400        401        384        383        401        402        385        384        402        403        386        385        403        404        387        386        404        405        388        387        405        406        389        388        406        407        390        389        408        409        392        391        409        410        393        392        410        411        394        393        411        412        395        394        412        413        396        395        413        414        397        396        414        415        398        397        415        416        399        398        416        417        400        399        417        418        401        400        418        419        402        401        419        420        403        402        420        421        404        403        421        422        405        404        422        423        406        405        423        424        407        406        425        426        409        408        426        427        410        409        427        428        411        410        428        429        412        411        429        430        413        412        430        431        414        413        431        432        415        414        432        433        416        415        433        434        417        416        434        435        418        417        435        436        419        418        436        437        420        419        437        438        421        420        438        439        422        421        439        440        423        422        440        441        424        423        442        443        426        425        443        444        427        426        444        445        428        427        445        446        429        428        446        447        430        429        447        448        431        430        448        449        432        431        449        450        433        432        450        451        434        433        451        452        435        434        452        453        436        435        453        454        437        436        454        455        438        437        455        456        439        438        456        457        440        439        457        458        441        440        459        460        443        442        460        461        444        443        461        462        445        444        462        463        446        445        463        464        447        446        464        465        448        447        465        466        449        448        466        467        450        449        467        468        451        450        468        469        452        451        469        470        453        452        470        471        454        453        471        472        455        454        472        473        456        455        473        474        457        456        474        475        458        457        476        477        460        459        477        478        461        460        478        479        462        461        479        480        463        462        480        481        464        463        481        482        465        464        482        483        466        465        483        484        467        466        484        485        468        467        485        486        469        468        486        487        470        469        487        488        471        470        488        489        472        471        489        490        473        472        490        491        474        473        491        492        475        474        493        494        477        476        494        495        478        477        495        496        479        478        496        497        480        479        497        498        481        480        498        499        482        481        499        500        483        482        500        501        484        483        501        502        485        484        502        503        486        485        503        504        487        486        504        505        488        487        505        506        489        488        506        507        490        489        507        508        491        490        508        509        492        491        510        511        494        493        511        512        495        494        512        513        496        495        513        514        497        496        514        515        498        497        515        516        499        498        516        517        500        499        517        518        501        500        518        519        502        501        519        520        503        502        520        521        504        503        521        522        505        504        522        523        506        505        523        524        507        506        524        525        508        507        525        526        509        508        527        528        511        510        528        529        512        511        529        530        513        512        530        531        514        513        531        532        515        514        532        533        516        515        533        534        517        516        534        535        518        517        535        536        519        518        536        537        520        519        537        538        521        520        538        539        522        521        539        540        523        522        540        541        524        523        541        542        525        524        542        543        526        525        544        545        528        527        545        546        529        528        546        547        530        529        547        548        531        530        548        549        532        531        549        550        533        532        550        551        534        533        551        552        535        534        552        553        536        535        553        554        537        536        554        555        538        537        555        556        539        538        556        557        540        539        557        558        541        540        558        559        542        541        559        560        543        542        561        562        545        544        562        563        546        545        563        564        547        546        564        565        548        547        565        566        549        548        566        567        550        549        567        568        551        550        568        569        552        551        569        570        553        552        570        571        554        553        571        572        555        554        572        573        556        555        573        574        557        556        574        575        558        557        575        576        559        558        576        577        560        559        578        579        596        595        579        580        597        596        580        581        598        597        581        582        599        598        582        583        600        599        583        584        601        600        584        585        602        601        585        586        603        602        586        587        604        603        587        588        605        604        588        589        606        605        589        590        607        606        590        591        608        607        591        592        609        608        592        593        610        609        593        594        611        610        595        596        613        612        596        597        614        613        597        598        615        614        598        599        616        615        599        600        617        616        600        601        618        617        601        602        619        618        602        603        620        619        603        604        621        620        604        605        622        621        605        606        623        622        606        607        624        623        607        608        625        624        608        609        626        625        609        610        627        626        610        611        628        627        612        613        630        629        613        614        631        630        614        615        632        631        615        616        633        632        616        617        634        633        617        618        635        634        618        619        636        635        619        620        637        636        620        621        638        637        621        622        639        638        622        623        640        639        623        624        641        640        624        625        642        641        625        626        643        642        626        627        644        643        627        628        645        644        629        630        647        646        630        631        648        647        631        632        649        648        632        633        650        649        633        634        651        650        634        635        652        651        635        636        653        652        636        637        654        653        637        638        655        654        638        639        656        655        639        640        657        656        640        641        658        657        641        642        659        658        642        643        660        659        643        644        661        660        644        645        662        661        646        647        664        663        647        648        665        664        648        649        666        665        649        650        667        666        650        651        668        667        651        652        669        668        652        653        670        669        653        654        671        670        654        655        672        671        655        656        673        672        656        657        674        673        657        658        675        674        658        659        676        675        659        660        677        676        660        661        678        677        661        662        679        678        663        664        681        680        664        665        682        681        665        666        683        682        666        667        684        683        667        668        685        684        668        669        686        685        669        670        687        686        670        671        688        687        671        672        689        688        672        673        690        689        673        674        691        690        674        675        692        691        675        676        693        692        676        677        694        693        677        678        695        694        678        679        696        695        680        681        698        697        681        682        699        698        682        683        700        699        683        684        701        700        684        685        702        701        685        686        703        702        686        687        704        703        687        688        705        704        688        689        706        705        689        690        707        706        690        691        708        707        691        692        709        708        692        693        710        709        693        694        711        710        694        695        712        711        695        696        713        712        697        698        715        714        698        699        716        715        699        700        717        716        700        701        718        717        701        702        719        718        702        703        720        719        703        704        721        720        704        705        722        721        705        706        723        722        706        707        724        723        707        708        725        724        708        709        726        725        709        710        727        726        710        711        728        727        711        712        729        728        712        713        730        729        714        715        732        731        715        716        733        732        716        717        734        733        717        718        735        734        718        719        736        735        719        720        737        736        720        721        738        737        721        722        739        738        722        723        740        739        723        724        741        740        724        725        742        741        725        726        743        742        726        727        744        743        727        728        745        744        728        729        746        745        729        730        747        746        731        732        749        748        732        733        750        749        733        734        751        750        734        735        752        751        735        736        753        752        736        737        754        753        737        738        755        754        738        739        756        755        739        740        757        756        740        741        758        757        741        742        759        758        742        743        760        759        743        744        761        760        744        745        762        761        745        746        763        762        746        747        764        763        748        749        766        765        749        750        767        766        750        751        768        767        751        752        769        768        752        753        770        769        753        754        771        770        754        755        772        771        755        756        773        772        756        757        774        773        757        758        775        774        758        759        776        775        759        760        777        776        760        761        778        777        761        762        779        778        762        763        780        779        763        764        781        780        765        766        783        782        766        767        784        783        767        768        785        784        768        769        786        785        769        770        787        786        770        771        788        787        771        772        789        788        772        773        790        789        773        774        791        790        774        775        792        791        775        776        793        792        776        777        794        793        777        778        795        794        778        779        796        795        779        780        797        796        780        781        798        797        782        783        800        799        783        784        801        800        784        785        802        801        785        786        803        802        786        787        804        803        787        788        805        804        788        789        806        805        789        790        807        806        790        791        808        807        791        792        809        808        792        793        810        809        793        794        811        810        794        795        812        811        795        796        813        812        796        797        814        813        797        798        815        814        799        800        817        816        800        801        818        817        801        802        819        818        802        803        820        819        803        804        821        820        804        805        822        821        805        806        823        822        806        807        824        823        807        808        825        824        808        809        826        825        809        810        827        826        810        811        828        827        811        812        829        828        812        813        830        829        813        814        831        830        814        815        832        831        816        817        834        833        817        818        835        834        818        819        836        835        819        820        837        836        820        821        838        837        821        822        839        838        822        823        840        839        823        824        841        840        824        825        842        841        825        826        843        842        826        827        844        843        827        828        845        844        828        829        846        845        829        830        847        846        830        831        848        847        831        832        849        848        833        834        562        561        834        835        563        562        835        836        564        563        836        837        565        564        837        838        566        565        838        839        567        566        839        840        568        567        840        841        569        568        841        842        570        569        842        843        571        570        843        844        572        571        844        845        573        572        845        846        574        573        846        847        575        574        847        848        576        575        848        849        577        576        884        885        579        578        885        886        580        579        886        887        581        580        887        888        582        581        888        889        583        582        889        890        584        583        890        891        585        584        891        892        586        585        892        893        587        586        893        894        588        587        894        895        589        588        895        896        590        589        896        897        591        590        897        898        592        591        898        899        593        592        899        900        594        593        901        902        885        884        902        903        886        885        903        904        887        886        904        905        888        887        905        906        889        888        906        907        890        889        907        908        891        890        908        909        892        891        909        910        893        892        910        911        894        893        911        912        895        894        912        913        896        895        913        914        897        896        914        915        898        897        915        916        899        898        916        917        900        899        918        919        902        901        919        920        903        902        920        921        904        903        921        922        905        904        922        923        906        905        923        924        907        906        924        925        908        907        925        926        909        908        926        927        910        909        927        928        911        910        928        929        912        911        929        930        913        912        930        931        914        913        931        932        915        914        932        933        916        915        933        934        917        916        935        936        919        918        936        937        920        919        937        938        921        920        938        939        922        921        939        940        923        922        940        941        924        923        941        942        925        924        942        943        926        925        943        944        927        926        944        945        928        927        945        946        929        928        946        947        930        929        947        948        931        930        948        949        932        931        949        950        933        932        950        951        934        933        952        953        936        935        953        954        937        936        954        955        938        937        955        956        939        938        956        957        940        939        957        958        941        940        958        959        942        941        959        960        943        942        960        961        944        943        961        962        945        944        962        963        946        945        963        964        947        946        964        965        948        947        965        966        949        948        966        967        950        949        967        968        951        950        969        970        953        952        970        971        954        953        971        972        955        954        972        973        956        955        973        974        957        956        974        975        958        957        975        976        959        958        976        977        960        959        977        978        961        960        978        979        962        961        979        980        963        962        980        981        964        963        981        982        965        964        982        983        966        965        983        984        967        966        984        985        968        967        986        987        970        969        987        988        971        970        988        989        972        971        989        990        973        972        990        991        974        973        991        992        975        974        992        993        976        975        993        994        977        976        994        995        978        977        995        996        979        978        996        997        980        979        997        998        981        980        998        999        982        981        999       1000        983        982       1000       1001        984        983       1001       1002        985        984       1003       1004        987        986       1004       1005        988        987       1005       1006        989        988       1006       1007        990        989       1007       1008        991        990       1008       1009        992        991       1009       1010        993        992       1010       1011        994        993       1011       1012        995        994       1012       1013        996        995       1013       1014        997        996       1014       1015        998        997       1015       1016        999        998       1016       1017       1000        999       1017       1018       1001       1000       1018       1019       1002       1001       1020       1021       1004       1003       1021       1022       1005       1004       1022       1023       1006       1005       1023       1024       1007       1006       1024       1025       1008       1007       1025       1026       1009       1008       1026       1027       1010       1009       1027       1028       1011       1010       1028       1029       1012       1011       1029       1030       1013       1012       1030       1031       1014       1013       1031       1032       1015       1014       1032       1033       1016       1015       1033       1034       1017       1016       1034       1035       1018       1017       1035       1036       1019       1018       1037       1038       1021       1020       1038       1039       1022       1021       1039       1040       1023       1022       1040       1041       1024       1023       1041       1042       1025       1024       1042       1043       1026       1025       1043       1044       1027       1026       1044       1045       1028       1027       1045       1046       1029       1028       1046       1047       1030       1029       1047       1048       1031       1030       1048       1049       1032       1031       1049       1050       1033       1032       1050       1051       1034       1033       1051       1052       1035       1034       1052       1053       1036       1035       1054       1055       1038       1037       1055       1056       1039       1038       1056       1057       1040       1039       1057       1058       1041       1040       1058       1059       1042       1041       1059       1060       1043       1042       1060       1061       1044       1043       1061       1062       1045       1044       1062       1063       1046       1045       1063       1064       1047       1046       1064       1065       1048       1047       1065       1066       1049       1048       1066       1067       1050       1049       1067       1068       1051       1050       1068       1069       1052       1051       1069       1070       1053       1052       1071       1072       1055       1054       1072       1073       1056       1055       1073       1074       1057       1056       1074       1075       1058       1057       1075       1076       1059       1058       1076       1077       1060       1059       1077       1078       1061       1060       1078       1079       1062       1061       1079       1080       1063       1062       1080       1081       1064       1063       1081       1082       1065       1064       1082       1083       1066       1065       1083       1084       1067       1066       1084       1085       1068       1067       1085       1086       1069       1068       1086       1087       1070       1069       1088       1089       1072       1071       1089       1090       1073       1072       1090       1091       1074       1073       1091       1092       1075       1074       1092       1093       1076       1075       1093       1094       1077       1076       1094       1095       1078       1077       1095       1096       1079       1078       1096       1097       1080       1079       1097       1098       1081       1080       1098       1099       1082       1081       1099       1100       1083       1082       1100       1101       1084       1083       1101       1102       1085       1084       1102       1103       1086       1085       1103       1104       1087       1086       1105       1106       1089       1088       1106       1107       1090       1089       1107       1108       1091       1090       1108       1109       1092       1091       1109       1110       1093       1092       1110       1111       1094       1093       1111       1112       1095       1094       1112       1113       1096       1095       1113       1114       1097       1096       1114       1115       1098       1097       1115       1116       1099       1098       1116       1117       1100       1099       1117       1118       1101       1100       1118       1119       1102       1101       1119       1120       1103       1102       1120       1121       1104       1103       1122       1123       1106       1105       1123       1124       1107       1106       1124       1125       1108       1107       1125       1126       1109       1108       1126       1127       1110       1109       1127       1128       1111       1110       1128       1129       1112       1111       1129       1130       1113       1112       1130       1131       1114       1113       1131       1132       1115       1114       1132       1133       1116       1115       1133       1134       1117       1116       1134       1135       1118       1117       1135       1136       1119       1118       1136       1137       1120       1119       1137       1138       1121       1120        272        273       1123       1122        273        274       1124       1123        274        275       1125       1124        275        276       1126       1125        276        277       1127       1126        277        278       1128       1127        278        279       1129       1128        279        280       1130       1129        280        281       1131       1130        281        282       1132       1131        282        283       1133       1132        283        284       1134       1133        284        285       1135       1134        285        286       1136       1135        286        287       1137       1136        287        288       1138       1137 </DataArray>
<DataArray type="Int32"                                    Name="offsets"                                                      NumberOfComponents=" 1" format="ascii">
         4          8         12         16         20         24         28         32         36         40         44         48         52         56         60         64         68         72         76         80         84         88         92         96        100        104        108        112        116        120        124        128        132        136        140        144        148        152        156        160        164        168        172        176        180        184        188        192        196        200        204        208        212        216        220        224        228        232        236        240        244        248        252        256        260        264        268        272        276        280        284        288        292        296        300        304        308        312        316        320        324        328        332        336        340        344        348        352        356        360        364        368        372        376        380        384        388        392        396        400        404        408        412        416        420        424        428        432        436        440        444        448        452        456        460        464        468        472        476        480        484        488        492        496        500        504        508        512        516        520        524        528        532        536        540        544        548        552        556        560        564        568        572        576        580        584        588        592        596        600        604        608        612        616        620        624        628        632        636        640        644        648        652        656        660        664        668        672        676        680        684        688        692        696        700        704        708        712        716        720        724        728        732        736        740        744        748        752        756        760        764        768        772        776        780        784        788        792        796        800        804        808        812        816        820        824        828        832        836        840        844        848        852        856        860        864        868        872        876        880        884        888        892        896        900        904        908        912        916        920        924        928        932        936        940        944        948        952        956        960        964        968        972        976        980        984        988        992        996       1000       1004       1008       1012       1016       1020       1024       1028       1032       1036       1040       1044       1048       1052       1056       1060       1064       1068       1072       1076       1080       1084       1088       1092       1096       1100       1104       1108       1112       1116       1120       1124       1128       1132       1136       1140       1144       1148       1152       1156       1160       1164       1168       1172       1176       1180       1184       1188       1192       1196       1200       1204       1208       1212       1216       1220       1224       1228       1232       1236       1240       1244       1248       1252       1256       1260       1264       1268       1272       1276       1280       1284       1288       1292       1296       1300       1304       1308       1312       1316       1320       1324       1328       1332       1336       1340       1344       1348       1352       1356       1360       1364       1368       1372       1376       1380       1384       1388       1392       1396       1400       1404       1408       1412       1416       1420       1424       1428       1432       1436       1440       1444       1448       1452       1456       1460       1464       1468       1472       1476       1480       1484       1488       1492       1496       1500       1504       1508       1512       1516       1520       1524       1528       1532       1536       1540       1544       1548       1552       1556       1560       1564       1568       1572       1576       1580       1584       1588       1592       1596       1600       1604       1608       1612       1616       1620       1624       1628       1632       1636       1640       1644       1648       1652       1656       1660       1664       1668       1672       1676       1680       1684       1688       1692       1696       1700       1704       1708       1712       1716       1720       1724       1728       1732       1736       1740       1744       1748       1752       1756       1760       1764       1768       1772       1776       1780       1784       1788       1792       1796       1800       1804       1808       1812       1816       1820       1824       1828       1832       1836       1840       1844       1848       1852       1856       1860       1864       1868       1872       1876       1880       1884       1888       1892       1896       1900       1904       1908       1912       1916       1920       1924       1928       1932       1936       1940       1944       1948       1952       1956       1960       1964       1968       1972       1976       1980       1984       1988       1992       1996       2000       2004       2008       2012       2016       2020       2024       2028       2032       2036       2040       2044       2048       2052       2056       2060       2064       2068       2072       2076       2080       2084       2088       2092       2096       2100       2104       2108       2112       2116       2120       2124       2128       2132       2136       2140       2144       2148       2152       2156       2160       2164       2168       2172       2176       2180       2184       2188       2192       2196       2200       2204       2208       2212       2216       2220       2224       2228       2232       2236       2240       2244       2248       2252       2256       2260       2264       2268       2272       2276       2280       2284       2288       2292       2296       2300       2304       2308       2312       2316       2320       2324       2328       2332       2336       2340       2344       2348       2352       2356       2360       2364       2368       2372       2376       2380       2384       2388       2392       2396       2400       2404       2408       2412       2416       2420       2424       2428       2432       2436       2440       2444       2448       2452       2456       2460       2464       2468       2472       2476       2480       2484       2488       2492       2496       2500       2504       2508       2512       2516       2520       2524       2528       2532       2536       2540       2544       2548       2552       2556       2560       2564       2568       2572       2576       2580       2584       2588       2592       2596       2600       2604       2608       2612       2616       2620       2624       2628       2632       2636       2640       2644       2648       2652       2656       2660       2664       2668       2672       2676       2680       2684       2688       2692       2696       2700       2704       2708       2712       2716       2720       2724       2728       2732       2736       2740       2744       2748       2752       2756       2760       2764       2768       2772       2776       2780       2784       2788       2792       2796       2800       2804       2808       2812       2816       2820       2824       2828       2832       2836       2840       2844       2848       2852       2856       2860       2864       2868       2872       2876       2880       2884       2888       2892       2896       2900       2904       2908       2912       2916       2920       2924       2928       2932       2936       2940       2944       2948       2952       2956       2960       2964       2968       2972       2976       2980       2984       2988       2992       2996       3000       3004       3008       3012       3016       3020       3024       3028       3032       3036       3040       3044       3048       3052       3056       3060       3064       3068       3072       3076       3080       3084       3088       3092       3096       3100       3104       3108       3112       3116       3120       3124       3128       3132       3136       3140       3144       3148       3152       3156       3160       3164       3168       3172       3176       3180       3184       3188       3192       3196       3200       3204       3208       3212       3216       3220       3224       3228       3232       3236       3240       3244       3248       3252       3256       3260       3264       3268       3272       3276       3280       3284       3288       3292       3296       3300       3304       3308       3312       3316       3320       3324       3328       3332       3336       3340       3344       3348       3352       3356       3360       3364       3368       3372       3376       3380       3384       3388       3392       3396       3400       3404       3408       3412       3416       3420       3424       3428       3432       3436       3440       3444       3448       3452       3456       3460       3464       3468       3472       3476       3480       3484       3488       3492       3496       3500       3504       3508       3512       3516       3520       3524       3528       3532       3536       3540       3544       3548       3552       3556       3560       3564       3568       3572       3576       3580       3584       3588       3592       3596       3600       3604       3608       3612       3616       3620       3624       3628       3632       3636       3640       3644       3648       3652       3656       3660       3664       3668       3672       3676       3680       3684       3688       3692       3696       3700       3704       3708       3712       3716       3720       3724       3728       3732       3736       3740       3744       3748       3752       3756       3760       3764       3768       3772       3776       3780       3784       3788       3792       3796       3800       3804       3808       3812       3816       3820       3824       3828       3832       3836       3840       3844       3848       3852       3856       3860       3864       3868       3872       3876       3880       3884       3888       3892       3896       3900       3904       3908       3912       3916       3920       3924       3928       3932       3936       3940       3944       3948       3952       3956       3960       3964       3968       3972       3976       3980       3984       3988       3992       3996       4000       4004       4008       4012       4016       4020       4024       4028       4032       4036       4040       4044       4048       4052       4056       4060       4064       4068       4072       4076       4080       4084       4088       4092       4096 </DataArray>
<DataArray type="UInt8"                                    Name="types"                                                      NumberOfComponents=" 1" format="ascii">
         9          9          9          9          9          9          9          9          9          9          9          9          9          9          9          9          9          9          9          9          9          9          9          9          9          9          9          9          9          9          9          9          9          9          9          9          9          9          9          9          9          9          9          9          9          9          9          9          9          9          9          9          9          9          9          9          9          9          9          9          9          9          9          9          9          9          9          9          9          9          9          9          9          9          9          9          9          9          9          9          9          9          9          9          9          9          9          9          9          9          9          9          9          9          9          9          9          9          9          9          9          9          9          9          9          9          9          9          9          9          9          9          9          9          9          9          9          9          9          9          9          9          9          9          9          9          9          9          9          9          9          9          9          9          9          9          9          9          9          9          9          9          9          9          9          9          9          9          9          9          9          9          9          9          9          9          9          9          9          9          9          9          9          9          9          9          9          9          9          9          9          9          9          9          9          9          9          9          9          9          9          9          9          9          9          9          9          9          9          9          9          9          9          9          9          9          9          9          9          9          9          9          9          9          9          9          9          9          9          9          9          9          9          9          9          9          9          9          9          9          9          9          9          9          9          9          9          9          9          9          9          9          9          9          9          9          9          9          9          9          9          9          9          9          9          9          9          9          9          9          9          9          9          9          9          9          9          9          9          9          9          9          9          9          9          9          9          9          9          9          9          9          9          9          9          9          9          9          9          9          9          9          9          9          9          9          9          9          9          9          9          9          9          9          9          9          9          9          9          9          9          9          9          9          9          9          9          9          9          9          9          9          9          9          9          9          9          9          9          9          9          9          9          9          9          9          9          9          9          9          9          9          9          9          9          9          9          9          9          9          9          9          9          9          9          9          9          9          9          9          9          9          9          9          9          9          9          9          9          9          9          9          9          9          9          9          9          9          9          9          9          9          9          9          9          9          9          9          9          9          9          9          9          9          9          9          9          9          9          9          9          9          9          9          9          9          9          9          9          9          9          9          9          9          9          9          9          9          9          9          9          9          9          9          9          9          9          9          9          9          9          9          9          9          9          9          9          9          9          9          9          9          9          9          9          9          9          9          9          9          9          9          9          9          9          9          9          9          9          9          9          9          9          9          9          9          9          9          9          9          9          9          9          9          9          9          9          9          9          9          9          9          9          9          9          9          9          9          9          9          9          9          9          9          9          9          9          9          9          9          9          9          9          9          9          9          9          9          9          9          9          9          9          9          9          9          9          9          9          9          9          9          9          9          9          9          9          9          9          9          9          9          9          9          9          9          9          9          9          9          9          9          9          9          9          9          9          9          9          9          9          9          9          9          9          9          9          9          9          9          9          9          9          9          9          9          9          9          9          9          9          9          9          9          9          9          9          9          9          9          9          9          9          9          9          9          9          9          9          9          9          9          9          9          9          9          9          9          9          9          9          9          9          9          9          9          9          9          9          9          9          9          9          9          9          9          9          9          9          9          9          9          9          9          9          9          9          9          9          9          9          9          9          9          9          9          9          9          9          9          9          9          9          9          9          9          9          9          9          9          9          9          9          9          9          9          9          9          9          9          9          9          9          9          9          9          9          9          9          9          9          9          9          9          9          9          9          9          9          9          9          9          9          9          9          9          9          9          9          9          9          9          9          9          9          9          9          9          9          9          9          9          9          9          9          9          9          9          9          9          9          9          9          9          9          9          9          9          9          9          9          9          9          9          9          9          9          9          9          9          9          9          9          9          9          9          9          9          9          9          9          9          9          9          9          9          9          9          9          9          9          9          9          9          9          9          9          9          9          9          9          9          9          9          9          9          9          9          9          9          9          9          9          9          9          9          9          9          9          9          9          9          9          9          9          9          9          9          9          9          9          9          9          9          9          9          9          9          9          9          9          9          9          9          9          9          9          9          9          9          9          9          9          9          9          9          9          9          9          9          9          9          9          9          9          9          9          9          9          9          9          9          9          9          9          9          9          9          9          9          9          9          9          9          9          9          9          9          9          9          9          9          9          9          9          9          9          9          9          9          9          9          9          9          9          9          9          9          9          9          9          9          9          9          9          9          9          9          9          9          9          9          9          9          9          9          9          9          9          9          9          9          9          9          9          9          9          9          9          9          9          9          9          9          9          9          9          9          9          9          9          9          9          9          9          9          9          9          9          9          9          9          9          9          9          9          9          9          9          9          9          9          9          9          9          9          9          9          9          9          9          9          9          9          9          9          9          9          9          9          9          9          9          9          9          9          9          9          9          9          9          9          9          9          9          9          9          9          9          9          9          9          9          9          9          9          9          9          9          9          9          9          9          9          9          9          9          9          9          9          9          9          9          9          9          9          9          9          9          9          9          9          9          9          9          9          9          9          9          9          9          9          9          9          9          9          9          9          9          9          9          9          9          9          9          9          9          9          9          9          9          9          9          9 </DataArray>
</Cells>
<CellData>
<DataArray type="Int32"                                    Name="material"                                                      NumberOfComponents=" 1" format="ascii">
         1          1          1          1          1          1          1          1          1          1          1          1          1          1          1          1          1          1          1          1          1          1          1          1          1          1          1          1          1          1          1          1          1          1          1          1          1          1          1          1          1          1          1          1          1          1          1          1          1          1          1          1          1          1          1          1          1          1          1          1          1          1          1          1          1          1          1          1          1          1          1          1          1          1          1          1          1          1          1          1          1          1          1          1          1          1          1          1          1          1          1          1          1          1          1          1          1          1          1          1          1          1          1          1          1          1          1          1          1          1          1          1          1          1          1          1          1          1          1          1          1          1          1          1          1          1          1          1          1          1          1          1          1          1          1          1          1          1          1          1          1          1          1          1          1          1          1          1          1          1          1          1          1          1          1          1          1          1          1          1          1          1          1          1          1          1          1          1          1          1          1          1          1          1          1          1          1          1          1          1          1          1          1          1          1          1          1          1          1          1          1          1          1          1          1          1          1          1          1          1          1          1          1          1          1          1          1          1          1          1          1          1          1          1          1          1          1          1          1          1          1          1          1          1          1          1          1          1          1          1          1          1          1          1          1          1          1          1          1          1          1          1          1          1          1          1          1          1          1          1          1          1          1          1          1          1          1          1          1          1          1          1          1          1          1          1          1          1          1          1          1          1          1          1          1          1          1          1          1          1          1          1          1          1          1          1          1          1          1          1          1          1          1          1          1          1          1          1          1          1          1          1          1          1          1          1          1          1          1          1          1          1          1          1          1          1          1          1          1          1          1          1          1          1          1          1          1          1          1          1          1          1          1          1          1          1          1          1          1          1          1          1          1          1          1          1          1          1          1          1          1          1          1          1          1          1          1          1          1          1          1          1          1          1          1          1          1          1          1          1          1          1          1          1          1          1          1          1          1          1          1          1          1          1          1          1          1          1          1          1          1          1          1          1          1          1          1          1          1          1          1          1          1          1          1          1          1          1          1          1          1          1          1          1          1          1          1          1          1          1          1          1          1          1          1          1          1          1          1          1          1          1          1          1          1          1          1          1          1          1          1          1          1          1          1          1          1          1          1          1          1          1          1          1          1          1          1          1          1          1          1          1          1          1          1          1          1          1          1          1          1          1          1          1          1          1          1          1          1          1          1          1          1          1          1          1          1          1          1          1          1          1          1          1          1          1          1          1          1          1          1          1          1          1          1          1          1          1          1          1          1          1          1          1          1          1          1          1          1          1          1          1          1          1          1          1          1          1          1          1          1          1          1          1          1          1          1          1          1          1          1          1          1          1          1          1          1          1          1          1          1          1          1          1          1          1          1          1          1          1          1          1          1          1          1          1          1          1          1          1          1          1          1          1          1          1          1          1          1          1          1          1          1          1          1          1          1          1          1          1          1          1          1          1          1          1          1          1          1          1          1          1          1          1          1          1          1          1          1          1          1          1          1          1          1          1          1          1          1          1          1          1          1          1          1          1          1          1          1          1          1          1          1          1          1          1          1          1          1          1          1          1          1          1          1          1          1          1          1          1          1          1          1          1          1          1          1          1          1          1          1          1          1          1          1          1          1          1          1          1          1          1          1          1          1          1          1          1          1          1          1          1          1          1          1          1          1          1          1          1          1          1          1          1          1          1          1          1          1          1          1          1          1          1          1          1          1          1          1          1          1          1          1          1          1          1          1          1          1          1          1          1          1          1          1          1          1          1          1          1          1          1          1          1          1          1          1          1          1          1          1          1          1          1          1          1          1          1          1          1          1          1          1          1          1          1          1          1          1          1          1          1          1          1          1          1          1          1          1          1          1          1          1          1          1          1          1          1          1          1          1          1          1          1          1          1          1          1          1          1          1          1          1          1          1          1          1          1          1          1          1          1          1          1          1          1          1          1          1          1          1          1          1          1          1          1          1          1          1          1          1          1          1          1          1          1          1          1          1          1          1          1          1          1          1          1          1          1          1          1          1          1          1          1          1          1          1          1          1          1          1          1          1          1          1          1          1          1          1          1          1          1          1          1          1          1          1          1          1          1          1          1          1          1          1          1          1          1          1          1          1          1          1          1          1          1          1          1          1          1          1          1          1          1          1          1          1          1          1          1          1          1          1          1          1          1          1          1          1          1          1          1          1          1          1          1          1          1          1          1          1          1          1          1          1          1          1          1          1          1          1          1          1          1          1          1          1          1          1          1          1          1          1          1          1          1          1          1          1          1          1          1          1          1          1          1          1          1          1          1          1          1          1          1          1          1          1          1          1          1          1          1          1          1          1          1          1          1          1          1          1          1          1          1          1          1          1          1          1          1          1          1          1          1          1          1          1          1          1          1          1          1          1          1          1          1          1          1          1          1          1          1          1          1          1          1          1          1          1          1          1          1          1          1 </DataArray>
</CellData>
<PointData>
<DataArray type="Float64"                                    Name="u"                                                      NumberOfComponents=" 3" format="ascii">
             -0.000143191               0.000000000               0.999999991              -0.000170562               0.000000000               0.999999991              -0.000183274               0.000000000               0.999999991              -0.000190570               0.000000000               0.999999991              -0.000196131               0.000000000               0.999999991              -0.000201505               0.000000000               0.999999991              -0.000207379               0.000000000               0.999999991              -0.000213926               0.000000000               0.999999991              -0.000221316               0.000000000               0.999999991              -0.000229710              -0.000000000               0.999999991              -0.000239146               0.000000000               0.999999991              -0.000249526               0.000000000               0.999999991              -0.000260883               0.000000000               0.999999991              -0.000273254               0.000000000               0.999999991              -0.000286557               0.000000000               0.999999991              -0.000300666               0.000000000               0.999999991              -0.000315278               0.000000000               0.999999991              -0.000142269               0.000068968               0.999999991              -0.000168215               0.000059568               0.999999991              -0.000180142               0.000056534               0.999999991              -0.000187039               0.000056926               0.999999991              -0.000192404               0.000059361               0.999999991              -0.000197742               0.000062954               0.999999991              -0.000203623               0.000067316               0.999999991              -0.000210210               0.000072164               0.999999991              -0.000217679               0.000077442               0.999999991              -0.000226135               0.000083000               0.999999991              -0.000235584               0.000088675               0.999999991              -0.000245975               0.000094467               0.999999991              -0.000257305               0.000100398               0.999999991              -0.000269532               0.000106269               0.999999991              -0.000282577               0.000111843               0.999999991              -0.000296282               0.000116692               0.999999991              -0.000310470               0.000120380               0.999999991              -0.000139717               0.000137112               0.999999991              -0.000161564               0.000118551               0.999999991              -0.000171242               0.000112896               0.999999991              -0.000177053               0.000113983               0.999999991              -0.000181959               0.000119028               0.999999991              -0.000187154               0.000126368               0.999999991              -0.000193082               0.000135084               0.999999991              -0.000199844               0.000144762               0.999999991              -0.000207582               0.000155229               0.999999991              -0.000216358               0.000166218               0.999999991              -0.000226095               0.000177548               0.999999991              -0.000236737               0.000189073               0.999999991              -0.000248215               0.000200689               0.999999991              -0.000260390               0.000212121               0.999999991              -0.000273147               0.000222986               0.999999991              -0.000286277               0.000232755               0.999999991              -0.000299696               0.000240879               0.999999991              -0.000135751               0.000203672               0.999999991              -0.000151137               0.000176394               0.999999991              -0.000157556               0.000168815               0.999999991              -0.000161898               0.000171193               0.999999991              -0.000166370               0.000179098               0.999999991              -0.000171604               0.000190279               0.999999991              -0.000177878               0.000203400               0.999999991              -0.000185205               0.000217897               0.999999991              -0.000193577               0.000233557               0.999999991              -0.000202913               0.000249894               0.999999991              -0.000213116               0.000266666               0.999999991              -0.000224071               0.000283659               0.999999991              -0.000235667               0.000300724               0.999999991              -0.000247707               0.000317511               0.999999991              -0.000260014               0.000333499               0.999999991              -0.000272528               0.000348320               0.999999991              -0.000285197               0.000361542               0.999999991              -0.000130406               0.000267974               0.999999991              -0.000137391               0.000232714               0.999999991              -0.000140106               0.000224106               0.999999991              -0.000143143               0.000228364               0.999999991              -0.000147576               0.000239494               0.999999991              -0.000153395               0.000254529               0.999999991              -0.000160580               0.000272097               0.999999991              -0.000168853               0.000291427               0.999999991              -0.000178065               0.000312073               0.999999991              -0.000188153               0.000333569               0.999999991              -0.000198939               0.000355608               0.999999991              -0.000210226               0.000377839               0.999999991              -0.000221908               0.000400158               0.999999991              -0.000233764               0.000422089               0.999999991              -0.000245689               0.000443193               0.999999991              -0.000257708               0.000463351               0.999999991              -0.000269819               0.000482396               0.999999991              -0.000123661               0.000329443               0.999999991              -0.000121094               0.000287240               0.999999991              -0.000120435               0.000278427               0.999999991              -0.000122891               0.000284977               0.999999991              -0.000128003               0.000299527               0.999999991              -0.000134960               0.000318520               0.999999991              -0.000143311               0.000340548               0.999999991              -0.000152772               0.000364564               0.999999991              -0.000163091               0.000389972               0.999999991              -0.000174117               0.000416379               0.999999991              -0.000185621               0.000443370               0.999999991              -0.000197417               0.000470685               0.999999991              -0.000209313               0.000497943               0.999999991              -0.000221127               0.000524731               0.999999991              -0.000232918               0.000550831               0.999999991              -0.000244695               0.000576216               0.999999991              -0.000256416               0.000600883               0.999999991              -0.000115681               0.000387438               0.999999991              -0.000103220               0.000339799               0.999999991              -0.000100133               0.000331410               0.999999991              -0.000102905               0.000340537               0.999999991              -0.000109221               0.000358600               0.999999991              -0.000117627               0.000381654               0.999999991              -0.000127514               0.000407990               0.999999991              -0.000138454               0.000436465               0.999999991              -0.000150088               0.000466399               0.999999991              -0.000162162               0.000497433               0.999999991              -0.000174440               0.000529092               0.999999991              -0.000186735               0.000560980               0.999999991              -0.000198804               0.000592737               0.999999991              -0.000210665               0.000624009               0.999999991              -0.000222298               0.000654663               0.999999991              -0.000233702               0.000684823               0.999999991              -0.000244836               0.000714204               0.999999991              -0.000106730               0.000441242               0.999999991              -0.000084761               0.000390214               0.999999991              -0.000080377               0.000382819               0.999999991              -0.000084353               0.000394526               0.999999991              -0.000092422               0.000416043               0.999999991              -0.000102667               0.000442951               0.999999991              -0.000114309               0.000473347               0.999999991              -0.000126775               0.000506206               0.999999991              -0.000139661               0.000540492               0.999999991              -0.000152607               0.000575797               0.999999991              -0.000165412               0.000611846               0.999999991              -0.000177865               0.000647994               0.999999991              -0.000189889               0.000683819               0.999999991              -0.000201493               0.000719170               0.999999991              -0.000212707               0.000754023               0.999999991              -0.000223531               0.000788315               0.999999991              -0.000233914               0.000821778               0.999999991              -0.000097239               0.000489986               0.999999991              -0.000066418               0.000438425               0.999999991              -0.000062294               0.000432226               0.999999991              -0.000068166               0.000446289               0.999999991              -0.000078373               0.000470968               0.999999991              -0.000090566               0.000501581               0.999999991              -0.000103892               0.000536100               0.999999991              -0.000117666               0.000573118               0.999999991              -0.000131380               0.000611585               0.999999991              -0.000144831               0.000651126               0.999999991              -0.000157776               0.000691147               0.999999991              -0.000170076               0.000731060               0.999999991              -0.000181732               0.000770616               0.999999991              -0.000192928               0.000809708               0.999999991              -0.000203697               0.000848289               0.999999991              -0.000214241               0.000886279               0.999999991              -0.000224540               0.000923461               0.999999991              -0.000087953               0.000535409               0.999999991              -0.000052189               0.000489565               0.999999991              -0.000045564               0.000479568               0.999999991              -0.000049956               0.000488696               0.999999991              -0.000059011               0.000508595               0.999999991              -0.000070162               0.000534958               0.999999991              -0.000082209               0.000565689               0.999999991              -0.000094768               0.000599277               0.999999991              -0.000107225               0.000634663               0.999999991              -0.000119389               0.000671218               0.999999991              -0.000131152               0.000708521               0.999999991              -0.000142238               0.000746107               0.999999991              -0.000152585               0.000783642               0.999999991              -0.000162238               0.000821002               0.999999991              -0.000171485               0.000858196               0.999999991              -0.000180702               0.000895014               0.999999991              -0.000190016               0.000931397               0.999999991              -0.000077548               0.000576269               0.999999991              -0.000039981               0.000538285               0.999999991              -0.000030935               0.000527429               0.999999991              -0.000033378               0.000532905               0.999999991              -0.000040887               0.000548670               0.999999991              -0.000050530               0.000571157               0.999999991              -0.000061186               0.000598240               0.999999991              -0.000072329               0.000628544               0.999999991              -0.000083427               0.000661017               0.999999991              -0.000094289               0.000694735               0.999999991              -0.000104778               0.000729346               0.999999991              -0.000114631               0.000764461               0.999999991              -0.000123622               0.000799739               0.999999991              -0.000131703               0.000835041               0.999999991              -0.000139060               0.000870348               0.999999991              -0.000146010               0.000905644               0.999999991              -0.000152991               0.000940940               0.999999991              -0.000066213               0.000611966               0.999999991              -0.000029634               0.000583410               0.999999991              -0.000019005               0.000573749               0.999999991              -0.000019440               0.000577290               0.999999991              -0.000025015               0.000590049               0.999999991              -0.000032933               0.000609203               0.999999991              -0.000041876               0.000633081               0.999999991              -0.000051280               0.000660407               0.999999991              -0.000060930               0.000690165               0.999999991              -0.000070362               0.000721474               0.999999991              -0.000079476               0.000753753               0.999999991              -0.000088007               0.000786682               0.999999991              -0.000095515               0.000819968               0.999999991              -0.000101920               0.000853420               0.999999991              -0.000107063               0.000886973               0.999999991              -0.000111210               0.000920605               0.999999991              -0.000114703               0.000954386               0.999999991              -0.000053994               0.000641990               0.999999991              -0.000021124               0.000623368               0.999999991              -0.000010117               0.000616354               0.999999991              -0.000008935               0.000619464               0.999999991              -0.000012604               0.000630427               0.999999991              -0.000018533               0.000647285               0.999999991              -0.000025512               0.000668638               0.999999991              -0.000033002               0.000693488               0.999999991              -0.000040868               0.000720922               0.999999991              -0.000048730               0.000750206               0.999999991              -0.000056291               0.000780662               0.999999991              -0.000063353               0.000811971               0.999999991              -0.000069401               0.000843890               0.999999991              -0.000074098               0.000876064               0.999999991              -0.000077185               0.000908417               0.999999991              -0.000078477               0.000940839               0.999999991              -0.000078037               0.000973407               0.999999991              -0.000041081               0.000665795               0.999999991              -0.000014313               0.000656479               0.999999991              -0.000004300               0.000652923               0.999999991              -0.000002223               0.000656641               0.999999991              -0.000004215               0.000666848               0.999999991              -0.000008239               0.000682404               0.999999991              -0.000013225               0.000702106               0.999999991              -0.000018672               0.000725191               0.999999991              -0.000024617               0.000750935               0.999999991              -0.000030694               0.000778747               0.999999991              -0.000036483               0.000808001               0.999999991              -0.000041836               0.000838307               0.999999991              -0.000046372               0.000869393               0.999999991              -0.000049656               0.000900937               0.999999991              -0.000051191               0.000932764               0.999999991              -0.000050410               0.000964685               0.999999991              -0.000046932               0.000996653               0.999999991              -0.000027643               0.000683027               0.999999991              -0.000008851               0.000681260               0.999999991              -0.000001203               0.000681135               0.999999991               0.000000906               0.000686047               0.999999991               0.000000088               0.000696230               0.999999991              -0.000002288               0.000711087               0.999999991              -0.000005401               0.000729810               0.999999991              -0.000008964               0.000751786               0.999999991              -0.000012881               0.000776383               0.999999991              -0.000017013               0.000803196               0.999999991              -0.000020988               0.000831677               0.999999991              -0.000024632               0.000861437               0.999999991              -0.000027653               0.000892233               0.999999991              -0.000029638               0.000923796               0.999999991              -0.000030092               0.000955844               0.999999991              -0.000028500               0.000988128               0.999999991              -0.000023958               0.001020362               0.999999991              -0.000013894               0.000693340               0.999999991              -0.000004252               0.000696526               0.999999991              -0.000000085               0.000699030               0.999999991               0.000001230               0.000705069               0.999999991               0.000001044               0.000715492               0.999999991              -0.000000035               0.000730080               0.999999991              -0.000001530               0.000748280               0.999999991              -0.000003265               0.000769538               0.999999991              -0.000005206               0.000793451               0.999999991              -0.000007340               0.000819676               0.999999991              -0.000009430               0.000847746               0.999999991              -0.000011285               0.000877349               0.999999991              -0.000012716               0.000908114               0.999999991              -0.000013555               0.000939849               0.999999991              -0.000013559               0.000972323               0.999999991              -0.000012404               0.001005169               0.999999991              -0.000009483               0.001037966               0.999999991              -0.000000000               0.000696737               0.999999991               0.000000000               0.000701651               0.999999991              -0.000000000               0.000705157               0.999999991               0.000000000               0.000711681               0.999999991              -0.000000000               0.000722213               0.999999991               0.000000000               0.000736697               0.999999991               0.000000000               0.000754745               0.999999991              -0.000000000               0.000775800               0.999999991              -0.000000000               0.000799485               0.999999991              -0.000000000               0.000825461               0.999999991              -0.000000000               0.000853390               0.999999991              -0.000000000               0.000882955               0.999999991              -0.000000000               0.000913791               0.999999991              -0.000000000               0.000945534               0.999999991              -0.000000000               0.000978009               0.999999991              -0.000000000               0.001010990               0.999999991              -0.000000000               0.001043982               0.999999991              -0.000143191               0.000000000               0.999999991              -0.000170562               0.000000000               0.999999991              -0.000183274               0.000000000               0.999999991              -0.000190570               0.000000000               0.999999991              -0.000196131               0.000000000               0.999999991              -0.000201505               0.000000000               0.999999991              -0.000207379               0.000000000               0.999999991              -0.000213926               0.000000000               0.999999991              -0.000221316               0.000000000               0.999999991              -0.000229710              -0.000000000               0.999999991              -0.000239146               0.000000000               0.999999991              -0.000249526               0.000000000               0.999999991              -0.000260883               0.000000000               0.999999991              -0.000273254               0.000000000               0.999999991              -0.000286557               0.000000000               0.999999991              -0.000300666               0.000000000               0.999999991              -0.000315278               0.000000000               0.999999991              -0.000142269              -0.000068968               0.999999991              -0.000168215              -0.000059568               0.999999991              -0.000180142              -0.000056534               0.999999991              -0.000187039              -0.000056926               0.999999991              -0.000192404              -0.000059361               0.999999991              -0.000197742              -0.000062954               0.999999991              -0.000203623              -0.000067316               0.999999991              -0.000210210              -0.000072164               0.999999991              -0.000217679              -0.000077442               0.999999991              -0.000226135              -0.000083000               0.999999991              -0.000235584              -0.000088675               0.999999991              -0.000245975              -0.000094467               0.999999991              -0.000257305              -0.000100398               0.999999991              -0.000269532              -0.000106269               0.999999991              -0.000282577              -0.000111843               0.999999991              -0.000296282              -0.000116692               0.999999991              -0.000310470              -0.000120380               0.999999991              -0.000139717              -0.000137112               0.999999991              -0.000161564              -0.000118551               0.999999991              -0.000171242              -0.000112896               0.999999991              -0.000177053              -0.000113983               0.999999991              -0.000181959              -0.000119028               0.999999991              -0.000187154              -0.000126368               0.999999991              -0.000193082              -0.000135084               0.999999991              -0.000199844              -0.000144762               0.999999991              -0.000207582              -0.000155229               0.999999991              -0.000216358              -0.000166218               0.999999991              -0.000226095              -0.000177548               0.999999991              -0.000236737              -0.000189073               0.999999991              -0.000248215              -0.000200689               0.999999991              -0.000260390              -0.000212121               0.999999991              -0.000273147              -0.000222986               0.999999991              -0.000286277              -0.000232755               0.999999991              -0.000299696              -0.000240879               0.999999991              -0.000135751              -0.000203672               0.999999991              -0.000151137              -0.000176394               0.999999991              -0.000157556              -0.000168815               0.999999991              -0.000161898              -0.000171193               0.999999991              -0.000166370              -0.000179098               0.999999991              -0.000171604              -0.000190279               0.999999991              -0.000177878              -0.000203400               0.999999991              -0.000185205              -0.000217897               0.999999991              -0.000193577              -0.000233557               0.999999991              -0.000202913              -0.000249894               0.999999991              -0.000213116              -0.000266666               0.999999991              -0.000224071              -0.000283659               0.999999991              -0.000235667              -0.000300724               0.999999991              -0.000247707              -0.000317511               0.999999991              -0.000260014              -0.000333499               0.999999991              -0.000272528              -0.000348320               0.999999991              -0.000285197              -0.000361542               0.999999991              -0.000130406              -0.000267974               0.999999991              -0.000137391              -0.000232714               0.999999991              -0.000140106              -0.000224106               0.999999991              -0.000143143              -0.000228364               0.999999991              -0.000147576              -0.000239494               0.999999991              -0.000153395              -0.000254529               0.999999991              -0.000160580              -0.000272097               0.999999991              -0.000168853              -0.000291427               0.999999991              -0.000178065              -0.000312073               0.999999991              -0.000188153              -0.000333569               0.999999991              -0.000198939              -0.000355608               0.999999991              -0.000210226              -0.000377839               0.999999991              -0.000221908              -0.000400158               0.999999991              -0.000233764              -0.000422089               0.999999991              -0.000245689              -0.000443193               0.999999991              -0.000257708              -0.000463351               0.999999991              -0.000269819              -0.000482396               0.999999991              -0.000123661              -0.000329443               0.999999991              -0.000121094              -0.000287240               0.999999991              -0.000120435              -0.000278427               0.999999991              -0.000122891              -0.000284977               0.999999991              -0.000128003              -0.000299527               0.999999991              -0.000134960              -0.000318520               0.999999991              -0.000143311              -0.000340548               0.999999991              -0.000152772              -0.000364564               0.999999991              -0.000163091              -0.000389972               0.999999991              -0.000174117              -0.000416379               0.999999991              -0.000185621              -0.000443370               0.999999991              -0.000197417              -0.000470685               0.999999991              -0.000209313              -0.000497943               0.999999991              -0.000221127              -0.000524731               0.999999991              -0.000232918              -0.000550831               0.999999991              -0.000244695              -0.000576216               0.999999991              -0.000256416              -0.000600883               0.999999991              -0.000115681              -0.000387438               0.999999991              -0.000103220              -0.000339799               0.999999991              -0.000100133              -0.000331410               0.999999991              -0.000102905              -0.000340537               0.999999991              -0.000109221              -0.000358600               0.999999991              -0.000117627              -0.000381654               0.999999991              -0.000127514              -0.000407990               0.999999991              -0.000138454              -0.000436465               0.999999991              -0.000150088              -0.000466399               0.999999991              -0.000162162              -0.000497433               0.999999991              -0.000174440              -0.000529092               0.999999991              -0.000186735              -0.000560980               0.999999991              -0.000198804              -0.000592737               0.999999991              -0.000210665              -0.000624009               0.999999991              -0.000222298              -0.000654663               0.999999991              -0.000233702              -0.000684823               0.999999991              -0.000244836              -0.000714204               0.999999991              -0.000106730              -0.000441242               0.999999991              -0.000084761              -0.000390214               0.999999991              -0.000080377              -0.000382819               0.999999991              -0.000084353              -0.000394526               0.999999991              -0.000092422              -0.000416043               0.999999991              -0.000102667              -0.000442951               0.999999991              -0.000114309              -0.000473347               0.999999991              -0.000126775              -0.000506206               0.999999991              -0.000139661              -0.000540492               0.999999991              -0.000152607              -0.000575797               0.999999991              -0.000165412              -0.000611846               0.999999991              -0.000177865              -0.000647994               0.999999991              -0.000189889              -0.000683819               0.999999991              -0.000201493              -0.000719170               0.999999991              -0.000212707              -0.000754023               0.999999991              -0.000223531              -0.000788315               0.999999991              -0.000233914              -0.000821778               0.999999991              -0.000097239              -0.000489986               0.999999991              -0.000066418              -0.000438425               0.999999991              -0.000062294              -0.000432226               0.999999991              -0.000068166              -0.000446289               0.999999991              -0.000078373              -0.000470968               0.999999991              -0.000090566              -0.000501581               0.999999991              -0.000103892              -0.000536100               0.999999991              -0.000117666              -0.000573118               0.999999991              -0.000131380              -0.000611585               0.999999991              -0.000144831              -0.000651126               0.999999991              -0.000157776              -0.000691147               0.999999991              -0.000170076              -0.000731060               0.999999991              -0.000181732              -0.000770616               0.999999991              -0.000192928              -0.000809708               0.999999991              -0.000203697              -0.000848289               0.999999991              -0.000214241              -0.000886279               0.999999991              -0.000224540              -0.000923461               0.999999991              -0.000087953              -0.000535409               0.999999991              -0.000052189              -0.000489565               0.999999991              -0.000045564              -0.000479568               0.999999991              -0.000049956              -0.000488696               0.999999991              -0.000059011              -0.000508595               0.999999991              -0.000070162              -0.000534958               0.999999991              -0.000082209              -0.000565689               0.999999991              -0.000094768              -0.000599277               0.999999991              -0.000107225              -0.000634663               0.999999991              -0.000119389              -0.000671218               0.999999991              -0.000131152              -0.000708521               0.999999991              -0.000142238              -0.000746107               0.999999991              -0.000152585              -0.000783642               0.999999991              -0.000162238              -0.000821002               0.999999991              -0.000171485              -0.000858196               0.999999991              -0.000180702              -0.000895014               0.999999991              -0.000190016              -0.000931397               0.999999991              -0.000077548              -0.000576269               0.999999991              -0.000039981              -0.000538285               0.999999991              -0.000030935              -0.000527429               0.999999991              -0.000033378              -0.000532905               0.999999991              -0.000040887              -0.000548670               0.999999991              -0.000050530              -0.000571157               0.999999991              -0.000061186              -0.000598240               0.999999991              -0.000072329              -0.000628544               0.999999991              -0.000083427              -0.000661017               0.999999991              -0.000094289              -0.000694735               0.999999991              -0.000104778              -0.000729346               0.999999991              -0.000114631              -0.000764461               0.999999991              -0.000123622              -0.000799739               0.999999991              -0.000131703              -0.000835041               0.999999991              -0.000139060              -0.000870348               0.999999991              -0.000146010              -0.000905644               0.999999991              -0.000152991              -0.000940940               0.999999991              -0.000066213              -0.000611966               0.999999991              -0.000029634              -0.000583410               0.999999991              -0.000019005              -0.000573749               0.999999991              -0.000019440              -0.000577290               0.999999991              -0.000025015              -0.000590049               0.999999991              -0.000032933              -0.000609203               0.999999991              -0.000041876              -0.000633081               0.999999991              -0.000051280              -0.000660407               0.999999991              -0.000060930              -0.000690165               0.999999991              -0.000070362              -0.000721474               0.999999991              -0.000079476              -0.000753753               0.999999991              -0.000088007              -0.000786682               0.999999991              -0.000095515              -0.000819968               0.999999991              -0.000101920              -0.000853420               0.999999991              -0.000107063              -0.000886973               0.999999991              -0.000111210              -0.000920605               0.999999991              -0.000114703              -0.000954386               0.999999991              -0.000053994              -0.000641990               0.999999991              -0.000021124              -0.000623368               0.999999991              -0.000010117              -0.000616354               0.999999991              -0.000008935              -0.000619464               0.999999991              -0.000012604              -0.000630427               0.999999991              -0.000018533              -0.000647285               0.999999991              -0.000025512              -0.000668638               0.999999991              -0.000033002              -0.000693488               0.999999991              -0.000040868              -0.000720922               0.999999991              -0.000048730              -0.000750206               0.999999991              -0.000056291              -0.000780662               0.999999991              -0.000063353              -0.000811971               0.999999991              -0.000069401              -0.000843890               0.999999991              -0.000074098              -0.000876064               0.999999991              -0.000077185              -0.000908417               0.999999991              -0.000078477              -0.000940839               0.999999991              -0.000078037              -0.000973407               0.999999991              -0.000041081              -0.000665795               0.999999991              -0.000014313              -0.000656479               0.999999991              -0.000004300              -0.000652923               0.999999991              -0.000002223              -0.000656641               0.999999991              -0.000004215              -0.000666848               0.999999991              -0.000008239              -0.000682404               0.999999991              -0.000013225              -0.000702106               0.999999991              -0.000018672              -0.000725191               0.999999991              -0.000024617              -0.000750935               0.999999991              -0.000030694              -0.000778747               0.999999991              -0.000036483              -0.000808001               0.999999991              -0.000041836              -0.000838307               0.999999991              -0.000046372              -0.000869393               0.999999991              -0.000049656              -0.000900937               0.999999991              -0.000051191              -0.000932764               0.999999991              -0.000050410              -0.000964685               0.999999991              -0.000046932              -0.000996653               0.999999991              -0.000027643              -0.000683027               0.999999991              -0.000008851              -0.000681260               0.999999991              -0.000001203              -0.000681135               0.999999991               0.000000906              -0.000686047               0.999999991               0.000000088              -0.000696230               0.999999991              -0.000002288              -0.000711087               0.999999991              -0.000005401              -0.000729810               0.999999991              -0.000008964              -0.000751786               0.999999991              -0.000012881              -0.000776383               0.999999991              -0.000017013              -0.000803196               0.999999991              -0.000020988              -0.000831677               0.999999991              -0.000024632              -0.000861437               0.999999991              -0.000027653              -0.000892233               0.999999991              -0.000029638              -0.000923796               0.999999991              -0.000030092              -0.000955844               0.999999991              -0.000028500              -0.000988128               0.999999991              -0.000023958              -0.001020362               0.999999991              -0.000013894              -0.000693340               0.999999991              -0.000004252              -0.000696526               0.999999991              -0.000000085              -0.000699030               0.999999991               0.000001230              -0.000705069               0.999999991               0.000001044              -0.000715492               0.999999991              -0.000000035              -0.000730080               0.999999991              -0.000001530              -0.000748280               0.999999991              -0.000003265              -0.000769538               0.999999991              -0.000005206              -0.000793451               0.999999991              -0.000007340              -0.000819676               0.999999991              -0.000009430              -0.000847746               0.999999991              -0.000011285              -0.000877349               0.999999991              -0.000012716              -0.000908114               0.999999991              -0.000013555              -0.000939849               0.999999991              -0.000013559              -0.000972323               0.999999991              -0.000012404              -0.001005169               0.999999991              -0.000009483              -0.001037966               0.999999991               0.000000000              -0.000696737               0.999999991               0.000000000              -0.000701651               0.999999991               0.000000000              -0.000705157               0.999999991              -0.000000000              -0.000711681               0.999999991              -0.000000000              -0.000722213               0.999999991               0.000000000              -0.000736697               0.999999991              -0.000000000              -0.000754745               0.999999991               0.000000000              -0.000775800               0.999999991               0.000000000              -0.000799485               0.999999991              -0.000000000              -0.000825461               0.999999991               0.000000000              -0.000853390               0.999999991               0.000000000              -0.000882955               0.999999991              -0.000000000              -0.000913791               0.999999991               0.000000000              -0.000945534               0.999999991               0.000000000              -0.000978009               0.999999991               0.000000000              -0.001010990               0.999999991               0.000000000              -0.001043982               0.999999991               0.000143191              -0.000000000               0.999999991               0.000170562              -0.000000000               0.999999991               0.000183274               0.000000000               0.999999991               0.000190570              -0.000000000               0.999999991               0.000196131              -0.000000000               0.999999991               0.000201505               0.000000000               0.999999991               0.000207379              -0.000000000               0.999999991               0.000213926              -0.000000000               0.999999991               0.000221316               0.000000000               0.999999991               0.000229710              -0.000000000               0.999999991               0.000239146               0.000000000               0.999999991               0.000249526               0.000000000               0.999999991               0.000260883               0.000000000               0.999999991               0.000273254               0.000000000               0.999999991               0.000286557               0.000000000               0.999999991               0.000300666               0.000000000               0.999999991               0.000315278               0.000000000               0.999999991               0.000142269              -0.000068968               0.999999991               0.000168215              -0.000059568               0.999999991               0.000180142              -0.000056534               0.999999991               0.000187039              -0.000056926               0.999999991               0.000192404              -0.000059361               0.999999991               0.000197742              -0.000062954               0.999999991               0.000203623              -0.000067316               0.999999991               0.000210210              -0.000072164               0.999999991               0.000217679              -0.000077442               0.999999991               0.000226135              -0.000083000               0.999999991               0.000235584              -0.000088675               0.999999991               0.000245975              -0.000094467               0.999999991               0.000257305              -0.000100398               0.999999991               0.000269532              -0.000106269               0.999999991               0.000282577              -0.000111843               0.999999991               0.000296282              -0.000116692               0.999999991               0.000310470              -0.000120380               0.999999991               0.000139717              -0.000137112               0.999999991               0.000161564              -0.000118551               0.999999991               0.000171242              -0.000112896               0.999999991               0.000177053              -0.000113983               0.999999991               0.000181959              -0.000119028               0.999999991               0.000187154              -0.000126368               0.999999991               0.000193082              -0.000135084               0.999999991               0.000199844              -0.000144762               0.999999991               0.000207582              -0.000155229               0.999999991               0.000216358              -0.000166218               0.999999991               0.000226095              -0.000177548               0.999999991               0.000236737              -0.000189073               0.999999991               0.000248215              -0.000200689               0.999999991               0.000260390              -0.000212121               0.999999991               0.000273147              -0.000222986               0.999999991               0.000286277              -0.000232755               0.999999991               0.000299696              -0.000240879               0.999999991               0.000135751              -0.000203672               0.999999991               0.000151137              -0.000176394               0.999999991               0.000157556              -0.000168815               0.999999991               0.000161898              -0.000171193               0.999999991               0.000166370              -0.000179098               0.999999991               0.000171604              -0.000190279               0.999999991               0.000177878              -0.000203400               0.999999991               0.000185205              -0.000217897               0.999999991               0.000193577              -0.000233557               0.999999991               0.000202913              -0.000249894               0.999999991               0.000213116              -0.000266666               0.999999991               0.000224071              -0.000283659               0.999999991               0.000235667              -0.000300724               0.999999991               0.000247707              -0.000317511               0.999999991               0.000260014              -0.000333499               0.999999991               0.000272528              -0.000348320               0.999999991               0.000285197              -0.000361542               0.999999991               0.000130406              -0.000267974               0.999999991               0.000137391              -0.000232714               0.999999991               0.000140106              -0.000224106               0.999999991               0.000143143              -0.000228364               0.999999991               0.000147576              -0.000239494               0.999999991               0.000153395              -0.000254529               0.999999991               0.000160580              -0.000272097               0.999999991               0.000168853              -0.000291427               0.999999991               0.000178065              -0.000312073               0.999999991               0.000188153              -0.000333569               0.999999991               0.000198939              -0.000355608               0.999999991               0.000210226              -0.000377839               0.999999991               0.000221908              -0.000400158               0.999999991               0.000233764              -0.000422089               0.999999991               0.000245689              -0.000443193               0.999999991               0.000257708              -0.000463351               0.999999991               0.000269819              -0.000482396               0.999999991               0.000123661              -0.000329443               0.999999991               0.000121094              -0.000287240               0.999999991               0.000120435              -0.000278427               0.999999991               0.000122891              -0.000284977               0.999999991               0.000128003              -0.000299527               0.999999991               0.000134960              -0.000318520               0.999999991               0.000143311              -0.000340548               0.999999991               0.000152772              -0.000364564               0.999999991               0.000163091              -0.000389972               0.999999991               0.000174117              -0.000416379               0.999999991               0.000185621              -0.000443370               0.999999991               0.000197417              -0.000470685               0.999999991               0.000209313              -0.000497943               0.999999991               0.000221127              -0.000524731               0.999999991               0.000232918              -0.000550831               0.999999991               0.000244695              -0.000576216               0.999999991               0.000256416              -0.000600883               0.999999991               0.000115681              -0.000387438               0.999999991               0.000103220              -0.000339799               0.999999991               0.000100133              -0.000331410               0.999999991               0.000102905              -0.000340537               0.999999991               0.000109221              -0.000358600               0.999999991               0.000117627              -0.000381654               0.999999991               0.000127514              -0.000407990               0.999999991               0.000138454              -0.000436465               0.999999991               0.000150088              -0.000466399               0.999999991               0.000162162              -0.000497433               0.999999991               0.000174440              -0.000529092               0.999999991               0.000186735              -0.000560980               0.999999991               0.000198804              -0.000592737               0.999999991               0.000210665              -0.000624009               0.999999991               0.000222298              -0.000654663               0.999999991               0.000233702              -0.000684823               0.999999991               0.000244836              -0.000714204               0.999999991               0.000106730              -0.000441242               0.999999991               0.000084761              -0.000390214               0.999999991               0.000080377              -0.000382819               0.999999991               0.000084353              -0.000394526               0.999999991               0.000092422              -0.000416043               0.999999991               0.000102667              -0.000442951               0.999999991               0.000114309              -0.000473347               0.999999991               0.000126775              -0.000506206               0.999999991               0.000139661              -0.000540492               0.999999991               0.000152607              -0.000575797               0.999999991               0.000165412              -0.000611846               0.999999991               0.000177865              -0.000647994               0.999999991               0.000189889              -0.000683819               0.999999991               0.000201493              -0.000719170               0.999999991               0.000212707              -0.000754023               0.999999991               0.000223531              -0.000788315               0.999999991               0.000233914              -0.000821778               0.999999991               0.000097239              -0.000489986               0.999999991               0.000066418              -0.000438425               0.999999991               0.000062294              -0.000432226               0.999999991               0.000068166              -0.000446289               0.999999991               0.000078373              -0.000470968               0.999999991               0.000090566              -0.000501581               0.999999991               0.000103892              -0.000536100               0.999999991               0.000117666              -0.000573118               0.999999991               0.000131380              -0.000611585               0.999999991               0.000144831              -0.000651126               0.999999991               0.000157776              -0.000691147               0.999999991               0.000170076              -0.000731060               0.999999991               0.000181732              -0.000770616               0.999999991               0.000192928              -0.000809708               0.999999991               0.000203697              -0.000848289               0.999999991               0.000214241              -0.000886279               0.999999991               0.000224540              -0.000923461               0.999999991               0.000087953              -0.000535409               0.999999991               0.000052189              -0.000489565               0.999999991               0.000045564              -0.000479568               0.999999991               0.000049956              -0.000488696               0.999999991               0.000059011              -0.000508595               0.999999991               0.000070162              -0.000534958               0.999999991               0.000082209              -0.000565689               0.999999991               0.000094768              -0.000599277               0.999999991               0.000107225              -0.000634663               0.999999991               0.000119389              -0.000671218               0.999999991               0.000131152              -0.000708521               0.999999991               0.000142238              -0.000746107               0.999999991               0.000152585              -0.000783642               0.999999991               0.000162238              -0.000821002               0.999999991               0.000171485              -0.000858196               0.999999991               0.000180702              -0.000895014               0.999999991               0.000190016              -0.000931397               0.999999991               0.000077548              -0.000576269               0.999999991               0.000039981              -0.000538285               0.999999991               0.000030935              -0.000527429               0.999999991               0.000033378              -0.000532905               0.999999991               0.000040887              -0.000548670               0.999999991               0.000050530              -0.000571157               0.999999991               0.000061186              -0.000598240               0.999999991               0.000072329              -0.000628544               0.999999991               0.000083427              -0.000661017               0.999999991               0.000094289              -0.000694735               0.999999991               0.000104778              -0.000729346               0.999999991               0.000114631              -0.000764461               0.999999991               0.000123622              -0.000799739               0.999999991               0.000131703              -0.000835041               0.999999991               0.000139060              -0.000870348               0.999999991               0.000146010              -0.000905644               0.999999991               0.000152991              -0.000940940               0.999999991               0.000066213              -0.000611966               0.999999991               0.000029634              -0.000583410               0.999999991               0.000019005              -0.000573749               0.999999991               0.000019440              -0.000577290               0.999999991               0.000025015              -0.000590049               0.999999991               0.000032933              -0.000609203               0.999999991               0.000041876              -0.000633081               0.999999991               0.000051280              -0.000660407               0.999999991               0.000060930              -0.000690165               0.999999991               0.000070362              -0.000721474               0.999999991               0.000079476              -0.000753753               0.999999991               0.000088007              -0.000786682               0.999999991               0.000095515              -0.000819968               0.999999991               0.000101920              -0.000853420               0.999999991               0.000107063              -0.000886973               0.999999991               0.000111210              -0.000920605               0.999999991               0.000114703              -0.000954386               0.999999991               0.000053994              -0.000641990               0.999999991               0.000021124              -0.000623368               0.999999991               0.000010117              -0.000616354               0.999999991               0.000008935              -0.000619464               0.999999991               0.000012604              -0.000630427               0.999999991               0.000018533              -0.000647285               0.999999991               0.000025512              -0.000668638               0.999999991               0.000033002              -0.000693488               0.999999991               0.000040868              -0.000720922               0.999999991               0.000048730              -0.000750206               0.999999991               0.000056291              -0.000780662               0.999999991               0.000063353              -0.000811971               0.999999991               0.000069401              -0.000843890               0.999999991               0.000074098              -0.000876064               0.999999991               0.000077185              -0.000908417               0.999999991               0.000078477              -0.000940839               0.999999991               0.000078037              -0.000973407               0.999999991               0.000041081              -0.000665795               0.999999991               0.000014313              -0.000656479               0.999999991               0.000004300              -0.000652923               0.999999991               0.000002223              -0.000656641               0.999999991               0.000004215              -0.000666848               0.999999991               0.000008239              -0.000682404               0.999999991               0.000013225              -0.000702106               0.999999991               0.000018672              -0.000725191               0.999999991               0.000024617              -0.000750935               0.999999991               0.000030694              -0.000778747               0.999999991               0.000036483              -0.000808001               0.999999991               0.000041836              -0.000838307               0.999999991               0.000046372              -0.000869393               0.999999991               0.000049656              -0.000900937               0.999999991               0.000051191              -0.000932764               0.999999991               0.000050410              -0.000964685               0.999999991               0.000046932              -0.000996653               0.999999991               0.000027643              -0.000683027               0.999999991               0.000008851              -0.000681260               0.999999991               0.000001203              -0.000681135               0.999999991              -0.000000906              -0.000686047               0.999999991              -0.000000088              -0.000696230               0.999999991               0.000002288              -0.000711087               0.999999991               0.000005401              -0.000729810               0.999999991               0.000008964              -0.000751786               0.999999991               0.000012881              -0.000776383               0.999999991               0.000017013              -0.000803196               0.999999991               0.000020988              -0.000831677               0.999999991               0.000024632              -0.000861437               0.999999991               0.000027653              -0.000892233               0.999999991               0.000029638              -0.000923796               0.999999991               0.000030092              -0.000955844               0.999999991               0.000028500              -0.000988128               0.999999991               0.000023958              -0.001020362               0.999999991               0.000013894              -0.000693340               0.999999991               0.000004252              -0.000696526               0.999999991               0.000000085              -0.000699030               0.999999991              -0.000001230              -0.000705069               0.999999991              -0.000001044              -0.000715492               0.999999991               0.000000035              -0.000730080               0.999999991               0.000001530              -0.000748280               0.999999991               0.000003265              -0.000769538               0.999999991               0.000005206              -0.000793451               0.999999991               0.000007340              -0.000819676               0.999999991               0.000009430              -0.000847746               0.999999991               0.000011285              -0.000877349               0.999999991               0.000012716              -0.000908114               0.999999991               0.000013555              -0.000939849               0.999999991               0.000013559              -0.000972323               0.999999991               0.000012404              -0.001005169               0.999999991               0.000009483              -0.001037966               0.999999991               0.000000000              -0.000696737               0.999999991               0.000000000              -0.000701651               0.999999991               0.000000000              -0.000705157               0.999999991              -0.000000000              -0.000711681               0.999999991              -0.000000000              -0.000722213               0.999999991               0.000000000              -0.000736697               0.999999991              -0.000000000              -0.000754745               0.999999991               0.000000000              -0.000775800               0.999999991               0.000000000              -0.000799485               0.999999991              -0.000000000              -0.000825461               0.999999991               0.000000000              -0.000853390               0.999999991               0.000000000              -0.000882955               0.999999991              -0.000000000              -0.000913791               0.999999991               0.000000000              -0.000945534               0.999999991               0.000000000              -0.000978009               0.999999991               0.000000000              -0.001010990               0.999999991               0.000000000              -0.001043982               0.999999991               0.000143191              -0.000000000               0.999999991               0.000170562              -0.000000000               0.999999991               0.000183274               0.000000000               0.999999991               0.000190570              -0.000000000               0.999999991               0.000196131              -0.000000000               0.999999991               0.000201505               0.000000000               0.999999991               0.000207379              -0.000000000               0.999999991               0.000213926              -0.000000000               0.999999991               0.000221316               0.000000000               0.999999991               0.000229710              -0.000000000               0.999999991               0.000239146               0.000000000               0.999999991               0.000249526               0.000000000               0.999999991               0.000260883               0.000000000               0.999999991               0.000273254               0.000000000               0.999999991               0.000286557               0.000000000               0.999999991               0.000300666               0.000000000               0.999999991               0.000315278               0.000000000               0.999999991               0.000142269               0.000068968               0.999999991               0.000168215               0.000059568               0.999999991               0.000180142               0.000056534               0.999999991               0.000187039               0.000056926               0.999999991               0.000192404               0.000059361               0.999999991               0.000197742               0.000062954               0.999999991               0.000203623               0.000067316               0.999999991               0.000210210               0.000072164               0.999999991               0.000217679               0.000077442               0.999999991               0.000226135               0.000083000               0.999999991               0.000235584               0.000088675               0.999999991               0.000245975               0.000094467               0.999999991               0.000257305               0.000100398               0.999999991               0.000269532               0.000106269               0.999999991               0.000282577               0.000111843               0.999999991               0.000296282               0.000116692               0.999999991               0.000310470               0.000120380               0.999999991               0.000139717               0.000137112               0.999999991               0.000161564               0.000118551               0.999999991               0.000171242               0.000112896               0.999999991               0.000177053               0.000113983               0.999999991               0.000181959               0.000119028               0.999999991               0.000187154               0.000126368               0.999999991               0.000193082               0.000135084               0.999999991               0.000199844               0.000144762               0.999999991               0.000207582               0.000155229               0.999999991               0.000216358               0.000166218               0.999999991               0.000226095               0.000177548               0.999999991               0.000236737               0.000189073               0.999999991               0.000248215               0.000200689               0.999999991               0.000260390               0.000212121               0.999999991               0.000273147               0.000222986               0.999999991               0.000286277               0.000232755               0.999999991               0.000299696               0.000240879               0.999999991               0.000135751               0.000203672               0.999999991               0.000151137               0.000176394               0.999999991               0.000157556               0.000168815               0.999999991               0.000161898               0.000171193               0.999999991               0.000166370               0.000179098               0.999999991               0.000171604               0.000190279               0.999999991               0.000177878               0.000203400               0.999999991               0.000185205               0.000217897               0.999999991               0.000193577               0.000233557               0.999999991               0.000202913               0.000249894               0.999999991               0.000213116               0.000266666               0.999999991               0.000224071               0.000283659               0.999999991               0.000235667               0.000300724               0.999999991               0.000247707               0.000317511               0.999999991               0.000260014               0.000333499               0.999999991               0.000272528               0.000348320               0.999999991               0.000285197               0.000361542               0.999999991               0.000130406               0.000267974               0.999999991               0.000137391               0.000232714               0.999999991               0.000140106               0.000224106               0.999999991               0.000143143               0.000228364               0.999999991               0.000147576               0.000239494               0.999999991               0.000153395               0.000254529               0.999999991               0.000160580               0.000272097               0.999999991               0.000168853               0.000291427               0.999999991               0.000178065               0.000312073               0.999999991               0.000188153               0.000333569               0.999999991               0.000198939               0.000355608               0.999999991               0.000210226               0.000377839               0.999999991               0.000221908               0.000400158               0.999999991               0.000233764               0.000422089               0.999999991               0.000245689               0.000443193               0.999999991               0.000257708               0.000463351               0.999999991               0.000269819               0.000482396               0.999999991               0.000123661               0.000329443               0.999999991               0.000121094               0.000287240               0.999999991               0.000120435               0.000278427               0.999999991               0.000122891               0.000284977               0.999999991               0.000128003               0.000299527               0.999999991               0.000134960               0.000318520               0.999999991               0.000143311               0.000340548               0.999999991               0.000152772               0.000364564               0.999999991               0.000163091               0.000389972               0.999999991               0.000174117               0.000416379               0.999999991               0.000185621               0.000443370               0.999999991               0.000197417               0.000470685               0.999999991               0.000209313               0.000497943               0.999999991               0.000221127               0.000524731               0.999999991               0.000232918               0.000550831               0.999999991               0.000244695               0.000576216               0.999999991               0.000256416               0.000600883               0.999999991               0.000115681               0.000387438               0.999999991               0.000103220               0.000339799               0.999999991               0.000100133               0.000331410               0.999999991               0.000102905               0.000340537               0.999999991               0.000109221               0.000358600               0.999999991               0.000117627               0.000381654               0.999999991               0.000127514               0.000407990               0.999999991               0.000138454               0.000436465               0.999999991               0.000150088               0.000466399               0.999999991               0.000162162               0.000497433               0.999999991               0.000174440               0.000529092               0.999999991               0.000186735               0.000560980               0.999999991               0.000198804               0.000592737               0.999999991               0.000210665               0.000624009               0.999999991               0.000222298               0.000654663               0.999999991               0.000233702               0.000684823               0.999999991               0.000244836               0.000714204               0.999999991               0.000106730               0.000441242               0.999999991               0.000084761               0.000390214               0.999999991               0.000080377               0.000382819               0.999999991               0.000084353               0.000394526               0.999999991               0.000092422               0.000416043               0.999999991               0.000102667               0.000442951               0.999999991               0.000114309               0.000473347               0.999999991               0.000126775               0.000506206               0.999999991               0.000139661               0.000540492               0.999999991               0.000152607               0.000575797               0.999999991               0.000165412               0.000611846               0.999999991               0.000177865               0.000647994               0.999999991               0.000189889               0.000683819               0.999999991               0.000201493               0.000719170               0.999999991               0.000212707               0.000754023               0.999999991               0.000223531               0.000788315               0.999999991               0.000233914               0.000821778               0.999999991               0.000097239               0.000489986               0.999999991               0.000066418               0.000438425               0.999999991               0.000062294               0.000432226               0.999999991               0.000068166               0.000446289               0.999999991               0.000078373               0.000470968               0.999999991               0.000090566               0.000501581               0.999999991               0.000103892               0.000536100               0.999999991               0.000117666               0.000573118               0.999999991               0.000131380               0.000611585               0.999999991               0.000144831               0.000651126               0.999999991               0.000157776               0.000691147               0.999999991               0.000170076               0.000731060               0.999999991               0.000181732               0.000770616               0.999999991               0.000192928               0.000809708               0.999999991               0.000203697               0.000848289               0.999999991               0.000214241               0.000886279               0.999999991               0.000224540               0.000923461               0.999999991               0.000087953               0.000535409               0.999999991               0.000052189               0.000489565               0.999999991               0.000045564               0.000479568               0.999999991               0.000049956               0.000488696               0.999999991               0.000059011               0.000508595               0.999999991               0.000070162               0.000534958               0.999999991               0.000082209               0.000565689               0.999999991               0.000094768               0.000599277               0.999999991               0.000107225               0.000634663               0.999999991               0.000119389               0.000671218               0.999999991               0.000131152               0.000708521               0.999999991               0.000142238               0.000746107               0.999999991               0.000152585               0.000783642               0.999999991               0.000162238               0.000821002               0.999999991               0.000171485               0.000858196               0.999999991               0.000180702               0.000895014               0.999999991               0.000190016               0.000931397               0.999999991               0.000077548               0.000576269               0.999999991               0.000039981               0.000538285               0.999999991               0.000030935               0.000527429               0.999999991               0.000033378               0.000532905               0.999999991               0.000040887               0.000548670               0.999999991               0.000050530               0.000571157               0.999999991               0.000061186               0.000598240               0.999999991               0.000072329               0.000628544               0.999999991               0.000083427               0.000661017               0.999999991               0.000094289               0.000694735               0.999999991               0.000104778               0.000729346               0.999999991               0.000114631               0.000764461               0.999999991               0.000123622               0.000799739               0.999999991               0.000131703               0.000835041               0.999999991               0.000139060               0.000870348               0.999999991               0.000146010               0.000905644               0.999999991               0.000152991               0.000940940               0.999999991               0.000066213               0.000611966               0.999999991               0.000029634               0.000583410               0.999999991               0.000019005               0.000573749               0.999999991               0.000019440               0.000577290               0.999999991               0.000025015               0.000590049               0.999999991               0.000032933               0.000609203               0.999999991               0.000041876               0.000633081               0.999999991               0.000051280               0.000660407               0.999999991               0.000060930               0.000690165               0.999999991               0.000070362               0.000721474               0.999999991               0.000079476               0.000753753               0.999999991               0.000088007               0.000786682               0.999999991               0.000095515               0.000819968               0.999999991               0.000101920               0.000853420               0.999999991               0.000107063               0.000886973               0.999999991               0.000111210               0.000920605               0.999999991               0.000114703               0.000954386               0.999999991               0.000053994               0.000641990               0.999999991               0.000021124               0.000623368               0.999999991               0.000010117               0.000616354               0.999999991               0.000008935               0.000619464               0.999999991               0.000012604               0.000630427               0.999999991               0.000018533               0.000647285               0.999999991               0.000025512               0.000668638               0.999999991               0.000033002               0.000693488               0.999999991               0.000040868               0.000720922               0.999999991               0.000048730               0.000750206               0.999999991               0.000056291               0.000780662               0.999999991               0.000063353               0.000811971               0.999999991               0.000069401               0.000843890               0.999999991               0.000074098               0.000876064               0.999999991               0.000077185               0.000908417               0.999999991               0.000078477               0.000940839               0.999999991               0.000078037               0.000973407               0.999999991               0.000041081               0.000665795               0.999999991               0.000014313               0.000656479               0.999999991               0.000004300               0.000652923               0.999999991               0.000002223               0.000656641               0.999999991               0.000004215               0.000666848               0.999999991               0.000008239               0.000682404               0.999999991               0.000013225               0.000702106               0.999999991               0.000018672               0.000725191               0.999999991               0.000024617               0.000750935               0.999999991               0.000030694               0.000778747               0.999999991               0.000036483               0.000808001               0.999999991               0.000041836               0.000838307               0.999999991               0.000046372               0.000869393               0.999999991               0.000049656               0.000900937               0.999999991               0.000051191               0.000932764               0.999999991               0.000050410               0.000964685               0.999999991               0.000046932               0.000996653               0.999999991               0.000027643               0.000683027               0.999999991               0.000008851               0.000681260               0.999999991               0.000001203               0.000681135               0.999999991              -0.000000906               0.000686047               0.999999991              -0.000000088               0.000696230               0.999999991               0.000002288               0.000711087               0.999999991               0.000005401               0.000729810               0.999999991               0.000008964               0.000751786               0.999999991               0.000012881               0.000776383               0.999999991               0.000017013               0.000803196               0.999999991               0.000020988               0.000831677               0.999999991               0.000024632               0.000861437               0.999999991               0.000027653               0.000892233               0.999999991               0.000029638               0.000923796               0.999999991               0.000030092               0.000955844               0.999999991               0.000028500               0.000988128               0.999999991               0.000023958               0.001020362               0.999999991               0.000013894               0.000693340               0.999999991               0.000004252               0.000696526               0.999999991               0.000000085               0.000699030               0.999999991              -0.000001230               0.000705069               0.999999991              -0.000001044               0.000715492               0.999999991               0.000000035               0.000730080               0.999999991               0.000001530               0.000748280               0.999999991               0.000003265               0.000769538               0.999999991               0.000005206               0.000793451               0.999999991               0.000007340               0.000819676               0.999999991               0.000009430               0.000847746               0.999999991               0.000011285               0.000877349               0.999999991               0.000012716               0.000908114               0.999999991               0.000013555               0.000939849               0.999999991               0.000013559               0.000972323               0.999999991               0.000012404               0.001005169               0.999999991               0.000009483               0.001037966               0.999999991              -0.000000000               0.000696737               0.999999991               0.000000000               0.000701651               0.999999991              -0.000000000               0.000705157               0.999999991               0.000000000               0.000711681               0.999999991              -0.000000000               0.000722213               0.999999991               0.000000000               0.000736697               0.999999991               0.000000000               0.000754745               0.999999991              -0.000000000               0.000775800               0.999999991              -0.000000000               0.000799485               0.999999991              -0.000000000               0.000825461               0.999999991              -0.000000000               0.000853390               0.999999991              -0.000000000               0.000882955               0.999999991              -0.000000000               0.000913791               0.999999991              -0.000000000               0.000945534               0.999999991              -0.000000000               0.000978009               0.999999991              -0.000000000               0.001010990               0.999999991              -0.000000000               0.001043982               0.999999991 </DataArray>
<DataArray type="Float64"                                    Name="defo"                                                      NumberOfComponents=" 3" format="ascii">
             -0.000143191               0.000000000               0.999999991              -0.000170562               0.000000000               0.999999991              -0.000183274               0.000000000               0.999999991              -0.000190570               0.000000000               0.999999991              -0.000196131               0.000000000               0.999999991              -0.000201505               0.000000000               0.999999991              -0.000207379               0.000000000               0.999999991              -0.000213926               0.000000000               0.999999991              -0.000221316               0.000000000               0.999999991              -0.000229710              -0.000000000               0.999999991              -0.000239146               0.000000000               0.999999991              -0.000249526               0.000000000               0.999999991              -0.000260883               0.000000000               0.999999991              -0.000273254               0.000000000               0.999999991              -0.000286557               0.000000000               0.999999991              -0.000300666               0.000000000               0.999999991              -0.000315278               0.000000000               0.999999991              -0.000142269               0.000068968               0.999999991              -0.000168215               0.000059568               0.999999991              -0.000180142               0.000056534               0.999999991              -0.000187039               0.000056926               0.999999991              -0.000192404               0.000059361               0.999999991              -0.000197742               0.000062954               0.999999991              -0.000203623               0.000067316               0.999999991              -0.000210210               0.000072164               0.999999991              -0.000217679               0.000077442               0.999999991              -0.000226135               0.000083000               0.999999991              -0.000235584               0.000088675               0.999999991              -0.000245975               0.000094467               0.999999991              -0.000257305               0.000100398               0.999999991              -0.000269532               0.000106269               0.999999991              -0.000282577               0.000111843               0.999999991              -0.000296282               0.000116692               0.999999991              -0.000310470               0.000120380               0.999999991              -0.000139717               0.000137112               0.999999991              -0.000161564               0.000118551               0.999999991              -0.000171242               0.000112896               0.999999991              -0.000177053               0.000113983               0.999999991              -0.000181959               0.000119028               0.999999991              -0.000187154               0.000126368               0.999999991              -0.000193082               0.000135084               0.999999991              -0.000199844               0.000144762               0.999999991              -0.000207582               0.000155229               0.999999991              -0.000216358               0.000166218               0.999999991              -0.000226095               0.000177548               0.999999991              -0.000236737               0.000189073               0.999999991              -0.000248215               0.000200689               0.999999991              -0.000260390               0.000212121               0.999999991              -0.000273147               0.000222986               0.999999991              -0.000286277               0.000232755               0.999999991              -0.000299696               0.000240879               0.999999991              -0.000135751               0.000203672               0.999999991              -0.000151137               0.000176394               0.999999991              -0.000157556               0.000168815               0.999999991              -0.000161898               0.000171193               0.999999991              -0.000166370               0.000179098               0.999999991              -0.000171604               0.000190279               0.999999991              -0.000177878               0.000203400               0.999999991              -0.000185205               0.000217897               0.999999991              -0.000193577               0.000233557               0.999999991              -0.000202913               0.000249894               0.999999991              -0.000213116               0.000266666               0.999999991              -0.000224071               0.000283659               0.999999991              -0.000235667               0.000300724               0.999999991              -0.000247707               0.000317511               0.999999991              -0.000260014               0.000333499               0.999999991              -0.000272528               0.000348320               0.999999991              -0.000285197               0.000361542               0.999999991              -0.000130406               0.000267974               0.999999991              -0.000137391               0.000232714               0.999999991              -0.000140106               0.000224106               0.999999991              -0.000143143               0.000228364               0.999999991              -0.000147576               0.000239494               0.999999991              -0.000153395               0.000254529               0.999999991              -0.000160580               0.000272097               0.999999991              -0.000168853               0.000291427               0.999999991              -0.000178065               0.000312073               0.999999991              -0.000188153               0.000333569               0.999999991              -0.000198939               0.000355608               0.999999991              -0.000210226               0.000377839               0.999999991              -0.000221908               0.000400158               0.999999991              -0.000233764               0.000422089               0.999999991              -0.000245689               0.000443193               0.999999991              -0.000257708               0.000463351               0.999999991              -0.000269819               0.000482396               0.999999991              -0.000123661               0.000329443               0.999999991              -0.000121094               0.000287240               0.999999991              -0.000120435               0.000278427               0.999999991              -0.000122891               0.000284977               0.999999991              -0.000128003               0.000299527               0.999999991              -0.000134960               0.000318520               0.999999991              -0.000143311               0.000340548               0.999999991              -0.000152772               0.000364564               0.999999991              -0.000163091               0.000389972               0.999999991              -0.000174117               0.000416379               0.999999991              -0.000185621               0.000443370               0.999999991              -0.000197417               0.000470685               0.999999991              -0.000209313               0.000497943               0.999999991              -0.000221127               0.000524731               0.999999991              -0.000232918               0.000550831               0.999999991              -0.000244695               0.000576216               0.999999991              -0.000256416               0.000600883               0.999999991              -0.000115681               0.000387438               0.999999991              -0.000103220               0.000339799               0.999999991              -0.000100133               0.000331410               0.999999991              -0.000102905               0.000340537               0.999999991              -0.000109221               0.000358600               0.999999991              -0.000117627               0.000381654               0.999999991              -0.000127514               0.000407990               0.999999991              -0.000138454               0.000436465               0.999999991              -0.000150088               0.000466399               0.999999991              -0.000162162               0.000497433               0.999999991              -0.000174440               0.000529092               0.999999991              -0.000186735               0.000560980               0.999999991              -0.000198804               0.000592737               0.999999991              -0.000210665               0.000624009               0.999999991              -0.000222298               0.000654663               0.999999991              -0.000233702               0.000684823               0.999999991              -0.000244836               0.000714204               0.999999991              -0.000106730               0.000441242               0.999999991              -0.000084761               0.000390214               0.999999991              -0.000080377               0.000382819               0.999999991              -0.000084353               0.000394526               0.999999991              -0.000092422               0.000416043               0.999999991              -0.000102667               0.000442951               0.999999991              -0.000114309               0.000473347               0.999999991              -0.000126775               0.000506206               0.999999991              -0.000139661               0.000540492               0.999999991              -0.000152607               0.000575797               0.999999991              -0.000165412               0.000611846               0.999999991              -0.000177865               0.000647994               0.999999991              -0.000189889               0.000683819               0.999999991              -0.000201493               0.000719170               0.999999991              -0.000212707               0.000754023               0.999999991              -0.000223531               0.000788315               0.999999991              -0.000233914               0.000821778               0.999999991              -0.000097239               0.000489986               0.999999991              -0.000066418               0.000438425               0.999999991              -0.000062294               0.000432226               0.999999991              -0.000068166               0.000446289               0.999999991              -0.000078373               0.000470968               0.999999991              -0.000090566               0.000501581               0.999999991              -0.000103892               0.000536100               0.999999991              -0.000117666               0.000573118               0.999999991              -0.000131380               0.000611585               0.999999991              -0.000144831               0.000651126               0.999999991              -0.000157776               0.000691147               0.999999991              -0.000170076               0.000731060               0.999999991              -0.000181732               0.000770616               0.999999991              -0.000192928               0.000809708               0.999999991              -0.000203697               0.000848289               0.999999991              -0.000214241               0.000886279               0.999999991              -0.000224540               0.000923461               0.999999991              -0.000087953               0.000535409               0.999999991              -0.000052189               0.000489565               0.999999991              -0.000045564               0.000479568               0.999999991              -0.000049956               0.000488696               0.999999991              -0.000059011               0.000508595               0.999999991              -0.000070162               0.000534958               0.999999991              -0.000082209               0.000565689               0.999999991              -0.000094768               0.000599277               0.999999991              -0.000107225               0.000634663               0.999999991              -0.000119389               0.000671218               0.999999991              -0.000131152               0.000708521               0.999999991              -0.000142238               0.000746107               0.999999991              -0.000152585               0.000783642               0.999999991              -0.000162238               0.000821002               0.999999991              -0.000171485               0.000858196               0.999999991              -0.000180702               0.000895014               0.999999991              -0.000190016               0.000931397               0.999999991              -0.000077548               0.000576269               0.999999991              -0.000039981               0.000538285               0.999999991              -0.000030935               0.000527429               0.999999991              -0.000033378               0.000532905               0.999999991              -0.000040887               0.000548670               0.999999991              -0.000050530               0.000571157               0.999999991              -0.000061186               0.000598240               0.999999991              -0.000072329               0.000628544               0.999999991              -0.000083427               0.000661017               0.999999991              -0.000094289               0.000694735               0.999999991              -0.000104778               0.000729346               0.999999991              -0.000114631               0.000764461               0.999999991              -0.000123622               0.000799739               0.999999991              -0.000131703               0.000835041               0.999999991              -0.000139060               0.000870348               0.999999991              -0.000146010               0.000905644               0.999999991              -0.000152991               0.000940940               0.999999991              -0.000066213               0.000611966               0.999999991              -0.000029634               0.000583410               0.999999991              -0.000019005               0.000573749               0.999999991              -0.000019440               0.000577290               0.999999991              -0.000025015               0.000590049               0.999999991              -0.000032933               0.000609203               0.999999991              -0.000041876               0.000633081               0.999999991              -0.000051280               0.000660407               0.999999991              -0.000060930               0.000690165               0.999999991              -0.000070362               0.000721474               0.999999991              -0.000079476               0.000753753               0.999999991              -0.000088007               0.000786682               0.999999991              -0.000095515               0.000819968               0.999999991              -0.000101920               0.000853420               0.999999991              -0.000107063               0.000886973               0.999999991              -0.000111210               0.000920605               0.999999991              -0.000114703               0.000954386               0.999999991              -0.000053994               0.000641990               0.999999991              -0.000021124               0.000623368               0.999999991              -0.000010117               0.000616354               0.999999991              -0.000008935               0.000619464               0.999999991              -0.000012604               0.000630427               0.999999991              -0.000018533               0.000647285               0.999999991              -0.000025512               0.000668638               0.999999991              -0.000033002               0.000693488               0.999999991              -0.000040868               0.000720922               0.999999991              -0.000048730               0.000750206               0.999999991              -0.000056291               0.000780662               0.999999991              -0.000063353               0.000811971               0.999999991              -0.000069401               0.000843890               0.999999991              -0.000074098               0.000876064               0.999999991              -0.000077185               0.000908417               0.999999991              -0.000078477               0.000940839               0.999999991              -0.000078037               0.000973407               0.999999991              -0.000041081               0.000665795               0.999999991              -0.000014313               0.000656479               0.999999991              -0.000004300               0.000652923               0.999999991              -0.000002223               0.000656641               0.999999991              -0.000004215               0.000666848               0.999999991              -0.000008239               0.000682404               0.999999991              -0.000013225               0.000702106               0.999999991              -0.000018672               0.000725191               0.999999991              -0.000024617               0.000750935               0.999999991              -0.000030694               0.000778747               0.999999991              -0.000036483               0.000808001               0.999999991              -0.000041836               0.000838307               0.999999991              -0.000046372               0.000869393               0.999999991              -0.000049656               0.000900937               0.999999991              -0.000051191               0.000932764               0.999999991              -0.000050410               0.000964685               0.999999991              -0.000046932               0.000996653               0.999999991              -0.000027643               0.000683027               0.999999991              -0.000008851               0.000681260               0.999999991              -0.000001203               0.000681135               0.999999991               0.000000906               0.000686047               0.999999991               0.000000088               0.000696230               0.999999991              -0.000002288               0.000711087               0.999999991              -0.000005401               0.000729810               0.999999991              -0.000008964               0.000751786               0.999999991              -0.000012881               0.000776383               0.999999991              -0.000017013               0.000803196               0.999999991              -0.000020988               0.000831677               0.999999991              -0.000024632               0.000861437               0.999999991              -0.000027653               0.000892233               0.999999991              -0.000029638               0.000923796               0.999999991              -0.000030092               0.000955844               0.999999991              -0.000028500               0.000988128               0.999999991              -0.000023958               0.001020362               0.999999991              -0.000013894               0.000693340               0.999999991              -0.000004252               0.000696526               0.999999991              -0.000000085               0.000699030               0.999999991               0.000001230               0.000705069               0.999999991               0.000001044               0.000715492               0.999999991              -0.000000035               0.000730080               0.999999991              -0.000001530               0.000748280               0.999999991              -0.000003265               0.000769538               0.999999991              -0.000005206               0.000793451               0.999999991              -0.000007340               0.000819676               0.999999991              -0.000009430               0.000847746               0.999999991              -0.000011285               0.000877349               0.999999991              -0.000012716               0.000908114               0.999999991              -0.000013555               0.000939849               0.999999991              -0.000013559               0.000972323               0.999999991              -0.000012404               0.001005169               0.999999991              -0.000009483               0.001037966               0.999999991              -0.000000000               0.000696737               0.999999991               0.000000000               0.000701651               0.999999991              -0.000000000               0.000705157               0.999999991               0.000000000               0.000711681               0.999999991              -0.000000000               0.000722213               0.999999991               0.000000000               0.000736697               0.999999991               0.000000000               0.000754745               0.999999991              -0.000000000               0.000775800               0.999999991              -0.000000000               0.000799485               0.999999991              -0.000000000               0.000825461               0.999999991              -0.000000000               0.000853390               0.999999991              -0.000000000               0.000882955               0.999999991              -0.000000000               0.000913791               0.999999991              -0.000000000               0.000945534               0.999999991              -0.000000000               0.000978009               0.999999991              -0.000000000               0.001010990               0.999999991              -0.000000000               0.001043982               0.999999991              -0.000143191               0.000000000               0.999999991              -0.000170562               0.000000000               0.999999991              -0.000183274               0.000000000               0.999999991              -0.000190570               0.000000000               0.999999991              -0.000196131               0.000000000               0.999999991              -0.000201505               0.000000000               0.999999991              -0.000207379               0.000000000               0.999999991              -0.000213926               0.000000000               0.999999991              -0.000221316               0.000000000               0.999999991              -0.000229710              -0.000000000               0.999999991              -0.000239146               0.000000000               0.999999991              -0.000249526               0.000000000               0.999999991              -0.000260883               0.000000000               0.999999991              -0.000273254               0.000000000               0.999999991              -0.000286557               0.000000000               0.999999991              -0.000300666               0.000000000               0.999999991              -0.000315278               0.000000000               0.999999991              -0.000142269              -0.000068968               0.999999991              -0.000168215              -0.000059568               0.999999991              -0.000180142              -0.000056534               0.999999991              -0.000187039              -0.000056926               0.999999991              -0.000192404              -0.000059361               0.999999991              -0.000197742              -0.000062954               0.999999991              -0.000203623              -0.000067316               0.999999991              -0.000210210              -0.000072164               0.999999991              -0.000217679              -0.000077442               0.999999991              -0.000226135              -0.000083000               0.999999991              -0.000235584              -0.000088675               0.999999991              -0.000245975              -0.000094467               0.999999991              -0.000257305              -0.000100398               0.999999991              -0.000269532              -0.000106269               0.999999991              -0.000282577              -0.000111843               0.999999991              -0.000296282              -0.000116692               0.999999991              -0.000310470              -0.000120380               0.999999991              -0.000139717              -0.000137112               0.999999991              -0.000161564              -0.000118551               0.999999991              -0.000171242              -0.000112896               0.999999991              -0.000177053              -0.000113983               0.999999991              -0.000181959              -0.000119028               0.999999991              -0.000187154              -0.000126368               0.999999991              -0.000193082              -0.000135084               0.999999991              -0.000199844              -0.000144762               0.999999991              -0.000207582              -0.000155229               0.999999991              -0.000216358              -0.000166218               0.999999991              -0.000226095              -0.000177548               0.999999991              -0.000236737              -0.000189073               0.999999991              -0.000248215              -0.000200689               0.999999991              -0.000260390              -0.000212121               0.999999991              -0.000273147              -0.000222986               0.999999991              -0.000286277              -0.000232755               0.999999991              -0.000299696              -0.000240879               0.999999991              -0.000135751              -0.000203672               0.999999991              -0.000151137              -0.000176394               0.999999991              -0.000157556              -0.000168815               0.999999991              -0.000161898              -0.000171193               0.999999991              -0.000166370              -0.000179098               0.999999991              -0.000171604              -0.000190279               0.999999991              -0.000177878              -0.000203400               0.999999991              -0.000185205              -0.000217897               0.999999991              -0.000193577              -0.000233557               0.999999991              -0.000202913              -0.000249894               0.999999991              -0.000213116              -0.000266666               0.999999991              -0.000224071              -0.000283659               0.999999991              -0.000235667              -0.000300724               0.999999991              -0.000247707              -0.000317511               0.999999991              -0.000260014              -0.000333499               0.999999991              -0.000272528              -0.000348320               0.999999991              -0.000285197              -0.000361542               0.999999991              -0.000130406              -0.000267974               0.999999991              -0.000137391              -0.000232714               0.999999991              -0.000140106              -0.000224106               0.999999991              -0.000143143              -0.000228364               0.999999991              -0.000147576              -0.000239494               0.999999991              -0.000153395              -0.000254529               0.999999991              -0.000160580              -0.000272097               0.999999991              -0.000168853              -0.000291427               0.999999991              -0.000178065              -0.000312073               0.999999991              -0.000188153              -0.000333569               0.999999991              -0.000198939              -0.000355608               0.999999991              -0.000210226              -0.000377839               0.999999991              -0.000221908              -0.000400158               0.999999991              -0.000233764              -0.000422089               0.999999991              -0.000245689              -0.000443193               0.999999991              -0.000257708              -0.000463351               0.999999991              -0.000269819              -0.000482396               0.999999991              -0.000123661              -0.000329443               0.999999991              -0.000121094              -0.000287240               0.999999991              -0.000120435              -0.000278427               0.999999991              -0.000122891              -0.000284977               0.999999991              -0.000128003              -0.000299527               0.999999991              -0.000134960              -0.000318520               0.999999991              -0.000143311              -0.000340548               0.999999991              -0.000152772              -0.000364564               0.999999991              -0.000163091              -0.000389972               0.999999991              -0.000174117              -0.000416379               0.999999991              -0.000185621              -0.000443370               0.999999991              -0.000197417              -0.000470685               0.999999991              -0.000209313              -0.000497943               0.999999991              -0.000221127              -0.000524731               0.999999991              -0.000232918              -0.000550831               0.999999991              -0.000244695              -0.000576216               0.999999991              -0.000256416              -0.000600883               0.999999991              -0.000115681              -0.000387438               0.999999991              -0.000103220              -0.000339799               0.999999991              -0.000100133              -0.000331410               0.999999991              -0.000102905              -0.000340537               0.999999991              -0.000109221              -0.000358600               0.999999991              -0.000117627              -0.000381654               0.999999991              -0.000127514              -0.000407990               0.999999991              -0.000138454              -0.000436465               0.999999991              -0.000150088              -0.000466399               0.999999991              -0.000162162              -0.000497433               0.999999991              -0.000174440              -0.000529092               0.999999991              -0.000186735              -0.000560980               0.999999991              -0.000198804              -0.000592737               0.999999991              -0.000210665              -0.000624009               0.999999991              -0.000222298              -0.000654663               0.999999991              -0.000233702              -0.000684823               0.999999991              -0.000244836              -0.000714204               0.999999991              -0.000106730              -0.000441242               0.999999991              -0.000084761              -0.000390214               0.999999991              -0.000080377              -0.000382819               0.999999991              -0.000084353              -0.000394526               0.999999991              -0.000092422              -0.000416043               0.999999991              -0.000102667              -0.000442951               0.999999991              -0.000114309              -0.000473347               0.999999991              -0.000126775              -0.000506206               0.999999991              -0.000139661              -0.000540492               0.999999991              -0.000152607              -0.000575797               0.999999991              -0.000165412              -0.000611846               0.999999991              -0.000177865              -0.000647994               0.999999991              -0.000189889              -0.000683819               0.999999991              -0.000201493              -0.000719170               0.999999991              -0.000212707              -0.000754023               0.999999991              -0.000223531              -0.000788315               0.999999991              -0.000233914              -0.000821778               0.999999991              -0.000097239              -0.000489986               0.999999991              -0.000066418              -0.000438425               0.999999991              -0.000062294              -0.000432226               0.999999991              -0.000068166              -0.000446289               0.999999991              -0.000078373              -0.000470968               0.999999991              -0.000090566              -0.000501581               0.999999991              -0.000103892              -0.000536100               0.999999991              -0.000117666              -0.000573118               0.999999991              -0.000131380              -0.000611585               0.999999991              -0.000144831              -0.000651126               0.999999991              -0.000157776              -0.000691147               0.999999991              -0.000170076              -0.000731060               0.999999991              -0.000181732              -0.000770616               0.999999991              -0.000192928              -0.000809708               0.999999991              -0.000203697              -0.000848289               0.999999991              -0.000214241              -0.000886279               0.999999991              -0.000224540              -0.000923461               0.999999991              -0.000087953              -0.000535409               0.999999991              -0.000052189              -0.000489565               0.999999991              -0.000045564              -0.000479568               0.999999991              -0.000049956              -0.000488696               0.999999991              -0.000059011              -0.000508595               0.999999991              -0.000070162              -0.000534958               0.999999991              -0.000082209              -0.000565689               0.999999991              -0.000094768              -0.000599277               0.999999991              -0.000107225              -0.000634663               0.999999991              -0.000119389              -0.000671218               0.999999991              -0.000131152              -0.000708521               0.999999991              -0.000142238              -0.000746107               0.999999991              -0.000152585              -0.000783642               0.999999991              -0.000162238              -0.000821002               0.999999991              -0.000171485              -0.000858196               0.999999991              -0.000180702              -0.000895014               0.999999991              -0.000190016              -0.000931397               0.999999991              -0.000077548              -0.000576269               0.999999991              -0.000039981              -0.000538285               0.999999991              -0.000030935              -0.000527429               0.999999991              -0.000033378              -0.000532905               0.999999991              -0.000040887              -0.000548670               0.999999991              -0.000050530              -0.000571157               0.999999991              -0.000061186              -0.000598240               0.999999991              -0.000072329              -0.000628544               0.999999991              -0.000083427              -0.000661017               0.999999991              -0.000094289              -0.000694735               0.999999991              -0.000104778              -0.000729346               0.999999991              -0.000114631              -0.000764461               0.999999991              -0.000123622              -0.000799739               0.999999991              -0.000131703              -0.000835041               0.999999991              -0.000139060              -0.000870348               0.999999991              -0.000146010              -0.000905644               0.999999991              -0.000152991              -0.000940940               0.999999991              -0.000066213              -0.000611966               0.999999991              -0.000029634              -0.000583410               0.999999991              -0.000019005              -0.000573749               0.999999991              -0.000019440              -0.000577290               0.999999991              -0.000025015              -0.000590049               0.999999991              -0.000032933              -0.000609203               0.999999991              -0.000041876              -0.000633081               0.999999991              -0.000051280              -0.000660407               0.999999991              -0.000060930              -0.000690165               0.999999991              -0.000070362              -0.000721474               0.999999991              -0.000079476              -0.000753753               0.999999991              -0.000088007              -0.000786682               0.999999991              -0.000095515              -0.000819968               0.999999991              -0.000101920              -0.000853420               0.999999991              -0.000107063              -0.000886973               0.999999991              -0.000111210              -0.000920605               0.999999991              -0.000114703              -0.000954386               0.999999991              -0.000053994              -0.000641990               0.999999991              -0.000021124              -0.000623368               0.999999991              -0.000010117              -0.000616354               0.999999991              -0.000008935              -0.000619464               0.999999991              -0.000012604              -0.000630427               0.999999991              -0.000018533              -0.000647285               0.999999991              -0.000025512              -0.000668638               0.999999991              -0.000033002              -0.000693488               0.999999991              -0.000040868              -0.000720922               0.999999991              -0.000048730              -0.000750206               0.999999991              -0.000056291              -0.000780662               0.999999991              -0.000063353              -0.000811971               0.999999991              -0.000069401              -0.000843890               0.999999991              -0.000074098              -0.000876064               0.999999991              -0.000077185              -0.000908417               0.999999991              -0.000078477              -0.000940839               0.999999991              -0.000078037              -0.000973407               0.999999991              -0.000041081              -0.000665795               0.999999991              -0.000014313              -0.000656479               0.999999991              -0.000004300              -0.000652923               0.999999991              -0.000002223              -0.000656641               0.999999991              -0.000004215              -0.000666848               0.999999991              -0.000008239              -0.000682404               0.999999991              -0.000013225              -0.000702106               0.999999991              -0.000018672              -0.000725191               0.999999991              -0.000024617              -0.000750935               0.999999991              -0.000030694              -0.000778747               0.999999991              -0.000036483              -0.000808001               0.999999991              -0.000041836              -0.000838307               0.999999991              -0.000046372              -0.000869393               0.999999991              -0.000049656              -0.000900937               0.999999991              -0.000051191              -0.000932764               0.999999991              -0.000050410              -0.000964685               0.999999991              -0.000046932              -0.000996653               0.999999991              -0.000027643              -0.000683027               0.999999991              -0.000008851              -0.000681260               0.999999991              -0.000001203              -0.000681135               0.999999991               0.000000906              -0.000686047               0.999999991               0.000000088              -0.000696230               0.999999991              -0.000002288              -0.000711087               0.999999991              -0.000005401              -0.000729810               0.999999991              -0.000008964              -0.000751786               0.999999991              -0.000012881              -0.000776383               0.999999991              -0.000017013              -0.000803196               0.999999991              -0.000020988              -0.000831677               0.999999991              -0.000024632              -0.000861437               0.999999991              -0.000027653              -0.000892233               0.999999991              -0.000029638              -0.000923796               0.999999991              -0.000030092              -0.000955844               0.999999991              -0.000028500              -0.000988128               0.999999991              -0.000023958              -0.001020362               0.999999991              -0.000013894              -0.000693340               0.999999991              -0.000004252              -0.000696526               0.999999991              -0.000000085              -0.000699030               0.999999991               0.000001230              -0.000705069               0.999999991               0.000001044              -0.000715492               0.999999991              -0.000000035              -0.000730080               0.999999991              -0.000001530              -0.000748280               0.999999991              -0.000003265              -0.000769538               0.999999991              -0.000005206              -0.000793451               0.999999991              -0.000007340              -0.000819676               0.999999991              -0.000009430              -0.000847746               0.999999991              -0.000011285              -0.000877349               0.999999991              -0.000012716              -0.000908114               0.999999991              -0.000013555              -0.000939849               0.999999991              -0.000013559              -0.000972323               0.999999991              -0.000012404              -0.001005169               0.999999991              -0.000009483              -0.001037966               0.999999991               0.000000000              -0.000696737               0.999999991               0.000000000              -0.000701651               0.999999991               0.000000000              -0.000705157               0.999999991              -0.000000000              -0.000711681               0.999999991              -0.000000000              -0.000722213               0.999999991               0.000000000              -0.000736697               0.999999991              -0.000000000              -0.000754745               0.999999991               0.000000000              -0.000775800               0.999999991               0.000000000              -0.000799485               0.999999991              -0.000000000              -0.000825461               0.999999991               0.000000000              -0.000853390               0.999999991               0.000000000              -0.000882955               0.999999991              -0.000000000              -0.000913791               0.999999991               0.000000000              -0.000945534               0.999999991               0.000000000              -0.000978009               0.999999991               0.000000000              -0.001010990               0.999999991               0.000000000              -0.001043982               0.999999991               0.000143191              -0.000000000               0.999999991               0.000170562              -0.000000000               0.999999991               0.000183274               0.000000000               0.999999991               0.000190570              -0.000000000               0.999999991               0.000196131              -0.000000000               0.999999991               0.000201505               0.000000000               0.999999991               0.000207379              -0.000000000               0.999999991               0.000213926              -0.000000000               0.999999991               0.000221316               0.000000000               0.999999991               0.000229710              -0.000000000               0.999999991               0.000239146               0.000000000               0.999999991               0.000249526               0.000000000               0.999999991               0.000260883               0.000000000               0.999999991               0.000273254               0.000000000               0.999999991               0.000286557               0.000000000               0.999999991               0.000300666               0.000000000               0.999999991               0.000315278               0.000000000               0.999999991               0.000142269              -0.000068968               0.999999991               0.000168215              -0.000059568               0.999999991               0.000180142              -0.000056534               0.999999991               0.000187039              -0.000056926               0.999999991               0.000192404              -0.000059361               0.999999991               0.000197742              -0.000062954               0.999999991               0.000203623              -0.000067316               0.999999991               0.000210210              -0.000072164               0.999999991               0.000217679              -0.000077442               0.999999991               0.000226135              -0.000083000               0.999999991               0.000235584              -0.000088675               0.999999991               0.000245975              -0.000094467               0.999999991               0.000257305              -0.000100398               0.999999991               0.000269532              -0.000106269               0.999999991               0.000282577              -0.000111843               0.999999991               0.000296282              -0.000116692               0.999999991               0.000310470              -0.000120380               0.999999991               0.000139717              -0.000137112               0.999999991               0.000161564              -0.000118551               0.999999991               0.000171242              -0.000112896               0.999999991               0.000177053              -0.000113983               0.999999991               0.000181959              -0.000119028               0.999999991               0.000187154              -0.000126368               0.999999991               0.000193082              -0.000135084               0.999999991               0.000199844              -0.000144762               0.999999991               0.000207582              -0.000155229               0.999999991               0.000216358              -0.000166218               0.999999991               0.000226095              -0.000177548               0.999999991               0.000236737              -0.000189073               0.999999991               0.000248215              -0.000200689               0.999999991               0.000260390              -0.000212121               0.999999991               0.000273147              -0.000222986               0.999999991               0.000286277              -0.000232755               0.999999991               0.000299696              -0.000240879               0.999999991               0.000135751              -0.000203672               0.999999991               0.000151137              -0.000176394               0.999999991               0.000157556              -0.000168815               0.999999991               0.000161898              -0.000171193               0.999999991               0.000166370              -0.000179098               0.999999991               0.000171604              -0.000190279               0.999999991               0.000177878              -0.000203400               0.999999991               0.000185205              -0.000217897               0.999999991               0.000193577              -0.000233557               0.999999991               0.000202913              -0.000249894               0.999999991               0.000213116              -0.000266666               0.999999991               0.000224071              -0.000283659               0.999999991               0.000235667              -0.000300724               0.999999991               0.000247707              -0.000317511               0.999999991               0.000260014              -0.000333499               0.999999991               0.000272528              -0.000348320               0.999999991               0.000285197              -0.000361542               0.999999991               0.000130406              -0.000267974               0.999999991               0.000137391              -0.000232714               0.999999991               0.000140106              -0.000224106               0.999999991               0.000143143              -0.000228364               0.999999991               0.000147576              -0.000239494               0.999999991               0.000153395              -0.000254529               0.999999991               0.000160580              -0.000272097               0.999999991               0.000168853              -0.000291427               0.999999991               0.000178065              -0.000312073               0.999999991               0.000188153              -0.000333569               0.999999991               0.000198939              -0.000355608               0.999999991               0.000210226              -0.000377839               0.999999991               0.000221908              -0.000400158               0.999999991               0.000233764              -0.000422089               0.999999991               0.000245689              -0.000443193               0.999999991               0.000257708              -0.000463351               0.999999991               0.000269819              -0.000482396               0.999999991               0.000123661              -0.000329443               0.999999991               0.000121094              -0.000287240               0.999999991               0.000120435              -0.000278427               0.999999991               0.000122891              -0.000284977               0.999999991               0.000128003              -0.000299527               0.999999991               0.000134960              -0.000318520               0.999999991               0.000143311              -0.000340548               0.999999991               0.000152772              -0.000364564               0.999999991               0.000163091              -0.000389972               0.999999991               0.000174117              -0.000416379               0.999999991               0.000185621              -0.000443370               0.999999991               0.000197417              -0.000470685               0.999999991               0.000209313              -0.000497943               0.999999991               0.000221127              -0.000524731               0.999999991               0.000232918              -0.000550831               0.999999991               0.000244695              -0.000576216               0.999999991               0.000256416              -0.000600883               0.999999991               0.000115681              -0.000387438               0.999999991               0.000103220              -0.000339799               0.999999991               0.000100133              -0.000331410               0.999999991               0.000102905              -0.000340537               0.999999991               0.000109221              -0.000358600               0.999999991               0.000117627              -0.000381654               0.999999991               0.000127514              -0.000407990               0.999999991               0.000138454              -0.000436465               0.999999991               0.000150088              -0.000466399               0.999999991               0.000162162              -0.000497433               0.999999991               0.000174440              -0.000529092               0.999999991               0.000186735              -0.000560980               0.999999991               0.000198804              -0.000592737               0.999999991               0.000210665              -0.000624009               0.999999991               0.000222298              -0.000654663               0.999999991               0.000233702              -0.000684823               0.999999991               0.000244836              -0.000714204               0.999999991               0.000106730              -0.000441242               0.999999991               0.000084761              -0.000390214               0.999999991               0.000080377              -0.000382819               0.999999991               0.000084353              -0.000394526               0.999999991               0.000092422              -0.000416043               0.999999991               0.000102667              -0.000442951               0.999999991               0.000114309              -0.000473347               0.999999991               0.000126775              -0.000506206               0.999999991               0.000139661              -0.000540492               0.999999991               0.000152607              -0.000575797               0.999999991               0.000165412              -0.000611846               0.999999991               0.000177865              -0.000647994               0.999999991               0.000189889              -0.000683819               0.999999991               0.000201493              -0.000719170               0.999999991               0.000212707              -0.000754023               0.999999991               0.000223531              -0.000788315               0.999999991               0.000233914              -0.000821778               0.999999991               0.000097239              -0.000489986               0.999999991               0.000066418              -0.000438425               0.999999991               0.000062294              -0.000432226               0.999999991               0.000068166              -0.000446289               0.999999991               0.000078373              -0.000470968               0.999999991               0.000090566              -0.000501581               0.999999991               0.000103892              -0.000536100               0.999999991               0.000117666              -0.000573118               0.999999991               0.000131380              -0.000611585               0.999999991               0.000144831              -0.000651126               0.999999991               0.000157776              -0.000691147               0.999999991               0.000170076              -0.000731060               0.999999991               0.000181732              -0.000770616               0.999999991               0.000192928              -0.000809708               0.999999991               0.000203697              -0.000848289               0.999999991               0.000214241              -0.000886279               0.999999991               0.000224540              -0.000923461               0.999999991               0.000087953              -0.000535409               0.999999991               0.000052189              -0.000489565               0.999999991               0.000045564              -0.000479568               0.999999991               0.000049956              -0.000488696               0.999999991               0.000059011              -0.000508595               0.999999991               0.000070162              -0.000534958               0.999999991               0.000082209              -0.000565689               0.999999991               0.000094768              -0.000599277               0.999999991               0.000107225              -0.000634663               0.999999991               0.000119389              -0.000671218               0.999999991               0.000131152              -0.000708521               0.999999991               0.000142238              -0.000746107               0.999999991               0.000152585              -0.000783642               0.999999991               0.000162238              -0.000821002               0.999999991               0.000171485              -0.000858196               0.999999991               0.000180702              -0.000895014               0.999999991               0.000190016              -0.000931397               0.999999991               0.000077548              -0.000576269               0.999999991               0.000039981              -0.000538285               0.999999991               0.000030935              -0.000527429               0.999999991               0.000033378              -0.000532905               0.999999991               0.000040887              -0.000548670               0.999999991               0.000050530              -0.000571157               0.999999991               0.000061186              -0.000598240               0.999999991               0.000072329              -0.000628544               0.999999991               0.000083427              -0.000661017               0.999999991               0.000094289              -0.000694735               0.999999991               0.000104778              -0.000729346               0.999999991               0.000114631              -0.000764461               0.999999991               0.000123622              -0.000799739               0.999999991               0.000131703              -0.000835041               0.999999991               0.000139060              -0.000870348               0.999999991               0.000146010              -0.000905644               0.999999991               0.000152991              -0.000940940               0.999999991               0.000066213              -0.000611966               0.999999991               0.000029634              -0.000583410               0.999999991               0.000019005              -0.000573749               0.999999991               0.000019440              -0.000577290               0.999999991               0.000025015              -0.000590049               0.999999991               0.000032933              -0.000609203               0.999999991               0.000041876              -0.000633081               0.999999991               0.000051280              -0.000660407               0.999999991               0.000060930              -0.000690165               0.999999991               0.000070362              -0.000721474               0.999999991               0.000079476              -0.000753753               0.999999991               0.000088007              -0.000786682               0.999999991               0.000095515              -0.000819968               0.999999991               0.000101920              -0.000853420               0.999999991               0.000107063              -0.000886973               0.999999991               0.000111210              -0.000920605               0.999999991               0.000114703              -0.000954386               0.999999991               0.000053994              -0.000641990               0.999999991               0.000021124              -0.000623368               0.999999991               0.000010117              -0.000616354               0.999999991               0.000008935              -0.000619464               0.999999991               0.000012604              -0.000630427               0.999999991               0.000018533              -0.000647285               0.999999991               0.000025512              -0.000668638               0.999999991               0.000033002              -0.000693488               0.999999991               0.000040868              -0.000720922               0.999999991               0.000048730              -0.000750206               0.999999991               0.000056291              -0.000780662               0.999999991               0.000063353              -0.000811971               0.999999991               0.000069401              -0.000843890               0.999999991               0.000074098              -0.000876064               0.999999991               0.000077185              -0.000908417               0.999999991               0.000078477              -0.000940839               0.999999991               0.000078037              -0.000973407               0.999999991               0.000041081              -0.000665795               0.999999991               0.000014313              -0.000656479               0.999999991               0.000004300              -0.000652923               0.999999991               0.000002223              -0.000656641               0.999999991               0.000004215              -0.000666848               0.999999991               0.000008239              -0.000682404               0.999999991               0.000013225              -0.000702106               0.999999991               0.000018672              -0.000725191               0.999999991               0.000024617              -0.000750935               0.999999991               0.000030694              -0.000778747               0.999999991               0.000036483              -0.000808001               0.999999991               0.000041836              -0.000838307               0.999999991               0.000046372              -0.000869393               0.999999991               0.000049656              -0.000900937               0.999999991               0.000051191              -0.000932764               0.999999991               0.000050410              -0.000964685               0.999999991               0.000046932              -0.000996653               0.999999991               0.000027643              -0.000683027               0.999999991               0.000008851              -0.000681260               0.999999991               0.000001203              -0.000681135               0.999999991              -0.000000906              -0.000686047               0.999999991              -0.000000088              -0.000696230               0.999999991               0.000002288              -0.000711087               0.999999991               0.000005401              -0.000729810               0.999999991               0.000008964              -0.000751786               0.999999991               0.000012881              -0.000776383               0.999999991               0.000017013              -0.000803196               0.999999991               0.000020988              -0.000831677               0.999999991               0.000024632              -0.000861437               0.999999991               0.000027653              -0.000892233               0.999999991               0.000029638              -0.000923796               0.999999991               0.000030092              -0.000955844               0.999999991               0.000028500              -0.000988128               0.999999991               0.000023958              -0.001020362               0.999999991               0.000013894              -0.000693340               0.999999991               0.000004252              -0.000696526               0.999999991               0.000000085              -0.000699030               0.999999991              -0.000001230              -0.000705069               0.999999991              -0.000001044              -0.000715492               0.999999991               0.000000035              -0.000730080               0.999999991               0.000001530              -0.000748280               0.999999991               0.000003265              -0.000769538               0.999999991               0.000005206              -0.000793451               0.999999991               0.000007340              -0.000819676               0.999999991               0.000009430              -0.000847746               0.999999991               0.000011285              -0.000877349               0.999999991               0.000012716              -0.000908114               0.999999991               0.000013555              -0.000939849               0.999999991               0.000013559              -0.000972323               0.999999991               0.000012404              -0.001005169               0.999999991               0.000009483              -0.001037966               0.999999991               0.000000000              -0.000696737               0.999999991               0.000000000              -0.000701651               0.999999991               0.000000000              -0.000705157               0.999999991              -0.000000000              -0.000711681               0.999999991              -0.000000000              -0.000722213               0.999999991               0.000000000              -0.000736697               0.999999991              -0.000000000              -0.000754745               0.999999991               0.000000000              -0.000775800               0.999999991               0.000000000              -0.000799485               0.999999991              -0.000000000              -0.000825461               0.999999991               0.000000000              -0.000853390               0.999999991               0.000000000              -0.000882955               0.999999991              -0.000000000              -0.000913791               0.999999991               0.000000000              -0.000945534               0.999999991               0.000000000              -0.000978009               0.999999991               0.000000000              -0.001010990               0.999999991               0.000000000              -0.001043982               0.999999991               0.000143191              -0.000000000               0.999999991               0.000170562              -0.000000000               0.999999991               0.000183274               0.000000000               0.999999991               0.000190570              -0.000000000               0.999999991               0.000196131              -0.000000000               0.999999991               0.000201505               0.000000000               0.999999991               0.000207379              -0.000000000               0.999999991               0.000213926              -0.000000000               0.999999991               0.000221316               0.000000000               0.999999991               0.000229710              -0.000000000               0.999999991               0.000239146               0.000000000               0.999999991               0.000249526               0.000000000               0.999999991               0.000260883               0.000000000               0.999999991               0.000273254               0.000000000               0.999999991               0.000286557               0.000000000               0.999999991               0.000300666               0.000000000               0.999999991               0.000315278               0.000000000               0.999999991               0.000142269               0.000068968               0.999999991               0.000168215               0.000059568               0.999999991               0.000180142               0.000056534               0.999999991               0.000187039               0.000056926               0.999999991               0.000192404               0.000059361               0.999999991               0.000197742               0.000062954               0.999999991               0.000203623               0.000067316               0.999999991               0.000210210               0.000072164               0.999999991               0.000217679               0.000077442               0.999999991               0.000226135               0.000083000               0.999999991               0.000235584               0.000088675               0.999999991               0.000245975               0.000094467               0.999999991               0.000257305               0.000100398               0.999999991               0.000269532               0.000106269               0.999999991               0.000282577               0.000111843               0.999999991               0.000296282               0.000116692               0.999999991               0.000310470               0.000120380               0.999999991               0.000139717               0.000137112               0.999999991               0.000161564               0.000118551               0.999999991               0.000171242               0.000112896               0.999999991               0.000177053               0.000113983               0.999999991               0.000181959               0.000119028               0.999999991               0.000187154               0.000126368               0.999999991               0.000193082               0.000135084               0.999999991               0.000199844               0.000144762               0.999999991               0.000207582               0.000155229               0.999999991               0.000216358               0.000166218               0.999999991               0.000226095               0.000177548               0.999999991               0.000236737               0.000189073               0.999999991               0.000248215               0.000200689               0.999999991               0.000260390               0.000212121               0.999999991               0.000273147               0.000222986               0.999999991               0.000286277               0.000232755               0.999999991               0.000299696               0.000240879               0.999999991               0.000135751               0.000203672               0.999999991               0.000151137               0.000176394               0.999999991               0.000157556               0.000168815               0.999999991               0.000161898               0.000171193               0.999999991               0.000166370               0.000179098               0.999999991               0.000171604               0.000190279               0.999999991               0.000177878               0.000203400               0.999999991               0.000185205               0.000217897               0.999999991               0.000193577               0.000233557               0.999999991               0.000202913               0.000249894               0.999999991               0.000213116               0.000266666               0.999999991               0.000224071               0.000283659               0.999999991               0.000235667               0.000300724               0.999999991               0.000247707               0.000317511               0.999999991               0.000260014               0.000333499               0.999999991               0.000272528               0.000348320               0.999999991               0.000285197               0.000361542               0.999999991               0.000130406               0.000267974               0.999999991               0.000137391               0.000232714               0.999999991               0.000140106               0.000224106               0.999999991               0.000143143               0.000228364               0.999999991               0.000147576               0.000239494               0.999999991               0.000153395               0.000254529               0.999999991               0.000160580               0.000272097               0.999999991               0.000168853               0.000291427               0.999999991               0.000178065               0.000312073               0.999999991               0.000188153               0.000333569               0.999999991               0.000198939               0.000355608               0.999999991               0.000210226               0.000377839               0.999999991               0.000221908               0.000400158               0.999999991               0.000233764               0.000422089               0.999999991               0.000245689               0.000443193               0.999999991               0.000257708               0.000463351               0.999999991               0.000269819               0.000482396               0.999999991               0.000123661               0.000329443               0.999999991               0.000121094               0.000287240               0.999999991               0.000120435               0.000278427               0.999999991               0.000122891               0.000284977               0.999999991               0.000128003               0.000299527               0.999999991               0.000134960               0.000318520               0.999999991               0.000143311               0.000340548               0.999999991               0.000152772               0.000364564               0.999999991               0.000163091               0.000389972               0.999999991               0.000174117               0.000416379               0.999999991               0.000185621               0.000443370               0.999999991               0.000197417               0.000470685               0.999999991               0.000209313               0.000497943               0.999999991               0.000221127               0.000524731               0.999999991               0.000232918               0.000550831               0.999999991               0.000244695               0.000576216               0.999999991               0.000256416               0.000600883               0.999999991               0.000115681               0.000387438               0.999999991               0.000103220               0.000339799               0.999999991               0.000100133               0.000331410               0.999999991               0.000102905               0.000340537               0.999999991               0.000109221               0.000358600               0.999999991               0.000117627               0.000381654               0.999999991               0.000127514               0.000407990               0.999999991               0.000138454               0.000436465               0.999999991               0.000150088               0.000466399               0.999999991               0.000162162               0.000497433               0.999999991               0.000174440               0.000529092               0.999999991               0.000186735               0.000560980               0.999999991               0.000198804               0.000592737               0.999999991               0.000210665               0.000624009               0.999999991               0.000222298               0.000654663               0.999999991               0.000233702               0.000684823               0.999999991               0.000244836               0.000714204               0.999999991               0.000106730               0.000441242               0.999999991               0.000084761               0.000390214               0.999999991               0.000080377               0.000382819               0.999999991               0.000084353               0.000394526               0.999999991               0.000092422               0.000416043               0.999999991               0.000102667               0.000442951               0.999999991               0.000114309               0.000473347               0.999999991               0.000126775               0.000506206               0.999999991               0.000139661               0.000540492               0.999999991               0.000152607               0.000575797               0.999999991               0.000165412               0.000611846               0.999999991               0.000177865               0.000647994               0.999999991               0.000189889               0.000683819               0.999999991               0.000201493               0.000719170               0.999999991               0.000212707               0.000754023               0.999999991               0.000223531               0.000788315               0.999999991               0.000233914               0.000821778               0.999999991               0.000097239               0.000489986               0.999999991               0.000066418               0.000438425               0.999999991               0.000062294               0.000432226               0.999999991               0.000068166               0.000446289               0.999999991               0.000078373               0.000470968               0.999999991               0.000090566               0.000501581               0.999999991               0.000103892               0.000536100               0.999999991               0.000117666               0.000573118               0.999999991               0.000131380               0.000611585               0.999999991               0.000144831               0.000651126               0.999999991               0.000157776               0.000691147               0.999999991               0.000170076               0.000731060               0.999999991               0.000181732               0.000770616               0.999999991               0.000192928               0.000809708               0.999999991               0.000203697               0.000848289               0.999999991               0.000214241               0.000886279               0.999999991               0.000224540               0.000923461               0.999999991               0.000087953               0.000535409               0.999999991               0.000052189               0.000489565               0.999999991               0.000045564               0.000479568               0.999999991               0.000049956               0.000488696               0.999999991               0.000059011               0.000508595               0.999999991               0.000070162               0.000534958               0.999999991               0.000082209               0.000565689               0.999999991               0.000094768               0.000599277               0.999999991               0.000107225               0.000634663               0.999999991               0.000119389               0.000671218               0.999999991               0.000131152               0.000708521               0.999999991               0.000142238               0.000746107               0.999999991               0.000152585               0.000783642               0.999999991               0.000162238               0.000821002               0.999999991               0.000171485               0.000858196               0.999999991               0.000180702               0.000895014               0.999999991               0.000190016               0.000931397               0.999999991               0.000077548               0.000576269               0.999999991               0.000039981               0.000538285               0.999999991               0.000030935               0.000527429               0.999999991               0.000033378               0.000532905               0.999999991               0.000040887               0.000548670               0.999999991               0.000050530               0.000571157               0.999999991               0.000061186               0.000598240               0.999999991               0.000072329               0.000628544               0.999999991               0.000083427               0.000661017               0.999999991               0.000094289               0.000694735               0.999999991               0.000104778               0.000729346               0.999999991               0.000114631               0.000764461               0.999999991               0.000123622               0.000799739               0.999999991               0.000131703               0.000835041               0.999999991               0.000139060               0.000870348               0.999999991               0.000146010               0.000905644               0.999999991               0.000152991               0.000940940               0.999999991               0.000066213               0.000611966               0.999999991               0.000029634               0.000583410               0.999999991               0.000019005               0.000573749               0.999999991               0.000019440               0.000577290               0.999999991               0.000025015               0.000590049               0.999999991               0.000032933               0.000609203               0.999999991               0.000041876               0.000633081               0.999999991               0.000051280               0.000660407               0.999999991               0.000060930               0.000690165               0.999999991               0.000070362               0.000721474               0.999999991               0.000079476               0.000753753               0.999999991               0.000088007               0.000786682               0.999999991               0.000095515               0.000819968               0.999999991               0.000101920               0.000853420               0.999999991               0.000107063               0.000886973               0.999999991               0.000111210               0.000920605               0.999999991               0.000114703               0.000954386               0.999999991               0.000053994               0.000641990               0.999999991               0.000021124               0.000623368               0.999999991               0.000010117               0.000616354               0.999999991               0.000008935               0.000619464               0.999999991               0.000012604               0.000630427               0.999999991               0.000018533               0.000647285               0.999999991               0.000025512               0.000668638               0.999999991               0.000033002               0.000693488               0.999999991               0.000040868               0.000720922               0.999999991               0.000048730               0.000750206               0.999999991               0.000056291               0.000780662               0.999999991               0.000063353               0.000811971               0.999999991               0.000069401               0.000843890               0.999999991               0.000074098               0.000876064               0.999999991               0.000077185               0.000908417               0.999999991               0.000078477               0.000940839               0.999999991               0.000078037               0.000973407               0.999999991               0.000041081               0.000665795               0.999999991               0.000014313               0.000656479               0.999999991               0.000004300               0.000652923               0.999999991               0.000002223               0.000656641               0.999999991               0.000004215               0.000666848               0.999999991               0.000008239               0.000682404               0.999999991               0.000013225               0.000702106               0.999999991               0.000018672               0.000725191               0.999999991               0.000024617               0.000750935               0.999999991               0.000030694               0.000778747               0.999999991               0.000036483               0.000808001               0.999999991               0.000041836               0.000838307               0.999999991               0.000046372               0.000869393               0.999999991               0.000049656               0.000900937               0.999999991               0.000051191               0.000932764               0.999999991               0.000050410               0.000964685               0.999999991               0.000046932               0.000996653               0.999999991               0.000027643               0.000683027               0.999999991               0.000008851               0.000681260               0.999999991               0.000001203               0.000681135               0.999999991              -0.000000906               0.000686047               0.999999991              -0.000000088               0.000696230               0.999999991               0.000002288               0.000711087               0.999999991               0.000005401               0.000729810               0.999999991               0.000008964               0.000751786               0.999999991               0.000012881               0.000776383               0.999999991               0.000017013               0.000803196               0.999999991               0.000020988               0.000831677               0.999999991               0.000024632               0.000861437               0.999999991               0.000027653               0.000892233               0.999999991               0.000029638               0.000923796               0.999999991               0.000030092               0.000955844               0.999999991               0.000028500               0.000988128               0.999999991               0.000023958               0.001020362               0.999999991               0.000013894               0.000693340               0.999999991               0.000004252               0.000696526               0.999999991               0.000000085               0.000699030               0.999999991              -0.000001230               0.000705069               0.999999991              -0.000001044               0.000715492               0.999999991               0.000000035               0.000730080               0.999999991               0.000001530               0.000748280               0.999999991               0.000003265               0.000769538               0.999999991               0.000005206               0.000793451               0.999999991               0.000007340               0.000819676               0.999999991               0.000009430               0.000847746               0.999999991               0.000011285               0.000877349               0.999999991               0.000012716               0.000908114               0.999999991               0.000013555               0.000939849               0.999999991               0.000013559               0.000972323               0.999999991               0.000012404               0.001005169               0.999999991               0.000009483               0.001037966               0.999999991              -0.000000000               0.000696737               0.999999991               0.000000000               0.000701651               0.999999991              -0.000000000               0.000705157               0.999999991               0.000000000               0.000711681               0.999999991              -0.000000000               0.000722213               0.999999991               0.000000000               0.000736697               0.999999991               0.000000000               0.000754745               0.999999991              -0.000000000               0.000775800               0.999999991              -0.000000000               0.000799485               0.999999991              -0.000000000               0.000825461               0.999999991              -0.000000000               0.000853390               0.999999991              -0.000000000               0.000882955               0.999999991              -0.000000000               0.000913791               0.999999991              -0.000000000               0.000945534               0.999999991              -0.000000000               0.000978009               0.999999991              -0.000000000               0.001010990               0.999999991              -0.000000000               0.001043982               0.999999991 </DataArray>
<DataArray type="Float64"                                    Name="stress"                                                      NumberOfComponents="10" format="ascii">
              0.001142798               0.012820306              -0.000000000              -0.001173986               0.004664721               0.003490735               0.000000000               0.000000000               0.000000000               0.000000000               0.001223913               0.010407009              -0.000000000              -0.000841907               0.003749604               0.002907697               0.000000000               0.000000000               0.000000000               0.000000000               0.001683607               0.008472641               0.000000000              -0.000427726               0.002966761               0.002539034               0.000000000               0.000000000               0.000000000               0.000000000               0.001722037               0.007412890               0.000000000              -0.000280847               0.002564554               0.002283707               0.000000000               0.000000000               0.000000000               0.000000000               0.001615003               0.006787145               0.000000000              -0.000242767               0.002343281               0.002100515               0.000000000               0.000000000               0.000000000               0.000000000               0.001460345               0.006388846              -0.000000000              -0.000250976               0.002213253               0.001962277               0.000000000               0.000000000               0.000000000               0.000000000               0.001303692               0.006123811               0.000000000              -0.000276591               0.002133447               0.001856856               0.000000000               0.000000000               0.000000000               0.000000000               0.001153811               0.005939100               0.000000000              -0.000309708               0.002082916               0.001773209               0.000000000               0.000000000               0.000000000               0.000000000               0.001002558               0.005805112              -0.000000000              -0.000349679               0.002051578               0.001701899               0.000000000               0.000000000               0.000000000               0.000000000               0.000851693               0.005701972              -0.000000000              -0.000393361               0.002031759               0.001638398               0.000000000               0.000000000               0.000000000               0.000000000               0.000710307               0.005618120              -0.000000000              -0.000435899               0.002017988               0.001582089               0.000000000               0.000000000               0.000000000               0.000000000               0.000576991               0.005548616               0.000000000              -0.000477204               0.002008588               0.001531384               0.000000000               0.000000000               0.000000000               0.000000000               0.000444590               0.005487921              -0.000000000              -0.000519268               0.002002378               0.001483110               0.000000000               0.000000000               0.000000000               0.000000000               0.000316015               0.005427089              -0.000000000              -0.000559879               0.001995638               0.001435759               0.000000000               0.000000000               0.000000000               0.000000000               0.000196271               0.005355598               0.000000000              -0.000595846               0.001983797               0.001387950               0.000000000               0.000000000               0.000000000               0.000000000               0.000091419               0.005259755               0.000000000              -0.000623186               0.001960963               0.001337777               0.000000000               0.000000000               0.000000000               0.000000000               0.000036683               0.005181252               0.000000000              -0.000633899               0.001938367               0.001304468               0.000000000               0.000000000               0.000000000               0.000000000               0.001198294               0.012580130              -0.000928564              -0.001123153               0.004567719               0.003444566               0.000000000               0.000000000               0.000000000               0.000000000               0.001224522               0.010245839              -0.000549248              -0.000821532               0.003689089               0.002867557               0.000000000               0.000000000               0.000000000               0.000000000               0.001624666               0.008392396              -0.000165004              -0.000439799               0.002944037               0.002504238               0.000000000               0.000000000               0.000000000               0.000000000               0.001640667               0.007373081               0.000007186              -0.000306384               0.002559797               0.002253413               0.000000000               0.000000000               0.000000000               0.000000000               0.001527329               0.006766973               0.000085063              -0.000273123               0.002346676               0.002073553               0.000000000               0.000000000               0.000000000               0.000000000               0.001374294               0.006379114               0.000117982              -0.000282028               0.002220360               0.001938331               0.000000000               0.000000000               0.000000000               0.000000000               0.001222089               0.006116793               0.000130695              -0.000306315               0.002141016               0.001834701               0.000000000               0.000000000               0.000000000               0.000000000               0.001076047               0.005931682               0.000134655              -0.000337942               0.002089855               0.001751913               0.000000000               0.000000000               0.000000000               0.000000000               0.000929478               0.005795367               0.000133683              -0.000375866               0.002057058               0.001681193               0.000000000               0.000000000               0.000000000               0.000000000               0.000786413               0.005690444               0.000127868              -0.000416400               0.002035595               0.001619196               0.000000000               0.000000000               0.000000000               0.000000000               0.000652830               0.005606987               0.000120869              -0.000456061               0.002020997               0.001564936               0.000000000               0.000000000               0.000000000               0.000000000               0.000526279               0.005536619               0.000115476              -0.000494722               0.002010429               0.001515707               0.000000000               0.000000000               0.000000000               0.000000000               0.000403689               0.005472568               0.000108957              -0.000532686               0.002001733               0.001469047               0.000000000               0.000000000               0.000000000               0.000000000               0.000286936               0.005407959               0.000097742              -0.000568392               0.001992099               0.001423707               0.000000000               0.000000000               0.000000000               0.000000000               0.000180361               0.005335524               0.000077855              -0.000599304               0.001978258               0.001378955               0.000000000               0.000000000               0.000000000               0.000000000               0.000086879               0.005246729               0.000045847              -0.000623260               0.001956646               0.001333385               0.000000000               0.000000000               0.000000000               0.000000000               0.000037335               0.005178625               0.000028562              -0.000633326               0.001937300               0.001303974               0.000000000               0.000000000               0.000000000               0.000000000               0.001350106               0.011894767              -0.001756905              -0.000980554               0.004291734               0.003311180               0.000000000               0.000000000               0.000000000               0.000000000               0.001225916               0.009785149              -0.001047460              -0.000763424               0.003516158               0.002752734               0.000000000               0.000000000               0.000000000               0.000000000               0.001462404               0.008161255              -0.000330702              -0.000471754               0.002877642               0.002405888               0.000000000               0.000000000               0.000000000               0.000000000               0.001416729               0.007257063              -0.000014949              -0.000375859               0.002544283               0.002168424               0.000000000               0.000000000               0.000000000               0.000000000               0.001290000               0.006704417               0.000127191              -0.000354301               0.002352884               0.001998582               0.000000000               0.000000000               0.000000000               0.000000000               0.001143470               0.006341592               0.000187095              -0.000363897               0.002235142               0.001871245               0.000000000               0.000000000               0.000000000               0.000000000               0.001002759               0.006088542               0.000209259              -0.000385032               0.002157838               0.001772806               0.000000000               0.000000000               0.000000000               0.000000000               0.000870187               0.005906381               0.000216051              -0.000411977               0.002106100               0.001694123               0.000000000               0.000000000               0.000000000               0.000000000               0.000739220               0.005769924               0.000213948              -0.000444032               0.002071299               0.001627268               0.000000000               0.000000000               0.000000000               0.000000000               0.000614406               0.005662253               0.000205415              -0.000477378               0.002046525               0.001569147               0.000000000               0.000000000               0.000000000               0.000000000               0.000499295               0.005575155               0.000194596              -0.000509658               0.002028252               0.001518595               0.000000000               0.000000000               0.000000000               0.000000000               0.000390971               0.005499347               0.000183938              -0.000540803               0.002013365               0.001472562               0.000000000               0.000000000               0.000000000               0.000000000               0.000291658               0.005429304               0.000170857              -0.000569290               0.001999513               0.001430223               0.000000000               0.000000000               0.000000000               0.000000000               0.000202884               0.005360706               0.000149863              -0.000594006               0.001984886               0.001390881               0.000000000               0.000000000               0.000000000               0.000000000               0.000126257               0.005289857               0.000116422              -0.000613884               0.001967896               0.001354012               0.000000000               0.000000000               0.000000000               0.000000000               0.000061736               0.005217970               0.000066059              -0.000629094               0.001949004               0.001319910               0.000000000               0.000000000               0.000000000               0.000000000               0.000027806               0.005171467               0.000038538              -0.000636004               0.001935806               0.001299802               0.000000000               0.000000000               0.000000000               0.000000000               0.001551600               0.010857812              -0.002389548              -0.000775376               0.003877693               0.003102317               0.000000000               0.000000000               0.000000000               0.000000000               0.001212696               0.009090730              -0.001438103              -0.000681579               0.003257406               0.002575826               0.000000000               0.000000000               0.000000000               0.000000000               0.001218831               0.007811702              -0.000482589              -0.000519400               0.002777008               0.002257608               0.000000000               0.000000000               0.000000000               0.000000000               0.001093298               0.007073615              -0.000075160              -0.000474214               0.002515919               0.002041705               0.000000000               0.000000000               0.000000000               0.000000000               0.000954225               0.006598418               0.000103894              -0.000466967               0.002355106               0.001888140               0.000000000               0.000000000               0.000000000               0.000000000               0.000822776               0.006268264               0.000179372              -0.000474991               0.002247731               0.001772740               0.000000000               0.000000000               0.000000000               0.000000000               0.000704680               0.006032686               0.000207176              -0.000489829               0.002174152               0.001684322               0.000000000               0.000000000               0.000000000               0.000000000               0.000598723               0.005860187               0.000218167              -0.000508001               0.002122710               0.001614709               0.000000000               0.000000000               0.000000000               0.000000000               0.000497270               0.005725965               0.000219557              -0.000529268               0.002085058               0.001555790               0.000000000               0.000000000               0.000000000               0.000000000               0.000402406               0.005616821               0.000213116              -0.000551199               0.002055988               0.001504789               0.000000000               0.000000000               0.000000000               0.000000000               0.000316184               0.005525287               0.000203805              -0.000572091               0.002032441               0.001460350               0.000000000               0.000000000               0.000000000               0.000000000               0.000236530               0.005443940               0.000194330              -0.000591792               0.002011893               0.001420100               0.000000000               0.000000000               0.000000000               0.000000000               0.000168462               0.005371405               0.000181168              -0.000608251               0.001993201               0.001384950               0.000000000               0.000000000               0.000000000               0.000000000               0.000114596               0.005304259               0.000156693              -0.000620057               0.001974754               0.001354697               0.000000000               0.000000000               0.000000000               0.000000000               0.000069192               0.005241032               0.000119445              -0.000629180               0.001956720               0.001327540               0.000000000               0.000000000               0.000000000               0.000000000               0.000031108               0.005189113               0.000067478              -0.000636972               0.001942011               0.001305039               0.000000000               0.000000000               0.000000000               0.000000000               0.000013218               0.005164532               0.000038317              -0.000640608               0.001935030               0.001294421               0.000000000               0.000000000               0.000000000               0.000000000               0.001734222               0.009591895              -0.002775975              -0.000548655               0.003380151               0.002831496               0.000000000               0.000000000               0.000000000               0.000000000               0.001164763               0.008249543              -0.001697831              -0.000594406               0.002947955               0.002353549               0.000000000               0.000000000               0.000000000               0.000000000               0.000920318               0.007380264              -0.000622627              -0.000577413               0.002652534               0.002075122               0.000000000               0.000000000               0.000000000               0.000000000               0.000724105               0.006825746              -0.000180969              -0.000581677               0.002469118               0.001887441               0.000000000               0.000000000               0.000000000               0.000000000               0.000585930               0.006439230               0.000008130              -0.000585179               0.002341448               0.001756270               0.000000000               0.000000000               0.000000000               0.000000000               0.000482168               0.006152961               0.000091999              -0.000588306               0.002247068               0.001658763               0.000000000               0.000000000               0.000000000               0.000000000               0.000399839               0.005943073               0.000130760              -0.000592943               0.002178652               0.001585709               0.000000000               0.000000000               0.000000000               0.000000000               0.000333356               0.005782808               0.000150594              -0.000597841               0.002126864               0.001529023               0.000000000               0.000000000               0.000000000               0.000000000               0.000268187               0.005648930               0.000160662              -0.000605544               0.002084806               0.001479261               0.000000000               0.000000000               0.000000000               0.000000000               0.000207326               0.005537358               0.000162710              -0.000614421               0.002050574               0.001436154               0.000000000               0.000000000               0.000000000               0.000000000               0.000156865               0.005443963               0.000159664              -0.000621670               0.002021859               0.001400190               0.000000000               0.000000000               0.000000000               0.000000000               0.000114035               0.005363296               0.000154323              -0.000627647               0.001996963               0.001369316               0.000000000               0.000000000               0.000000000               0.000000000               0.000080437               0.005289896               0.000143781              -0.000631071               0.001973638               0.001342567               0.000000000               0.000000000               0.000000000               0.000000000               0.000056520               0.005222769               0.000121027              -0.000631649               0.001951456               0.001319806               0.000000000               0.000000000               0.000000000               0.000000000               0.000035140               0.005165873               0.000088448              -0.000632555               0.001932792               0.001300237               0.000000000               0.000000000               0.000000000               0.000000000               0.000016424               0.005126262               0.000048133              -0.000634622               0.001920278               0.001285655               0.000000000               0.000000000               0.000000000               0.000000000               0.000008754               0.005112327               0.000025968              -0.000635756               0.001916011               0.001280254               0.000000000               0.000000000               0.000000000               0.000000000               0.001830701               0.008212153              -0.002920894              -0.000340008               0.002850692               0.002510684               0.000000000               0.000000000               0.000000000               0.000000000               0.001067749               0.007341697              -0.001840928              -0.000517307               0.002619643               0.002102336               0.000000000               0.000000000               0.000000000               0.000000000               0.000603265               0.006900242              -0.000765466              -0.000636305               0.002512159               0.001875855               0.000000000               0.000000000               0.000000000               0.000000000               0.000368139               0.006528241              -0.000332234              -0.000677977               0.002402051               0.001724074               0.000000000               0.000000000               0.000000000               0.000000000               0.000250623               0.006232111              -0.000141916              -0.000685029               0.002305692               0.001620664               0.000000000               0.000000000               0.000000000               0.000000000               0.000189768               0.006000393              -0.000047540              -0.000678885               0.002226406               0.001547521               0.000000000               0.000000000               0.000000000               0.000000000               0.000148977               0.005816917               0.000005954              -0.000671247               0.002162702               0.001491455               0.000000000               0.000000000               0.000000000               0.000000000               0.000118640               0.005664732               0.000037292              -0.000663600               0.002109425               0.001445825               0.000000000               0.000000000               0.000000000               0.000000000               0.000090330               0.005533360               0.000058947              -0.000657795               0.002063700               0.001405905               0.000000000               0.000000000               0.000000000               0.000000000               0.000064615               0.005421099               0.000073436              -0.000653405               0.002024817               0.001371411               0.000000000               0.000000000               0.000000000               0.000000000               0.000045849               0.005324191               0.000082055              -0.000648329               0.001990822               0.001342493               0.000000000               0.000000000               0.000000000               0.000000000               0.000034657               0.005238759               0.000085160              -0.000641847               0.001960184               0.001318338               0.000000000               0.000000000               0.000000000               0.000000000               0.000029856               0.005159391               0.000080065              -0.000633726               0.001931022               0.001297296               0.000000000               0.000000000               0.000000000               0.000000000               0.000025527               0.005086642               0.000065110              -0.000626256               0.001904283               0.001278026               0.000000000               0.000000000               0.000000000               0.000000000               0.000017076               0.005025228               0.000045357              -0.000621749               0.001882309               0.001260560               0.000000000               0.000000000               0.000000000               0.000000000               0.000009720               0.004979702               0.000023000              -0.000618816               0.001866156               0.001247340               0.000000000               0.000000000               0.000000000               0.000000000               0.000004337               0.004955869               0.000012742              -0.000617856               0.001857892               0.001240036               0.000000000               0.000000000               0.000000000               0.000000000               0.001807166               0.006819323              -0.002855929              -0.000174731               0.002331328               0.002156597               0.000000000               0.000000000               0.000000000               0.000000000               0.000923338               0.006437168              -0.001889616              -0.000458395               0.002298499               0.001840104               0.000000000               0.000000000               0.000000000               0.000000000               0.000303401               0.006411229              -0.000912787              -0.000687627               0.002366264               0.001678637               0.000000000               0.000000000               0.000000000               0.000000000               0.000073955               0.006209224              -0.000508872              -0.000748418               0.002319193               0.001570775               0.000000000               0.000000000               0.000000000               0.000000000              -0.000001690               0.005998051              -0.000316163              -0.000750388               0.002249460               0.001499071               0.000000000               0.000000000               0.000000000               0.000000000              -0.000021114               0.005810836              -0.000209271              -0.000734271               0.002181683               0.001447412               0.000000000               0.000000000               0.000000000               0.000000000              -0.000026197               0.005647642              -0.000140738              -0.000715777               0.002121121               0.001405344               0.000000000               0.000000000               0.000000000               0.000000000              -0.000024046               0.005508087              -0.000094991              -0.000697526               0.002068519               0.001370993               0.000000000               0.000000000               0.000000000               0.000000000              -0.000020776               0.005382777              -0.000057904              -0.000680636               0.002021120               0.001340483               0.000000000               0.000000000               0.000000000               0.000000000              -0.000018796               0.005269412              -0.000025549              -0.000665723               0.001978361               0.001312638               0.000000000               0.000000000               0.000000000               0.000000000              -0.000015020               0.005168615              -0.000001792              -0.000651708               0.001940090               0.001288383               0.000000000               0.000000000               0.000000000               0.000000000              -0.000007610               0.005073632               0.000014207              -0.000637056               0.001903546               0.001266490               0.000000000               0.000000000               0.000000000               0.000000000              -0.000000631               0.004982435               0.000021377              -0.000623039               0.001868475               0.001245436               0.000000000               0.000000000               0.000000000               0.000000000               0.000001477               0.004899140               0.000020493              -0.000611837               0.001836976               0.001225139               0.000000000               0.000000000               0.000000000               0.000000000               0.000000631               0.004827831               0.000018012              -0.000603241               0.001810341               0.001207100               0.000000000               0.000000000               0.000000000               0.000000000              -0.000000553               0.004766751               0.000012004              -0.000596050               0.001787584               0.001191535               0.000000000               0.000000000               0.000000000               0.000000000              -0.000007086               0.004727178               0.000010819              -0.000593553               0.001773561               0.001180008               0.000000000               0.000000000               0.000000000               0.000000000               0.001668680               0.005503217              -0.002619690              -0.000062150               0.001855103               0.001792953               0.000000000               0.000000000               0.000000000               0.000000000               0.000746334               0.005594273              -0.001862834              -0.000419410               0.002004542               0.001585132               0.000000000               0.000000000               0.000000000               0.000000000               0.000054643               0.005934128              -0.001062394              -0.000721274               0.002218447               0.001497174               0.000000000               0.000000000               0.000000000               0.000000000              -0.000133843               0.005873815              -0.000693300              -0.000784416               0.002219391               0.001434974               0.000000000               0.000000000               0.000000000               0.000000000              -0.000159107               0.005732489              -0.000493476              -0.000776225               0.002169552               0.001393327               0.000000000               0.000000000               0.000000000               0.000000000              -0.000141645               0.005583558              -0.000370361              -0.000751060               0.002111520               0.001360461               0.000000000               0.000000000               0.000000000               0.000000000              -0.000117521               0.005447876              -0.000281844              -0.000725053               0.002057625               0.001332572               0.000000000               0.000000000               0.000000000               0.000000000              -0.000093188               0.005323304              -0.000215290              -0.000700357               0.002007869               0.001307512               0.000000000               0.000000000               0.000000000               0.000000000              -0.000072747               0.005204610              -0.000159533              -0.000677855               0.001960804               0.001282949               0.000000000               0.000000000               0.000000000               0.000000000              -0.000054950               0.005093563              -0.000107653              -0.000657300               0.001916937               0.001259638               0.000000000               0.000000000               0.000000000               0.000000000              -0.000039750               0.004985908              -0.000065558              -0.000638143               0.001874667               0.001236524               0.000000000               0.000000000               0.000000000               0.000000000              -0.000027656               0.004878716              -0.000035618              -0.000620209               0.001832959               0.001212750               0.000000000               0.000000000               0.000000000               0.000000000              -0.000021675               0.004775416              -0.000014637              -0.000605053               0.001793474               0.001188420               0.000000000               0.000000000               0.000000000               0.000000000              -0.000020227               0.004681870               0.000000115              -0.000592817               0.001758214               0.001165396               0.000000000               0.000000000               0.000000000               0.000000000              -0.000019959               0.004599483               0.000010320              -0.000582419               0.001727285               0.001144867               0.000000000               0.000000000               0.000000000               0.000000000              -0.000014775               0.004526265               0.000011490              -0.000571322               0.001699181               0.001127859               0.000000000               0.000000000               0.000000000               0.000000000              -0.000014863               0.004480165               0.000012817              -0.000565593               0.001681904               0.001116311               0.000000000               0.000000000               0.000000000               0.000000000               0.001460098               0.004368093              -0.002275558               0.000001522               0.001455508               0.001457030               0.000000000               0.000000000               0.000000000               0.000000000               0.000588469               0.004845259              -0.001800109              -0.000384982               0.001743397               0.001358415               0.000000000               0.000000000               0.000000000               0.000000000              -0.000102359               0.005488320              -0.001233686              -0.000724424               0.002070896               0.001346473               0.000000000               0.000000000               0.000000000               0.000000000              -0.000245878               0.005566007              -0.000894984              -0.000787954               0.002117968               0.001330015               0.000000000               0.000000000               0.000000000               0.000000000              -0.000237268               0.005495170              -0.000678368              -0.000775870               0.002090328               0.001314458               0.000000000               0.000000000               0.000000000               0.000000000              -0.000192885               0.005393982              -0.000530350              -0.000746578               0.002046835               0.001300257               0.000000000               0.000000000               0.000000000               0.000000000              -0.000149973               0.005293664              -0.000419543              -0.000717946               0.002003853               0.001285906               0.000000000               0.000000000               0.000000000               0.000000000              -0.000111282               0.005185908              -0.000331598              -0.000689968               0.001958608               0.001268640               0.000000000               0.000000000               0.000000000               0.000000000              -0.000080722               0.005078558              -0.000256338              -0.000665089               0.001914532               0.001249443               0.000000000               0.000000000               0.000000000               0.000000000              -0.000056740               0.004971967              -0.000189578              -0.000642772               0.001871563               0.001228791               0.000000000               0.000000000               0.000000000               0.000000000              -0.000039439               0.004855013              -0.000132716              -0.000621665               0.001825543               0.001203878               0.000000000               0.000000000               0.000000000               0.000000000              -0.000030726               0.004733420              -0.000086044              -0.000603198               0.001778857               0.001175659               0.000000000               0.000000000               0.000000000               0.000000000              -0.000033025               0.004617222              -0.000048403              -0.000589536               0.001735571               0.001146035               0.000000000               0.000000000               0.000000000               0.000000000              -0.000042655               0.004512211              -0.000018940              -0.000580021               0.001697395               0.001117375               0.000000000               0.000000000               0.000000000               0.000000000              -0.000053578               0.004417578               0.000000057              -0.000572287               0.001663274               0.001090986               0.000000000               0.000000000               0.000000000               0.000000000              -0.000058272               0.004328951               0.000006138              -0.000562969               0.001630626               0.001067656               0.000000000               0.000000000               0.000000000               0.000000000              -0.000054807               0.004281969               0.000006562              -0.000555798               0.001612575               0.001056777               0.000000000               0.000000000               0.000000000               0.000000000               0.001170856               0.003295181              -0.001885884               0.000027170               0.001089325               0.001116495               0.000000000               0.000000000               0.000000000               0.000000000               0.000480368               0.003990489              -0.001720049              -0.000318674               0.001436374               0.001117699               0.000000000               0.000000000               0.000000000               0.000000000              -0.000140297               0.004848287              -0.001426842              -0.000658646               0.001835628               0.001176981               0.000000000               0.000000000               0.000000000               0.000000000              -0.000269248               0.005102212              -0.001131464              -0.000738743               0.001946968               0.001208225               0.000000000               0.000000000               0.000000000               0.000000000              -0.000256936               0.005147252              -0.000899889              -0.000739756               0.001962319               0.001222563               0.000000000               0.000000000               0.000000000               0.000000000              -0.000208555               0.005128872              -0.000722762              -0.000719316               0.001949379               0.001230063               0.000000000               0.000000000               0.000000000               0.000000000              -0.000161214               0.005086307              -0.000586093              -0.000696242               0.001927500               0.001231257               0.000000000               0.000000000               0.000000000               0.000000000              -0.000121286               0.005021148              -0.000476772              -0.000673124               0.001898074               0.001224950               0.000000000               0.000000000               0.000000000               0.000000000              -0.000088947               0.004942294              -0.000384296              -0.000651140               0.001864462               0.001213321               0.000000000               0.000000000               0.000000000               0.000000000              -0.000065816               0.004851928              -0.000304016              -0.000631170               0.001827683               0.001196513               0.000000000               0.000000000               0.000000000               0.000000000              -0.000049587               0.004750614              -0.000231769              -0.000612420               0.001787662               0.001175242               0.000000000               0.000000000               0.000000000               0.000000000              -0.000043048               0.004639226              -0.000165766              -0.000596045               0.001745075               0.001149030               0.000000000               0.000000000               0.000000000               0.000000000              -0.000048685               0.004527134              -0.000106665              -0.000584147               0.001703745               0.001119598               0.000000000               0.000000000               0.000000000               0.000000000              -0.000065514               0.004425523              -0.000057240              -0.000577757               0.001667745               0.001089988               0.000000000               0.000000000               0.000000000               0.000000000              -0.000090483               0.004330654              -0.000023546              -0.000575261               0.001635291               0.001060029               0.000000000               0.000000000               0.000000000               0.000000000              -0.000118314               0.004239617              -0.000005680              -0.000574318               0.001604631               0.001030313               0.000000000               0.000000000               0.000000000               0.000000000              -0.000129557               0.004195730              -0.000000042              -0.000573049               0.001589579               0.001016530               0.000000000               0.000000000               0.000000000               0.000000000               0.000740574               0.002314815              -0.001467036              -0.000011639               0.000775476               0.000763837               0.000000000               0.000000000               0.000000000               0.000000000               0.000351175               0.003144335              -0.001589061              -0.000261352               0.001135218               0.000873866               0.000000000               0.000000000               0.000000000               0.000000000              -0.000113733               0.004130993              -0.001570296              -0.000559024               0.001563324               0.001004301               0.000000000               0.000000000               0.000000000               0.000000000              -0.000228419               0.004548138              -0.001354944              -0.000654174               0.001734088               0.001079915               0.000000000               0.000000000               0.000000000               0.000000000              -0.000224488               0.004729018              -0.001129874              -0.000675309               0.001801426               0.001126117               0.000000000               0.000000000               0.000000000               0.000000000              -0.000185168               0.004807927              -0.000935019              -0.000670428               0.001826102               0.001155674               0.000000000               0.000000000               0.000000000               0.000000000              -0.000142698               0.004837521              -0.000777359              -0.000658200               0.001831891               0.001173691               0.000000000               0.000000000               0.000000000               0.000000000              -0.000107097               0.004832551              -0.000648740              -0.000644229               0.001825577               0.001181348               0.000000000               0.000000000               0.000000000               0.000000000              -0.000075551               0.004794853              -0.000542476              -0.000627687               0.001807497               0.001179811               0.000000000               0.000000000               0.000000000               0.000000000              -0.000052692               0.004734073              -0.000452178              -0.000611517               0.001781847               0.001170330               0.000000000               0.000000000               0.000000000               0.000000000              -0.000036119               0.004661707              -0.000369421              -0.000596257               0.001752639               0.001156382               0.000000000               0.000000000               0.000000000               0.000000000              -0.000027961               0.004575546              -0.000289018              -0.000582427               0.001719309               0.001136882               0.000000000               0.000000000               0.000000000               0.000000000              -0.000033647               0.004482026              -0.000211042              -0.000572870               0.001684950               0.001112081               0.000000000               0.000000000               0.000000000               0.000000000              -0.000053992               0.004392310              -0.000139266              -0.000569284               0.001653850               0.001084566               0.000000000               0.000000000               0.000000000               0.000000000              -0.000094743               0.004306081              -0.000077722              -0.000573787               0.001626608               0.001052821               0.000000000               0.000000000               0.000000000               0.000000000              -0.000153839               0.004226156              -0.000031458              -0.000585958               0.001604024               0.001018066               0.000000000               0.000000000               0.000000000               0.000000000              -0.000198042               0.004180110              -0.000007734              -0.000596778               0.001592282               0.000995504               0.000000000               0.000000000               0.000000000               0.000000000               0.000187444               0.001479462              -0.001042397              -0.000114642               0.000531363               0.000416720               0.000000000               0.000000000               0.000000000               0.000000000               0.000158383               0.002342139              -0.001389292              -0.000233375               0.000858496               0.000625121               0.000000000               0.000000000               0.000000000               0.000000000              -0.000060900               0.003338569              -0.001598295              -0.000440159               0.001259564               0.000819405               0.000000000               0.000000000               0.000000000               0.000000000              -0.000119543               0.003875518              -0.001481928              -0.000529268               0.001468249               0.000938981               0.000000000               0.000000000               0.000000000               0.000000000              -0.000116339               0.004180158              -0.001293074              -0.000566146               0.001582087               0.001015941               0.000000000               0.000000000               0.000000000               0.000000000              -0.000089766               0.004363011              -0.001104013              -0.000579038               0.001647335               0.001068297               0.000000000               0.000000000               0.000000000               0.000000000              -0.000061007               0.004479529              -0.000937828              -0.000582818               0.001687434               0.001104616               0.000000000               0.000000000               0.000000000               0.000000000              -0.000037969               0.004545254              -0.000800834              -0.000582394               0.001709201               0.001126807               0.000000000               0.000000000               0.000000000               0.000000000              -0.000015304               0.004566309              -0.000687334              -0.000576527               0.001714263               0.001137737               0.000000000               0.000000000               0.000000000               0.000000000               0.000003190               0.004552840              -0.000590483              -0.000567908               0.001706901               0.001138993               0.000000000               0.000000000               0.000000000               0.000000000               0.000015711               0.004518965              -0.000503306              -0.000558978               0.001692633               0.001133655               0.000000000               0.000000000               0.000000000               0.000000000               0.000024213               0.004473270              -0.000415886              -0.000550078               0.001674434               0.001124357               0.000000000               0.000000000               0.000000000               0.000000000               0.000021743               0.004416128              -0.000327150              -0.000543861               0.001653315               0.001109454               0.000000000               0.000000000               0.000000000               0.000000000               0.000002307               0.004352517              -0.000237850              -0.000543198               0.001631890               0.001088692               0.000000000               0.000000000               0.000000000               0.000000000              -0.000041266               0.004285739              -0.000150498              -0.000551191               0.001612296               0.001061105               0.000000000               0.000000000               0.000000000               0.000000000              -0.000115361               0.004218105              -0.000070895              -0.000570522               0.001596195               0.001025673               0.000000000               0.000000000               0.000000000               0.000000000              -0.000181490               0.004171150              -0.000025611              -0.000589451               0.001586853               0.000997402               0.000000000               0.000000000               0.000000000               0.000000000              -0.000434254               0.000819745              -0.000656535              -0.000265313               0.000361683               0.000096369               0.000000000               0.000000000               0.000000000               0.000000000              -0.000075062               0.001616601              -0.001138724              -0.000230224               0.000615602               0.000385378               0.000000000               0.000000000               0.000000000               0.000000000               0.000004148               0.002529497              -0.001499058              -0.000314632               0.000948034               0.000633401               0.000000000               0.000000000               0.000000000               0.000000000               0.000037348               0.003132005              -0.001473408              -0.000377495               0.001169822               0.000792327               0.000000000               0.000000000               0.000000000               0.000000000               0.000057833               0.003537457              -0.001335276              -0.000420495               0.001319305               0.000898810               0.000000000               0.000000000               0.000000000               0.000000000               0.000075721               0.003819519              -0.001173429              -0.000449044               0.001422841               0.000973797               0.000000000               0.000000000               0.000000000               0.000000000               0.000090362               0.004022211              -0.001019807              -0.000468890               0.001497020               0.001028130               0.000000000               0.000000000               0.000000000               0.000000000               0.000099577               0.004164763              -0.000889630              -0.000483253               0.001549325               0.001066071               0.000000000               0.000000000               0.000000000               0.000000000               0.000108267               0.004256678              -0.000780836              -0.000491484               0.001582706               0.001091222               0.000000000               0.000000000               0.000000000               0.000000000               0.000117019               0.004305375              -0.000685237              -0.000494289               0.001599874               0.001105585               0.000000000               0.000000000               0.000000000               0.000000000               0.000120654               0.004323758              -0.000599121              -0.000495223               0.001606313               0.001111089               0.000000000               0.000000000               0.000000000               0.000000000               0.000124717               0.004329036              -0.000513363              -0.000494359               0.001607784               0.001113425               0.000000000               0.000000000               0.000000000               0.000000000               0.000126220               0.004316472              -0.000422590              -0.000492225               0.001602885               0.001110659               0.000000000               0.000000000               0.000000000               0.000000000               0.000117400               0.004288616              -0.000326093              -0.000492051               0.001593541               0.001101490               0.000000000               0.000000000               0.000000000               0.000000000               0.000090363               0.004251112              -0.000222372              -0.000497502               0.001582857               0.001085355               0.000000000               0.000000000               0.000000000               0.000000000               0.000030672               0.004204540              -0.000113170              -0.000514064               0.001572854               0.001058790               0.000000000               0.000000000               0.000000000               0.000000000              -0.000030078               0.004167637              -0.000050924              -0.000532232               0.001566609               0.001034377               0.000000000               0.000000000               0.000000000               0.000000000              -0.001049231               0.000347307              -0.000351998              -0.000436875               0.000261392              -0.000175483               0.000000000               0.000000000               0.000000000               0.000000000              -0.000321316               0.001011936              -0.000857197              -0.000246986               0.000419637               0.000172651               0.000000000               0.000000000               0.000000000               0.000000000               0.000065802               0.001778792              -0.001269282              -0.000197674               0.000658815               0.000461141               0.000000000               0.000000000               0.000000000               0.000000000               0.000210968               0.002397391              -0.001307809              -0.000220562               0.000872642               0.000652081               0.000000000               0.000000000               0.000000000               0.000000000               0.000264950               0.002874043              -0.001221322              -0.000259900               0.001044637               0.000784738               0.000000000               0.000000000               0.000000000               0.000000000               0.000285548               0.003235235              -0.001097779              -0.000297324               0.001177509               0.000880185               0.000000000               0.000000000               0.000000000               0.000000000               0.000291938               0.003512073              -0.000972260              -0.000329532               0.001280523               0.000950991               0.000000000               0.000000000               0.000000000               0.000000000               0.000291842               0.003727522              -0.000863735              -0.000356499               0.001361328               0.001004829               0.000000000               0.000000000               0.000000000               0.000000000               0.000287735               0.003890585              -0.000772020              -0.000378422               0.001422989               0.001044567               0.000000000               0.000000000               0.000000000               0.000000000               0.000284027               0.004006861              -0.000687461              -0.000394347               0.001467056               0.001072709               0.000000000               0.000000000               0.000000000               0.000000000               0.000278930               0.004084282              -0.000609832              -0.000405936               0.001496726               0.001090790               0.000000000               0.000000000               0.000000000               0.000000000               0.000276611               0.004140080              -0.000534717              -0.000413780               0.001517939               0.001104159               0.000000000               0.000000000               0.000000000               0.000000000               0.000279184               0.004175367              -0.000454521              -0.000417226               0.001530850               0.001113624               0.000000000               0.000000000               0.000000000               0.000000000               0.000283465               0.004192303              -0.000365380              -0.000417737               0.001536666               0.001118929               0.000000000               0.000000000               0.000000000               0.000000000               0.000283040               0.004193154              -0.000261588              -0.000418003               0.001537038               0.001119035               0.000000000               0.000000000               0.000000000               0.000000000               0.000267818               0.004178229              -0.000140347              -0.000421846               0.001533344               0.001111499               0.000000000               0.000000000               0.000000000               0.000000000               0.000243826               0.004160764              -0.000071985              -0.000428660               0.001529794               0.001101134               0.000000000               0.000000000               0.000000000               0.000000000              -0.001574683               0.000048132              -0.000149557              -0.000596522               0.000214883              -0.000381639               0.000000000               0.000000000               0.000000000               0.000000000              -0.000547187               0.000564071              -0.000564445              -0.000275704               0.000279922               0.000004218               0.000000000               0.000000000               0.000000000               0.000000000               0.000110702               0.001171800              -0.000921445              -0.000104963               0.000425583               0.000320620               0.000000000               0.000000000               0.000000000               0.000000000               0.000367909               0.001771941              -0.000985688              -0.000083528               0.000618483               0.000534956               0.000000000               0.000000000               0.000000000               0.000000000               0.000463282               0.002282464              -0.000941984              -0.000111578               0.000798006               0.000686428               0.000000000               0.000000000               0.000000000               0.000000000               0.000493893               0.002695876              -0.000859967              -0.000151775               0.000949208               0.000797433               0.000000000               0.000000000               0.000000000               0.000000000               0.000498682               0.003030097              -0.000771429              -0.000191756               0.001073941               0.000882185               0.000000000               0.000000000               0.000000000               0.000000000               0.000491818               0.003301508              -0.000692236              -0.000228256               0.001176577               0.000948320               0.000000000               0.000000000               0.000000000               0.000000000               0.000476933               0.003522535              -0.000624681              -0.000261467               0.001261322               0.000999855               0.000000000               0.000000000               0.000000000               0.000000000               0.000462290               0.003698289              -0.000562180              -0.000288927               0.001329060               0.001040133               0.000000000               0.000000000               0.000000000               0.000000000               0.000450677               0.003831874              -0.000503253              -0.000309980               0.001380605               0.001070625               0.000000000               0.000000000               0.000000000               0.000000000               0.000444311               0.003938259              -0.000446704              -0.000325665               0.001421295               0.001095630               0.000000000               0.000000000               0.000000000               0.000000000               0.000446788               0.004023142              -0.000385822              -0.000335346               0.001452816               0.001117470               0.000000000               0.000000000               0.000000000               0.000000000               0.000461765               0.004087726              -0.000316298              -0.000337803               0.001475163               0.001137359               0.000000000               0.000000000               0.000000000               0.000000000               0.000491672               0.004131853              -0.000234125              -0.000332104               0.001487972               0.001155868               0.000000000               0.000000000               0.000000000               0.000000000               0.000535461               0.004152498              -0.000129743              -0.000318263               0.001490240               0.001171976               0.000000000               0.000000000               0.000000000               0.000000000               0.000570096               0.004158818              -0.000070717              -0.000306066               0.001488281               0.001182215               0.000000000               0.000000000               0.000000000               0.000000000              -0.001928297              -0.000104277              -0.000042618              -0.000710076               0.000201932              -0.000508145               0.000000000               0.000000000               0.000000000               0.000000000              -0.000710980               0.000297395              -0.000275914              -0.000303792               0.000200394              -0.000103397               0.000000000               0.000000000               0.000000000               0.000000000               0.000134413               0.000781190              -0.000484111              -0.000047244               0.000276142               0.000228898               0.000000000               0.000000000               0.000000000               0.000000000               0.000476940               0.001347554              -0.000531391               0.000010408               0.000445711               0.000456118               0.000000000               0.000000000               0.000000000               0.000000000               0.000609565               0.001866544              -0.000515241              -0.000004732               0.000623752               0.000619020               0.000000000               0.000000000               0.000000000               0.000000000               0.000651446               0.002308482              -0.000475152              -0.000044268               0.000784242               0.000739974               0.000000000               0.000000000               0.000000000               0.000000000               0.000655702               0.002675803              -0.000429086              -0.000088587               0.000921455               0.000832867               0.000000000               0.000000000               0.000000000               0.000000000               0.000642952               0.002983158              -0.000386519              -0.000131788               0.001038305               0.000906518               0.000000000               0.000000000               0.000000000               0.000000000               0.000622020               0.003245732              -0.000350837              -0.000172459               0.001139386               0.000966927               0.000000000               0.000000000               0.000000000               0.000000000               0.000596914               0.003463046              -0.000317811              -0.000209038               0.001224016               0.001014979               0.000000000               0.000000000               0.000000000               0.000000000               0.000576010               0.003639759              -0.000285317              -0.000238965               0.001292896               0.001053930               0.000000000               0.000000000               0.000000000               0.000000000               0.000564572               0.003783386              -0.000253381              -0.000261208               0.001348185               0.001086977               0.000000000               0.000000000               0.000000000               0.000000000               0.000568718               0.003900553              -0.000219471              -0.000274299               0.001391604               0.001117305               0.000000000               0.000000000               0.000000000               0.000000000               0.000597360               0.004000433              -0.000180856              -0.000276043               0.001425479               0.001149435               0.000000000               0.000000000               0.000000000               0.000000000               0.000655714               0.004079436              -0.000135258              -0.000264036               0.001447810               0.001183774               0.000000000               0.000000000               0.000000000               0.000000000               0.000747658               0.004127964              -0.000075590              -0.000235623               0.001454516               0.001218892               0.000000000               0.000000000               0.000000000               0.000000000               0.000832021               0.004153392              -0.000042391              -0.000207166               0.001453505               0.001246340               0.000000000               0.000000000               0.000000000               0.000000000              -0.002053193              -0.000147543               0.000000000              -0.000751504               0.000201319              -0.000550185               0.000000000               0.000000000               0.000000000               0.000000000              -0.000772179               0.000210979               0.000000000              -0.000315939               0.000175638              -0.000140301               0.000000000               0.000000000               0.000000000               0.000000000               0.000141427               0.000647823              -0.000000000              -0.000027943               0.000225253               0.000197310               0.000000000               0.000000000               0.000000000               0.000000000               0.000516446               0.001196680               0.000000000               0.000044082               0.000384196               0.000428277               0.000000000               0.000000000               0.000000000               0.000000000               0.000665012               0.001714615               0.000000000               0.000035052               0.000559848               0.000594901               0.000000000               0.000000000               0.000000000               0.000000000               0.000711509               0.002166027               0.000000000              -0.000003938               0.000723314               0.000719377               0.000000000               0.000000000               0.000000000               0.000000000               0.000715411               0.002545958              -0.000000000              -0.000049966               0.000865299               0.000815334               0.000000000               0.000000000               0.000000000               0.000000000               0.000701069               0.002866196              -0.000000000              -0.000095373               0.000987180               0.000891807               0.000000000               0.000000000               0.000000000               0.000000000               0.000676811               0.003141585              -0.000000000              -0.000138894               0.001093482               0.000954589               0.000000000               0.000000000               0.000000000               0.000000000               0.000645416               0.003373184               0.000000000              -0.000179617               0.001184256               0.001004639               0.000000000               0.000000000               0.000000000               0.000000000               0.000618824               0.003566654              -0.000000000              -0.000213772               0.001260130               0.001046358               0.000000000               0.000000000               0.000000000               0.000000000               0.000606039               0.003725622              -0.000000000              -0.000238438               0.001321341               0.001082903               0.000000000               0.000000000               0.000000000               0.000000000               0.000613012               0.003852527               0.000000000              -0.000251686               0.001368058               0.001116372               0.000000000               0.000000000               0.000000000               0.000000000               0.000647811               0.003959788              -0.000000000              -0.000252044               0.001403931               0.001151887               0.000000000               0.000000000               0.000000000               0.000000000               0.000717754               0.004051690              -0.000000000              -0.000237303               0.001429651               0.001192348               0.000000000               0.000000000               0.000000000               0.000000000               0.000827794               0.004113906              -0.000000000              -0.000203815               0.001439227               0.001235412               0.000000000               0.000000000               0.000000000               0.000000000               0.000928719               0.004146969              -0.000000000              -0.000170101               0.001439010               0.001268909               0.000000000               0.000000000               0.000000000               0.000000000               0.000000000               0.000000000               0.000000000               0.000000000               0.000000000               0.000000000               0.000000000               0.000000000               0.000000000               0.000000000               0.000000000               0.000000000               0.000000000               0.000000000               0.000000000               0.000000000               0.000000000               0.000000000               0.000000000               0.000000000               0.000000000               0.000000000               0.000000000               0.000000000               0.000000000               0.000000000               0.000000000               0.000000000               0.000000000               0.000000000               0.000000000               0.000000000               0.000000000               0.000000000               0.000000000               0.000000000               0.000000000               0.000000000               0.000000000               0.000000000               0.000000000               0.000000000               0.000000000               0.000000000               0.000000000               0.000000000               0.000000000               0.000000000               0.000000000               0.000000000               0.000000000               0.000000000               0.000000000               0.000000000               0.000000000               0.000000000               0.000000000               0.000000000               0.000000000               0.000000000               0.000000000               0.000000000               0.000000000               0.000000000               0.000000000               0.000000000               0.000000000               0.000000000               0.000000000               0.000000000               0.000000000               0.000000000               0.000000000               0.000000000               0.000000000               0.000000000               0.000000000               0.000000000               0.000000000               0.000000000               0.000000000               0.000000000               0.000000000               0.000000000               0.000000000               0.000000000               0.000000000               0.000000000               0.000000000               0.000000000               0.000000000               0.000000000               0.000000000               0.000000000               0.000000000               0.000000000               0.000000000               0.000000000               0.000000000               0.000000000               0.000000000               0.000000000               0.000000000               0.000000000               0.000000000               0.000000000               0.000000000               0.000000000               0.000000000               0.000000000               0.000000000               0.000000000               0.000000000               0.000000000               0.000000000               0.000000000               0.000000000               0.000000000               0.000000000               0.000000000               0.000000000               0.000000000               0.000000000               0.000000000               0.000000000               0.000000000               0.000000000               0.000000000               0.000000000               0.000000000               0.000000000               0.000000000               0.000000000               0.000000000               0.000000000               0.000000000               0.000000000               0.000000000               0.000000000               0.000000000               0.000000000               0.000000000               0.000000000               0.000000000               0.000000000               0.000000000               0.000000000               0.000000000               0.000000000               0.000000000               0.000000000               0.000000000               0.000000000               0.000000000               0.000000000               0.000000000               0.000000000               0.000000000               0.000000000               0.000000000               0.000000000               0.000000000               0.000000000               0.000000000               0.000000000               0.000000000               0.000000000               0.000000000               0.000000000               0.000000000               0.001198294               0.012580130               0.000928564              -0.001123153               0.004567719               0.003444566               0.000000000               0.000000000               0.000000000               0.000000000               0.001224522               0.010245839               0.000549248              -0.000821532               0.003689089               0.002867557               0.000000000               0.000000000               0.000000000               0.000000000               0.001624666               0.008392396               0.000165004              -0.000439799               0.002944037               0.002504238               0.000000000               0.000000000               0.000000000               0.000000000               0.001640667               0.007373081              -0.000007186              -0.000306384               0.002559797               0.002253413               0.000000000               0.000000000               0.000000000               0.000000000               0.001527329               0.006766973              -0.000085063              -0.000273123               0.002346676               0.002073553               0.000000000               0.000000000               0.000000000               0.000000000               0.001374294               0.006379114              -0.000117982              -0.000282028               0.002220360               0.001938331               0.000000000               0.000000000               0.000000000               0.000000000               0.001222089               0.006116793              -0.000130695              -0.000306315               0.002141016               0.001834701               0.000000000               0.000000000               0.000000000               0.000000000               0.001076047               0.005931682              -0.000134655              -0.000337942               0.002089855               0.001751913               0.000000000               0.000000000               0.000000000               0.000000000               0.000929478               0.005795367              -0.000133683              -0.000375866               0.002057058               0.001681193               0.000000000               0.000000000               0.000000000               0.000000000               0.000786413               0.005690444              -0.000127868              -0.000416400               0.002035595               0.001619196               0.000000000               0.000000000               0.000000000               0.000000000               0.000652830               0.005606987              -0.000120869              -0.000456061               0.002020997               0.001564936               0.000000000               0.000000000               0.000000000               0.000000000               0.000526279               0.005536619              -0.000115476              -0.000494722               0.002010429               0.001515707               0.000000000               0.000000000               0.000000000               0.000000000               0.000403689               0.005472568              -0.000108957              -0.000532686               0.002001733               0.001469047               0.000000000               0.000000000               0.000000000               0.000000000               0.000286936               0.005407959              -0.000097742              -0.000568392               0.001992099               0.001423707               0.000000000               0.000000000               0.000000000               0.000000000               0.000180361               0.005335524              -0.000077855              -0.000599304               0.001978258               0.001378955               0.000000000               0.000000000               0.000000000               0.000000000               0.000086879               0.005246729              -0.000045847              -0.000623260               0.001956646               0.001333385               0.000000000               0.000000000               0.000000000               0.000000000               0.000037335               0.005178625              -0.000028562              -0.000633326               0.001937300               0.001303974               0.000000000               0.000000000               0.000000000               0.000000000               0.001350106               0.011894767               0.001756905              -0.000980554               0.004291734               0.003311180               0.000000000               0.000000000               0.000000000               0.000000000               0.001225916               0.009785149               0.001047460              -0.000763424               0.003516158               0.002752734               0.000000000               0.000000000               0.000000000               0.000000000               0.001462404               0.008161255               0.000330702              -0.000471754               0.002877642               0.002405888               0.000000000               0.000000000               0.000000000               0.000000000               0.001416729               0.007257063               0.000014949              -0.000375859               0.002544283               0.002168424               0.000000000               0.000000000               0.000000000               0.000000000               0.001290000               0.006704417              -0.000127191              -0.000354301               0.002352884               0.001998582               0.000000000               0.000000000               0.000000000               0.000000000               0.001143470               0.006341592              -0.000187095              -0.000363897               0.002235142               0.001871245               0.000000000               0.000000000               0.000000000               0.000000000               0.001002759               0.006088542              -0.000209259              -0.000385032               0.002157838               0.001772806               0.000000000               0.000000000               0.000000000               0.000000000               0.000870187               0.005906381              -0.000216051              -0.000411977               0.002106100               0.001694123               0.000000000               0.000000000               0.000000000               0.000000000               0.000739220               0.005769924              -0.000213948              -0.000444032               0.002071299               0.001627268               0.000000000               0.000000000               0.000000000               0.000000000               0.000614406               0.005662253              -0.000205415              -0.000477378               0.002046525               0.001569147               0.000000000               0.000000000               0.000000000               0.000000000               0.000499295               0.005575155              -0.000194596              -0.000509658               0.002028252               0.001518595               0.000000000               0.000000000               0.000000000               0.000000000               0.000390971               0.005499347              -0.000183938              -0.000540803               0.002013365               0.001472562               0.000000000               0.000000000               0.000000000               0.000000000               0.000291658               0.005429304              -0.000170857              -0.000569290               0.001999513               0.001430223               0.000000000               0.000000000               0.000000000               0.000000000               0.000202884               0.005360706              -0.000149863              -0.000594006               0.001984886               0.001390881               0.000000000               0.000000000               0.000000000               0.000000000               0.000126257               0.005289857              -0.000116422              -0.000613884               0.001967896               0.001354012               0.000000000               0.000000000               0.000000000               0.000000000               0.000061736               0.005217970              -0.000066059              -0.000629094               0.001949004               0.001319910               0.000000000               0.000000000               0.000000000               0.000000000               0.000027806               0.005171467              -0.000038538              -0.000636004               0.001935806               0.001299802               0.000000000               0.000000000               0.000000000               0.000000000               0.001551600               0.010857812               0.002389548              -0.000775376               0.003877693               0.003102317               0.000000000               0.000000000               0.000000000               0.000000000               0.001212696               0.009090730               0.001438103              -0.000681579               0.003257406               0.002575826               0.000000000               0.000000000               0.000000000               0.000000000               0.001218831               0.007811702               0.000482589              -0.000519400               0.002777008               0.002257608               0.000000000               0.000000000               0.000000000               0.000000000               0.001093298               0.007073615               0.000075160              -0.000474214               0.002515919               0.002041705               0.000000000               0.000000000               0.000000000               0.000000000               0.000954225               0.006598418              -0.000103894              -0.000466967               0.002355106               0.001888140               0.000000000               0.000000000               0.000000000               0.000000000               0.000822776               0.006268264              -0.000179372              -0.000474991               0.002247731               0.001772740               0.000000000               0.000000000               0.000000000               0.000000000               0.000704680               0.006032686              -0.000207176              -0.000489829               0.002174152               0.001684322               0.000000000               0.000000000               0.000000000               0.000000000               0.000598723               0.005860187              -0.000218167              -0.000508001               0.002122710               0.001614709               0.000000000               0.000000000               0.000000000               0.000000000               0.000497270               0.005725965              -0.000219557              -0.000529268               0.002085058               0.001555790               0.000000000               0.000000000               0.000000000               0.000000000               0.000402406               0.005616821              -0.000213116              -0.000551199               0.002055988               0.001504789               0.000000000               0.000000000               0.000000000               0.000000000               0.000316184               0.005525287              -0.000203805              -0.000572091               0.002032441               0.001460350               0.000000000               0.000000000               0.000000000               0.000000000               0.000236530               0.005443940              -0.000194330              -0.000591792               0.002011893               0.001420100               0.000000000               0.000000000               0.000000000               0.000000000               0.000168462               0.005371405              -0.000181168              -0.000608251               0.001993201               0.001384950               0.000000000               0.000000000               0.000000000               0.000000000               0.000114596               0.005304259              -0.000156693              -0.000620057               0.001974754               0.001354697               0.000000000               0.000000000               0.000000000               0.000000000               0.000069192               0.005241032              -0.000119445              -0.000629180               0.001956720               0.001327540               0.000000000               0.000000000               0.000000000               0.000000000               0.000031108               0.005189113              -0.000067478              -0.000636972               0.001942011               0.001305039               0.000000000               0.000000000               0.000000000               0.000000000               0.000013218               0.005164532              -0.000038317              -0.000640608               0.001935030               0.001294421               0.000000000               0.000000000               0.000000000               0.000000000               0.001734222               0.009591895               0.002775975              -0.000548655               0.003380151               0.002831496               0.000000000               0.000000000               0.000000000               0.000000000               0.001164763               0.008249543               0.001697831              -0.000594406               0.002947955               0.002353549               0.000000000               0.000000000               0.000000000               0.000000000               0.000920318               0.007380264               0.000622627              -0.000577413               0.002652534               0.002075122               0.000000000               0.000000000               0.000000000               0.000000000               0.000724105               0.006825746               0.000180969              -0.000581677               0.002469118               0.001887441               0.000000000               0.000000000               0.000000000               0.000000000               0.000585930               0.006439230              -0.000008130              -0.000585179               0.002341448               0.001756270               0.000000000               0.000000000               0.000000000               0.000000000               0.000482168               0.006152961              -0.000091999              -0.000588306               0.002247068               0.001658763               0.000000000               0.000000000               0.000000000               0.000000000               0.000399839               0.005943073              -0.000130760              -0.000592943               0.002178652               0.001585709               0.000000000               0.000000000               0.000000000               0.000000000               0.000333356               0.005782808              -0.000150594              -0.000597841               0.002126864               0.001529023               0.000000000               0.000000000               0.000000000               0.000000000               0.000268187               0.005648930              -0.000160662              -0.000605544               0.002084806               0.001479261               0.000000000               0.000000000               0.000000000               0.000000000               0.000207326               0.005537358              -0.000162710              -0.000614421               0.002050574               0.001436154               0.000000000               0.000000000               0.000000000               0.000000000               0.000156865               0.005443963              -0.000159664              -0.000621670               0.002021859               0.001400190               0.000000000               0.000000000               0.000000000               0.000000000               0.000114035               0.005363296              -0.000154323              -0.000627647               0.001996963               0.001369316               0.000000000               0.000000000               0.000000000               0.000000000               0.000080437               0.005289896              -0.000143781              -0.000631071               0.001973638               0.001342567               0.000000000               0.000000000               0.000000000               0.000000000               0.000056520               0.005222769              -0.000121027              -0.000631649               0.001951456               0.001319806               0.000000000               0.000000000               0.000000000               0.000000000               0.000035140               0.005165873              -0.000088448              -0.000632555               0.001932792               0.001300237               0.000000000               0.000000000               0.000000000               0.000000000               0.000016424               0.005126262              -0.000048133              -0.000634622               0.001920278               0.001285655               0.000000000               0.000000000               0.000000000               0.000000000               0.000008754               0.005112327              -0.000025968              -0.000635756               0.001916011               0.001280254               0.000000000               0.000000000               0.000000000               0.000000000               0.001830701               0.008212153               0.002920894              -0.000340008               0.002850692               0.002510684               0.000000000               0.000000000               0.000000000               0.000000000               0.001067749               0.007341697               0.001840928              -0.000517307               0.002619643               0.002102336               0.000000000               0.000000000               0.000000000               0.000000000               0.000603265               0.006900242               0.000765466              -0.000636305               0.002512159               0.001875855               0.000000000               0.000000000               0.000000000               0.000000000               0.000368139               0.006528241               0.000332234              -0.000677977               0.002402051               0.001724074               0.000000000               0.000000000               0.000000000               0.000000000               0.000250623               0.006232111               0.000141916              -0.000685029               0.002305692               0.001620664               0.000000000               0.000000000               0.000000000               0.000000000               0.000189768               0.006000393               0.000047540              -0.000678885               0.002226406               0.001547521               0.000000000               0.000000000               0.000000000               0.000000000               0.000148977               0.005816917              -0.000005954              -0.000671247               0.002162702               0.001491455               0.000000000               0.000000000               0.000000000               0.000000000               0.000118640               0.005664732              -0.000037292              -0.000663600               0.002109425               0.001445825               0.000000000               0.000000000               0.000000000               0.000000000               0.000090330               0.005533360              -0.000058947              -0.000657795               0.002063700               0.001405905               0.000000000               0.000000000               0.000000000               0.000000000               0.000064615               0.005421099              -0.000073436              -0.000653405               0.002024817               0.001371411               0.000000000               0.000000000               0.000000000               0.000000000               0.000045849               0.005324191              -0.000082055              -0.000648329               0.001990822               0.001342493               0.000000000               0.000000000               0.000000000               0.000000000               0.000034657               0.005238759              -0.000085160              -0.000641847               0.001960184               0.001318338               0.000000000               0.000000000               0.000000000               0.000000000               0.000029856               0.005159391              -0.000080065              -0.000633726               0.001931022               0.001297296               0.000000000               0.000000000               0.000000000               0.000000000               0.000025527               0.005086642              -0.000065110              -0.000626256               0.001904283               0.001278026               0.000000000               0.000000000               0.000000000               0.000000000               0.000017076               0.005025228              -0.000045357              -0.000621749               0.001882309               0.001260560               0.000000000               0.000000000               0.000000000               0.000000000               0.000009720               0.004979702              -0.000023000              -0.000618816               0.001866156               0.001247340               0.000000000               0.000000000               0.000000000               0.000000000               0.000004337               0.004955869              -0.000012742              -0.000617856               0.001857892               0.001240036               0.000000000               0.000000000               0.000000000               0.000000000               0.001807166               0.006819323               0.002855929              -0.000174731               0.002331328               0.002156597               0.000000000               0.000000000               0.000000000               0.000000000               0.000923338               0.006437168               0.001889616              -0.000458395               0.002298499               0.001840104               0.000000000               0.000000000               0.000000000               0.000000000               0.000303401               0.006411229               0.000912787              -0.000687627               0.002366264               0.001678637               0.000000000               0.000000000               0.000000000               0.000000000               0.000073955               0.006209224               0.000508872              -0.000748418               0.002319193               0.001570775               0.000000000               0.000000000               0.000000000               0.000000000              -0.000001690               0.005998051               0.000316163              -0.000750388               0.002249460               0.001499071               0.000000000               0.000000000               0.000000000               0.000000000              -0.000021114               0.005810836               0.000209271              -0.000734271               0.002181683               0.001447412               0.000000000               0.000000000               0.000000000               0.000000000              -0.000026197               0.005647642               0.000140738              -0.000715777               0.002121121               0.001405344               0.000000000               0.000000000               0.000000000               0.000000000              -0.000024046               0.005508087               0.000094991              -0.000697526               0.002068519               0.001370993               0.000000000               0.000000000               0.000000000               0.000000000              -0.000020776               0.005382777               0.000057904              -0.000680636               0.002021120               0.001340483               0.000000000               0.000000000               0.000000000               0.000000000              -0.000018796               0.005269412               0.000025549              -0.000665723               0.001978361               0.001312638               0.000000000               0.000000000               0.000000000               0.000000000              -0.000015020               0.005168615               0.000001792              -0.000651708               0.001940090               0.001288383               0.000000000               0.000000000               0.000000000               0.000000000              -0.000007610               0.005073632              -0.000014207              -0.000637056               0.001903546               0.001266490               0.000000000               0.000000000               0.000000000               0.000000000              -0.000000631               0.004982435              -0.000021377              -0.000623039               0.001868475               0.001245436               0.000000000               0.000000000               0.000000000               0.000000000               0.000001477               0.004899140              -0.000020493              -0.000611837               0.001836976               0.001225139               0.000000000               0.000000000               0.000000000               0.000000000               0.000000631               0.004827831              -0.000018012              -0.000603241               0.001810341               0.001207100               0.000000000               0.000000000               0.000000000               0.000000000              -0.000000553               0.004766751              -0.000012004              -0.000596050               0.001787584               0.001191535               0.000000000               0.000000000               0.000000000               0.000000000              -0.000007086               0.004727178              -0.000010819              -0.000593553               0.001773561               0.001180008               0.000000000               0.000000000               0.000000000               0.000000000               0.001668680               0.005503217               0.002619690              -0.000062150               0.001855103               0.001792953               0.000000000               0.000000000               0.000000000               0.000000000               0.000746334               0.005594273               0.001862834              -0.000419410               0.002004542               0.001585132               0.000000000               0.000000000               0.000000000               0.000000000               0.000054643               0.005934128               0.001062394              -0.000721274               0.002218447               0.001497174               0.000000000               0.000000000               0.000000000               0.000000000              -0.000133843               0.005873815               0.000693300              -0.000784416               0.002219391               0.001434974               0.000000000               0.000000000               0.000000000               0.000000000              -0.000159107               0.005732489               0.000493476              -0.000776225               0.002169552               0.001393327               0.000000000               0.000000000               0.000000000               0.000000000              -0.000141645               0.005583558               0.000370361              -0.000751060               0.002111520               0.001360461               0.000000000               0.000000000               0.000000000               0.000000000              -0.000117521               0.005447876               0.000281844              -0.000725053               0.002057625               0.001332572               0.000000000               0.000000000               0.000000000               0.000000000              -0.000093188               0.005323304               0.000215290              -0.000700357               0.002007869               0.001307512               0.000000000               0.000000000               0.000000000               0.000000000              -0.000072747               0.005204610               0.000159533              -0.000677855               0.001960804               0.001282949               0.000000000               0.000000000               0.000000000               0.000000000              -0.000054950               0.005093563               0.000107653              -0.000657300               0.001916937               0.001259638               0.000000000               0.000000000               0.000000000               0.000000000              -0.000039750               0.004985908               0.000065558              -0.000638143               0.001874667               0.001236524               0.000000000               0.000000000               0.000000000               0.000000000              -0.000027656               0.004878716               0.000035618              -0.000620209               0.001832959               0.001212750               0.000000000               0.000000000               0.000000000               0.000000000              -0.000021675               0.004775416               0.000014637              -0.000605053               0.001793474               0.001188420               0.000000000               0.000000000               0.000000000               0.000000000              -0.000020227               0.004681870              -0.000000115              -0.000592817               0.001758214               0.001165396               0.000000000               0.000000000               0.000000000               0.000000000              -0.000019959               0.004599483              -0.000010320              -0.000582419               0.001727285               0.001144867               0.000000000               0.000000000               0.000000000               0.000000000              -0.000014775               0.004526265              -0.000011490              -0.000571322               0.001699181               0.001127859               0.000000000               0.000000000               0.000000000               0.000000000              -0.000014863               0.004480165              -0.000012817              -0.000565593               0.001681904               0.001116311               0.000000000               0.000000000               0.000000000               0.000000000               0.001460098               0.004368093               0.002275558               0.000001522               0.001455508               0.001457030               0.000000000               0.000000000               0.000000000               0.000000000               0.000588469               0.004845259               0.001800109              -0.000384982               0.001743397               0.001358415               0.000000000               0.000000000               0.000000000               0.000000000              -0.000102359               0.005488320               0.001233686              -0.000724424               0.002070896               0.001346473               0.000000000               0.000000000               0.000000000               0.000000000              -0.000245878               0.005566007               0.000894984              -0.000787954               0.002117968               0.001330015               0.000000000               0.000000000               0.000000000               0.000000000              -0.000237268               0.005495170               0.000678368              -0.000775870               0.002090328               0.001314458               0.000000000               0.000000000               0.000000000               0.000000000              -0.000192885               0.005393982               0.000530350              -0.000746578               0.002046835               0.001300257               0.000000000               0.000000000               0.000000000               0.000000000              -0.000149973               0.005293664               0.000419543              -0.000717946               0.002003853               0.001285906               0.000000000               0.000000000               0.000000000               0.000000000              -0.000111282               0.005185908               0.000331598              -0.000689968               0.001958608               0.001268640               0.000000000               0.000000000               0.000000000               0.000000000              -0.000080722               0.005078558               0.000256338              -0.000665089               0.001914532               0.001249443               0.000000000               0.000000000               0.000000000               0.000000000              -0.000056740               0.004971967               0.000189578              -0.000642772               0.001871563               0.001228791               0.000000000               0.000000000               0.000000000               0.000000000              -0.000039439               0.004855013               0.000132716              -0.000621665               0.001825543               0.001203878               0.000000000               0.000000000               0.000000000               0.000000000              -0.000030726               0.004733420               0.000086044              -0.000603198               0.001778857               0.001175659               0.000000000               0.000000000               0.000000000               0.000000000              -0.000033025               0.004617222               0.000048403              -0.000589536               0.001735571               0.001146035               0.000000000               0.000000000               0.000000000               0.000000000              -0.000042655               0.004512211               0.000018940              -0.000580021               0.001697395               0.001117375               0.000000000               0.000000000               0.000000000               0.000000000              -0.000053578               0.004417578              -0.000000057              -0.000572287               0.001663274               0.001090986               0.000000000               0.000000000               0.000000000               0.000000000              -0.000058272               0.004328951              -0.000006138              -0.000562969               0.001630626               0.001067656               0.000000000               0.000000000               0.000000000               0.000000000              -0.000054807               0.004281969              -0.000006562              -0.000555798               0.001612575               0.001056777               0.000000000               0.000000000               0.000000000               0.000000000               0.001170856               0.003295181               0.001885884               0.000027170               0.001089325               0.001116495               0.000000000               0.000000000               0.000000000               0.000000000               0.000480368               0.003990489               0.001720049              -0.000318674               0.001436374               0.001117699               0.000000000               0.000000000               0.000000000               0.000000000              -0.000140297               0.004848287               0.001426842              -0.000658646               0.001835628               0.001176981               0.000000000               0.000000000               0.000000000               0.000000000              -0.000269248               0.005102212               0.001131464              -0.000738743               0.001946968               0.001208225               0.000000000               0.000000000               0.000000000               0.000000000              -0.000256936               0.005147252               0.000899889              -0.000739756               0.001962319               0.001222563               0.000000000               0.000000000               0.000000000               0.000000000              -0.000208555               0.005128872               0.000722762              -0.000719316               0.001949379               0.001230063               0.000000000               0.000000000               0.000000000               0.000000000              -0.000161214               0.005086307               0.000586093              -0.000696242               0.001927500               0.001231257               0.000000000               0.000000000               0.000000000               0.000000000              -0.000121286               0.005021148               0.000476772              -0.000673124               0.001898074               0.001224950               0.000000000               0.000000000               0.000000000               0.000000000              -0.000088947               0.004942294               0.000384296              -0.000651140               0.001864462               0.001213321               0.000000000               0.000000000               0.000000000               0.000000000              -0.000065816               0.004851928               0.000304016              -0.000631170               0.001827683               0.001196513               0.000000000               0.000000000               0.000000000               0.000000000              -0.000049587               0.004750614               0.000231769              -0.000612420               0.001787662               0.001175242               0.000000000               0.000000000               0.000000000               0.000000000              -0.000043048               0.004639226               0.000165766              -0.000596045               0.001745075               0.001149030               0.000000000               0.000000000               0.000000000               0.000000000              -0.000048685               0.004527134               0.000106665              -0.000584147               0.001703745               0.001119598               0.000000000               0.000000000               0.000000000               0.000000000              -0.000065514               0.004425523               0.000057240              -0.000577757               0.001667745               0.001089988               0.000000000               0.000000000               0.000000000               0.000000000              -0.000090483               0.004330654               0.000023546              -0.000575261               0.001635291               0.001060029               0.000000000               0.000000000               0.000000000               0.000000000              -0.000118314               0.004239617               0.000005680              -0.000574318               0.001604631               0.001030313               0.000000000               0.000000000               0.000000000               0.000000000              -0.000129557               0.004195730               0.000000042              -0.000573049               0.001589579               0.001016530               0.000000000               0.000000000               0.000000000               0.000000000               0.000740574               0.002314815               0.001467036              -0.000011639               0.000775476               0.000763837               0.000000000               0.000000000               0.000000000               0.000000000               0.000351175               0.003144335               0.001589061              -0.000261352               0.001135218               0.000873866               0.000000000               0.000000000               0.000000000               0.000000000              -0.000113733               0.004130993               0.001570296              -0.000559024               0.001563324               0.001004301               0.000000000               0.000000000               0.000000000               0.000000000              -0.000228419               0.004548138               0.001354944              -0.000654174               0.001734088               0.001079915               0.000000000               0.000000000               0.000000000               0.000000000              -0.000224488               0.004729018               0.001129874              -0.000675309               0.001801426               0.001126117               0.000000000               0.000000000               0.000000000               0.000000000              -0.000185168               0.004807927               0.000935019              -0.000670428               0.001826102               0.001155674               0.000000000               0.000000000               0.000000000               0.000000000              -0.000142698               0.004837521               0.000777359              -0.000658200               0.001831891               0.001173691               0.000000000               0.000000000               0.000000000               0.000000000              -0.000107097               0.004832551               0.000648740              -0.000644229               0.001825577               0.001181348               0.000000000               0.000000000               0.000000000               0.000000000              -0.000075551               0.004794853               0.000542476              -0.000627687               0.001807497               0.001179811               0.000000000               0.000000000               0.000000000               0.000000000              -0.000052692               0.004734073               0.000452178              -0.000611517               0.001781847               0.001170330               0.000000000               0.000000000               0.000000000               0.000000000              -0.000036119               0.004661707               0.000369421              -0.000596257               0.001752639               0.001156382               0.000000000               0.000000000               0.000000000               0.000000000              -0.000027961               0.004575546               0.000289018              -0.000582427               0.001719309               0.001136882               0.000000000               0.000000000               0.000000000               0.000000000              -0.000033647               0.004482026               0.000211042              -0.000572870               0.001684950               0.001112081               0.000000000               0.000000000               0.000000000               0.000000000              -0.000053992               0.004392310               0.000139266              -0.000569284               0.001653850               0.001084566               0.000000000               0.000000000               0.000000000               0.000000000              -0.000094743               0.004306081               0.000077722              -0.000573787               0.001626608               0.001052821               0.000000000               0.000000000               0.000000000               0.000000000              -0.000153839               0.004226156               0.000031458              -0.000585958               0.001604024               0.001018066               0.000000000               0.000000000               0.000000000               0.000000000              -0.000198042               0.004180110               0.000007734              -0.000596778               0.001592282               0.000995504               0.000000000               0.000000000               0.000000000               0.000000000               0.000187444               0.001479462               0.001042397              -0.000114642               0.000531363               0.000416720               0.000000000               0.000000000               0.000000000               0.000000000               0.000158383               0.002342139               0.001389292              -0.000233375               0.000858496               0.000625121               0.000000000               0.000000000               0.000000000               0.000000000              -0.000060900               0.003338569               0.001598295              -0.000440159               0.001259564               0.000819405               0.000000000               0.000000000               0.000000000               0.000000000              -0.000119543               0.003875518               0.001481928              -0.000529268               0.001468249               0.000938981               0.000000000               0.000000000               0.000000000               0.000000000              -0.000116339               0.004180158               0.001293074              -0.000566146               0.001582087               0.001015941               0.000000000               0.000000000               0.000000000               0.000000000              -0.000089766               0.004363011               0.001104013              -0.000579038               0.001647335               0.001068297               0.000000000               0.000000000               0.000000000               0.000000000              -0.000061007               0.004479529               0.000937828              -0.000582818               0.001687434               0.001104616               0.000000000               0.000000000               0.000000000               0.000000000              -0.000037969               0.004545254               0.000800834              -0.000582394               0.001709201               0.001126807               0.000000000               0.000000000               0.000000000               0.000000000              -0.000015304               0.004566309               0.000687334              -0.000576527               0.001714263               0.001137737               0.000000000               0.000000000               0.000000000               0.000000000               0.000003190               0.004552840               0.000590483              -0.000567908               0.001706901               0.001138993               0.000000000               0.000000000               0.000000000               0.000000000               0.000015711               0.004518965               0.000503306              -0.000558978               0.001692633               0.001133655               0.000000000               0.000000000               0.000000000               0.000000000               0.000024213               0.004473270               0.000415886              -0.000550078               0.001674434               0.001124357               0.000000000               0.000000000               0.000000000               0.000000000               0.000021743               0.004416128               0.000327150              -0.000543861               0.001653315               0.001109454               0.000000000               0.000000000               0.000000000               0.000000000               0.000002307               0.004352517               0.000237850              -0.000543198               0.001631890               0.001088692               0.000000000               0.000000000               0.000000000               0.000000000              -0.000041266               0.004285739               0.000150498              -0.000551191               0.001612296               0.001061105               0.000000000               0.000000000               0.000000000               0.000000000              -0.000115361               0.004218105               0.000070895              -0.000570522               0.001596195               0.001025673               0.000000000               0.000000000               0.000000000               0.000000000              -0.000181490               0.004171150               0.000025611              -0.000589451               0.001586853               0.000997402               0.000000000               0.000000000               0.000000000               0.000000000              -0.000434254               0.000819745               0.000656535              -0.000265313               0.000361683               0.000096369               0.000000000               0.000000000               0.000000000               0.000000000              -0.000075062               0.001616601               0.001138724              -0.000230224               0.000615602               0.000385378               0.000000000               0.000000000               0.000000000               0.000000000               0.000004148               0.002529497               0.001499058              -0.000314632               0.000948034               0.000633401               0.000000000               0.000000000               0.000000000               0.000000000               0.000037348               0.003132005               0.001473408              -0.000377495               0.001169822               0.000792327               0.000000000               0.000000000               0.000000000               0.000000000               0.000057833               0.003537457               0.001335276              -0.000420495               0.001319305               0.000898810               0.000000000               0.000000000               0.000000000               0.000000000               0.000075721               0.003819519               0.001173429              -0.000449044               0.001422841               0.000973797               0.000000000               0.000000000               0.000000000               0.000000000               0.000090362               0.004022211               0.001019807              -0.000468890               0.001497020               0.001028130               0.000000000               0.000000000               0.000000000               0.000000000               0.000099577               0.004164763               0.000889630              -0.000483253               0.001549325               0.001066071               0.000000000               0.000000000               0.000000000               0.000000000               0.000108267               0.004256678               0.000780836              -0.000491484               0.001582706               0.001091222               0.000000000               0.000000000               0.000000000               0.000000000               0.000117019               0.004305375               0.000685237              -0.000494289               0.001599874               0.001105585               0.000000000               0.000000000               0.000000000               0.000000000               0.000120654               0.004323758               0.000599121              -0.000495223               0.001606313               0.001111089               0.000000000               0.000000000               0.000000000               0.000000000               0.000124717               0.004329036               0.000513363              -0.000494359               0.001607784               0.001113425               0.000000000               0.000000000               0.000000000               0.000000000               0.000126220               0.004316472               0.000422590              -0.000492225               0.001602885               0.001110659               0.000000000               0.000000000               0.000000000               0.000000000               0.000117400               0.004288616               0.000326093              -0.000492051               0.001593541               0.001101490               0.000000000               0.000000000               0.000000000               0.000000000               0.000090363               0.004251112               0.000222372              -0.000497502               0.001582857               0.001085355               0.000000000               0.000000000               0.000000000               0.000000000               0.000030672               0.004204540               0.000113170              -0.000514064               0.001572854               0.001058790               0.000000000               0.000000000               0.000000000               0.000000000              -0.000030078               0.004167637               0.000050924              -0.000532232               0.001566609               0.001034377               0.000000000               0.000000000               0.000000000               0.000000000              -0.001049231               0.000347307               0.000351998              -0.000436875               0.000261392              -0.000175483               0.000000000               0.000000000               0.000000000               0.000000000              -0.000321316               0.001011936               0.000857197              -0.000246986               0.000419637               0.000172651               0.000000000               0.000000000               0.000000000               0.000000000               0.000065802               0.001778792               0.001269282              -0.000197674               0.000658815               0.000461141               0.000000000               0.000000000               0.000000000               0.000000000               0.000210968               0.002397391               0.001307809              -0.000220562               0.000872642               0.000652081               0.000000000               0.000000000               0.000000000               0.000000000               0.000264950               0.002874043               0.001221322              -0.000259900               0.001044637               0.000784738               0.000000000               0.000000000               0.000000000               0.000000000               0.000285548               0.003235235               0.001097779              -0.000297324               0.001177509               0.000880185               0.000000000               0.000000000               0.000000000               0.000000000               0.000291938               0.003512073               0.000972260              -0.000329532               0.001280523               0.000950991               0.000000000               0.000000000               0.000000000               0.000000000               0.000291842               0.003727522               0.000863735              -0.000356499               0.001361328               0.001004829               0.000000000               0.000000000               0.000000000               0.000000000               0.000287735               0.003890585               0.000772020              -0.000378422               0.001422989               0.001044567               0.000000000               0.000000000               0.000000000               0.000000000               0.000284027               0.004006861               0.000687461              -0.000394347               0.001467056               0.001072709               0.000000000               0.000000000               0.000000000               0.000000000               0.000278930               0.004084282               0.000609832              -0.000405936               0.001496726               0.001090790               0.000000000               0.000000000               0.000000000               0.000000000               0.000276611               0.004140080               0.000534717              -0.000413780               0.001517939               0.001104159               0.000000000               0.000000000               0.000000000               0.000000000               0.000279184               0.004175367               0.000454521              -0.000417226               0.001530850               0.001113624               0.000000000               0.000000000               0.000000000               0.000000000               0.000283465               0.004192303               0.000365380              -0.000417737               0.001536666               0.001118929               0.000000000               0.000000000               0.000000000               0.000000000               0.000283040               0.004193154               0.000261588              -0.000418003               0.001537038               0.001119035               0.000000000               0.000000000               0.000000000               0.000000000               0.000267818               0.004178229               0.000140347              -0.000421846               0.001533344               0.001111499               0.000000000               0.000000000               0.000000000               0.000000000               0.000243826               0.004160764               0.000071985              -0.000428660               0.001529794               0.001101134               0.000000000               0.000000000               0.000000000               0.000000000              -0.001574683               0.000048132               0.000149557              -0.000596522               0.000214883              -0.000381639               0.000000000               0.000000000               0.000000000               0.000000000              -0.000547187               0.000564071               0.000564445              -0.000275704               0.000279922               0.000004218               0.000000000               0.000000000               0.000000000               0.000000000               0.000110702               0.001171800               0.000921445              -0.000104963               0.000425583               0.000320620               0.000000000               0.000000000               0.000000000               0.000000000               0.000367909               0.001771941               0.000985688              -0.000083528               0.000618483               0.000534956               0.000000000               0.000000000               0.000000000               0.000000000               0.000463282               0.002282464               0.000941984              -0.000111578               0.000798006               0.000686428               0.000000000               0.000000000               0.000000000               0.000000000               0.000493893               0.002695876               0.000859967              -0.000151775               0.000949208               0.000797433               0.000000000               0.000000000               0.000000000               0.000000000               0.000498682               0.003030097               0.000771429              -0.000191756               0.001073941               0.000882185               0.000000000               0.000000000               0.000000000               0.000000000               0.000491818               0.003301508               0.000692236              -0.000228256               0.001176577               0.000948320               0.000000000               0.000000000               0.000000000               0.000000000               0.000476933               0.003522535               0.000624681              -0.000261467               0.001261322               0.000999855               0.000000000               0.000000000               0.000000000               0.000000000               0.000462290               0.003698289               0.000562180              -0.000288927               0.001329060               0.001040133               0.000000000               0.000000000               0.000000000               0.000000000               0.000450677               0.003831874               0.000503253              -0.000309980               0.001380605               0.001070625               0.000000000               0.000000000               0.000000000               0.000000000               0.000444311               0.003938259               0.000446704              -0.000325665               0.001421295               0.001095630               0.000000000               0.000000000               0.000000000               0.000000000               0.000446788               0.004023142               0.000385822              -0.000335346               0.001452816               0.001117470               0.000000000               0.000000000               0.000000000               0.000000000               0.000461765               0.004087726               0.000316298              -0.000337803               0.001475163               0.001137359               0.000000000               0.000000000               0.000000000               0.000000000               0.000491672               0.004131853               0.000234125              -0.000332104               0.001487972               0.001155868               0.000000000               0.000000000               0.000000000               0.000000000               0.000535461               0.004152498               0.000129743              -0.000318263               0.001490240               0.001171976               0.000000000               0.000000000               0.000000000               0.000000000               0.000570096               0.004158818               0.000070717              -0.000306066               0.001488281               0.001182215               0.000000000               0.000000000               0.000000000               0.000000000              -0.001928297              -0.000104277               0.000042618              -0.000710076               0.000201932              -0.000508145               0.000000000               0.000000000               0.000000000               0.000000000              -0.000710980               0.000297395               0.000275914              -0.000303792               0.000200394              -0.000103397               0.000000000               0.000000000               0.000000000               0.000000000               0.000134413               0.000781190               0.000484111              -0.000047244               0.000276142               0.000228898               0.000000000               0.000000000               0.000000000               0.000000000               0.000476940               0.001347554               0.000531391               0.000010408               0.000445711               0.000456118               0.000000000               0.000000000               0.000000000               0.000000000               0.000609565               0.001866544               0.000515241              -0.000004732               0.000623752               0.000619020               0.000000000               0.000000000               0.000000000               0.000000000               0.000651446               0.002308482               0.000475152              -0.000044268               0.000784242               0.000739974               0.000000000               0.000000000               0.000000000               0.000000000               0.000655702               0.002675803               0.000429086              -0.000088587               0.000921455               0.000832867               0.000000000               0.000000000               0.000000000               0.000000000               0.000642952               0.002983158               0.000386519              -0.000131788               0.001038305               0.000906518               0.000000000               0.000000000               0.000000000               0.000000000               0.000622020               0.003245732               0.000350837              -0.000172459               0.001139386               0.000966927               0.000000000               0.000000000               0.000000000               0.000000000               0.000596914               0.003463046               0.000317811              -0.000209038               0.001224016               0.001014979               0.000000000               0.000000000               0.000000000               0.000000000               0.000576010               0.003639759               0.000285317              -0.000238965               0.001292896               0.001053930               0.000000000               0.000000000               0.000000000               0.000000000               0.000564572               0.003783386               0.000253381              -0.000261208               0.001348185               0.001086977               0.000000000               0.000000000               0.000000000               0.000000000               0.000568718               0.003900553               0.000219471              -0.000274299               0.001391604               0.001117305               0.000000000               0.000000000               0.000000000               0.000000000               0.000597360               0.004000433               0.000180856              -0.000276043               0.001425479               0.001149435               0.000000000               0.000000000               0.000000000               0.000000000               0.000655714               0.004079436               0.000135258              -0.000264036               0.001447810               0.001183774               0.000000000               0.000000000               0.000000000               0.000000000               0.000747658               0.004127964               0.000075590              -0.000235623               0.001454516               0.001218892               0.000000000               0.000000000               0.000000000               0.000000000               0.000832021               0.004153392               0.000042391              -0.000207166               0.001453505               0.001246340               0.000000000               0.000000000               0.000000000               0.000000000              -0.002053193              -0.000147543              -0.000000000              -0.000751504               0.000201319              -0.000550185               0.000000000               0.000000000               0.000000000               0.000000000              -0.000772179               0.000210979               0.000000000              -0.000315939               0.000175638              -0.000140301               0.000000000               0.000000000               0.000000000               0.000000000               0.000141427               0.000647823              -0.000000000              -0.000027943               0.000225253               0.000197310               0.000000000               0.000000000               0.000000000               0.000000000               0.000516446               0.001196680               0.000000000               0.000044082               0.000384196               0.000428277               0.000000000               0.000000000               0.000000000               0.000000000               0.000665012               0.001714615              -0.000000000               0.000035052               0.000559848               0.000594901               0.000000000               0.000000000               0.000000000               0.000000000               0.000711509               0.002166027              -0.000000000              -0.000003938               0.000723314               0.000719377               0.000000000               0.000000000               0.000000000               0.000000000               0.000715411               0.002545958               0.000000000              -0.000049966               0.000865299               0.000815334               0.000000000               0.000000000               0.000000000               0.000000000               0.000701069               0.002866196               0.000000000              -0.000095373               0.000987180               0.000891807               0.000000000               0.000000000               0.000000000               0.000000000               0.000676811               0.003141585               0.000000000              -0.000138894               0.001093482               0.000954589               0.000000000               0.000000000               0.000000000               0.000000000               0.000645416               0.003373184              -0.000000000              -0.000179617               0.001184256               0.001004639               0.000000000               0.000000000               0.000000000               0.000000000               0.000618824               0.003566654              -0.000000000              -0.000213772               0.001260130               0.001046358               0.000000000               0.000000000               0.000000000               0.000000000               0.000606039               0.003725622              -0.000000000              -0.000238438               0.001321341               0.001082903               0.000000000               0.000000000               0.000000000               0.000000000               0.000613012               0.003852527              -0.000000000              -0.000251686               0.001368058               0.001116372               0.000000000               0.000000000               0.000000000               0.000000000               0.000647811               0.003959788              -0.000000000              -0.000252044               0.001403931               0.001151887               0.000000000               0.000000000               0.000000000               0.000000000               0.000717754               0.004051690              -0.000000000              -0.000237303               0.001429651               0.001192348               0.000000000               0.000000000               0.000000000               0.000000000               0.000827794               0.004113906               0.000000000              -0.000203815               0.001439227               0.001235412               0.000000000               0.000000000               0.000000000               0.000000000               0.000928719               0.004146969               0.000000000              -0.000170101               0.001439010               0.001268909               0.000000000               0.000000000               0.000000000               0.000000000               0.001142798               0.012820306               0.000000000              -0.001173986               0.004664721               0.003490735               0.000000000               0.000000000               0.000000000               0.000000000               0.001223913               0.010407009               0.000000000              -0.000841907               0.003749604               0.002907697               0.000000000               0.000000000               0.000000000               0.000000000               0.001683607               0.008472641               0.000000000              -0.000427726               0.002966761               0.002539034               0.000000000               0.000000000               0.000000000               0.000000000               0.001722037               0.007412890               0.000000000              -0.000280847               0.002564554               0.002283707               0.000000000               0.000000000               0.000000000               0.000000000               0.001615003               0.006787145              -0.000000000              -0.000242767               0.002343281               0.002100515               0.000000000               0.000000000               0.000000000               0.000000000               0.001460345               0.006388846              -0.000000000              -0.000250976               0.002213253               0.001962277               0.000000000               0.000000000               0.000000000               0.000000000               0.001303692               0.006123811               0.000000000              -0.000276591               0.002133447               0.001856856               0.000000000               0.000000000               0.000000000               0.000000000               0.001153811               0.005939100              -0.000000000              -0.000309708               0.002082916               0.001773209               0.000000000               0.000000000               0.000000000               0.000000000               0.001002558               0.005805112              -0.000000000              -0.000349679               0.002051578               0.001701899               0.000000000               0.000000000               0.000000000               0.000000000               0.000851693               0.005701972              -0.000000000              -0.000393361               0.002031759               0.001638398               0.000000000               0.000000000               0.000000000               0.000000000               0.000710307               0.005618120              -0.000000000              -0.000435899               0.002017988               0.001582089               0.000000000               0.000000000               0.000000000               0.000000000               0.000576991               0.005548616              -0.000000000              -0.000477204               0.002008588               0.001531384               0.000000000               0.000000000               0.000000000               0.000000000               0.000444590               0.005487921              -0.000000000              -0.000519268               0.002002378               0.001483110               0.000000000               0.000000000               0.000000000               0.000000000               0.000316015               0.005427089               0.000000000              -0.000559879               0.001995638               0.001435759               0.000000000               0.000000000               0.000000000               0.000000000               0.000196271               0.005355598               0.000000000              -0.000595846               0.001983797               0.001387950               0.000000000               0.000000000               0.000000000               0.000000000               0.000091419               0.005259755              -0.000000000              -0.000623186               0.001960963               0.001337777               0.000000000               0.000000000               0.000000000               0.000000000               0.000036683               0.005181252              -0.000000000              -0.000633899               0.001938367               0.001304468               0.000000000               0.000000000               0.000000000               0.000000000               0.001198294               0.012580130              -0.000928564              -0.001123153               0.004567719               0.003444566               0.000000000               0.000000000               0.000000000               0.000000000               0.001224522               0.010245839              -0.000549248              -0.000821532               0.003689089               0.002867557               0.000000000               0.000000000               0.000000000               0.000000000               0.001624666               0.008392396              -0.000165004              -0.000439799               0.002944037               0.002504238               0.000000000               0.000000000               0.000000000               0.000000000               0.001640667               0.007373081               0.000007186              -0.000306384               0.002559797               0.002253413               0.000000000               0.000000000               0.000000000               0.000000000               0.001527329               0.006766973               0.000085063              -0.000273123               0.002346676               0.002073553               0.000000000               0.000000000               0.000000000               0.000000000               0.001374294               0.006379114               0.000117982              -0.000282028               0.002220360               0.001938331               0.000000000               0.000000000               0.000000000               0.000000000               0.001222089               0.006116793               0.000130695              -0.000306315               0.002141016               0.001834701               0.000000000               0.000000000               0.000000000               0.000000000               0.001076047               0.005931682               0.000134655              -0.000337942               0.002089855               0.001751913               0.000000000               0.000000000               0.000000000               0.000000000               0.000929478               0.005795367               0.000133683              -0.000375866               0.002057058               0.001681193               0.000000000               0.000000000               0.000000000               0.000000000               0.000786413               0.005690444               0.000127868              -0.000416400               0.002035595               0.001619196               0.000000000               0.000000000               0.000000000               0.000000000               0.000652830               0.005606987               0.000120869              -0.000456061               0.002020997               0.001564936               0.000000000               0.000000000               0.000000000               0.000000000               0.000526279               0.005536619               0.000115476              -0.000494722               0.002010429               0.001515707               0.000000000               0.000000000               0.000000000               0.000000000               0.000403689               0.005472568               0.000108957              -0.000532686               0.002001733               0.001469047               0.000000000               0.000000000               0.000000000               0.000000000               0.000286936               0.005407959               0.000097742              -0.000568392               0.001992099               0.001423707               0.000000000               0.000000000               0.000000000               0.000000000               0.000180361               0.005335524               0.000077855              -0.000599304               0.001978258               0.001378955               0.000000000               0.000000000               0.000000000               0.000000000               0.000086879               0.005246729               0.000045847              -0.000623260               0.001956646               0.001333385               0.000000000               0.000000000               0.000000000               0.000000000               0.000037335               0.005178625               0.000028562              -0.000633326               0.001937300               0.001303974               0.000000000               0.000000000               0.000000000               0.000000000               0.001350106               0.011894767              -0.001756905              -0.000980554               0.004291734               0.003311180               0.000000000               0.000000000               0.000000000               0.000000000               0.001225916               0.009785149              -0.001047460              -0.000763424               0.003516158               0.002752734               0.000000000               0.000000000               0.000000000               0.000000000               0.001462404               0.008161255              -0.000330702              -0.000471754               0.002877642               0.002405888               0.000000000               0.000000000               0.000000000               0.000000000               0.001416729               0.007257063              -0.000014949              -0.000375859               0.002544283               0.002168424               0.000000000               0.000000000               0.000000000               0.000000000               0.001290000               0.006704417               0.000127191              -0.000354301               0.002352884               0.001998582               0.000000000               0.000000000               0.000000000               0.000000000               0.001143470               0.006341592               0.000187095              -0.000363897               0.002235142               0.001871245               0.000000000               0.000000000               0.000000000               0.000000000               0.001002759               0.006088542               0.000209259              -0.000385032               0.002157838               0.001772806               0.000000000               0.000000000               0.000000000               0.000000000               0.000870187               0.005906381               0.000216051              -0.000411977               0.002106100               0.001694123               0.000000000               0.000000000               0.000000000               0.000000000               0.000739220               0.005769924               0.000213948              -0.000444032               0.002071299               0.001627268               0.000000000               0.000000000               0.000000000               0.000000000               0.000614406               0.005662253               0.000205415              -0.000477378               0.002046525               0.001569147               0.000000000               0.000000000               0.000000000               0.000000000               0.000499295               0.005575155               0.000194596              -0.000509658               0.002028252               0.001518595               0.000000000               0.000000000               0.000000000               0.000000000               0.000390971               0.005499347               0.000183938              -0.000540803               0.002013365               0.001472562               0.000000000               0.000000000               0.000000000               0.000000000               0.000291658               0.005429304               0.000170857              -0.000569290               0.001999513               0.001430223               0.000000000               0.000000000               0.000000000               0.000000000               0.000202884               0.005360706               0.000149863              -0.000594006               0.001984886               0.001390881               0.000000000               0.000000000               0.000000000               0.000000000               0.000126257               0.005289857               0.000116422              -0.000613884               0.001967896               0.001354012               0.000000000               0.000000000               0.000000000               0.000000000               0.000061736               0.005217970               0.000066059              -0.000629094               0.001949004               0.001319910               0.000000000               0.000000000               0.000000000               0.000000000               0.000027806               0.005171467               0.000038538              -0.000636004               0.001935806               0.001299802               0.000000000               0.000000000               0.000000000               0.000000000               0.001551600               0.010857812              -0.002389548              -0.000775376               0.003877693               0.003102317               0.000000000               0.000000000               0.000000000               0.000000000               0.001212696               0.009090730              -0.001438103              -0.000681579               0.003257406               0.002575826               0.000000000               0.000000000               0.000000000               0.000000000               0.001218831               0.007811702              -0.000482589              -0.000519400               0.002777008               0.002257608               0.000000000               0.000000000               0.000000000               0.000000000               0.001093298               0.007073615              -0.000075160              -0.000474214               0.002515919               0.002041705               0.000000000               0.000000000               0.000000000               0.000000000               0.000954225               0.006598418               0.000103894              -0.000466967               0.002355106               0.001888140               0.000000000               0.000000000               0.000000000               0.000000000               0.000822776               0.006268264               0.000179372              -0.000474991               0.002247731               0.001772740               0.000000000               0.000000000               0.000000000               0.000000000               0.000704680               0.006032686               0.000207176              -0.000489829               0.002174152               0.001684322               0.000000000               0.000000000               0.000000000               0.000000000               0.000598723               0.005860187               0.000218167              -0.000508001               0.002122710               0.001614709               0.000000000               0.000000000               0.000000000               0.000000000               0.000497270               0.005725965               0.000219557              -0.000529268               0.002085058               0.001555790               0.000000000               0.000000000               0.000000000               0.000000000               0.000402406               0.005616821               0.000213116              -0.000551199               0.002055988               0.001504789               0.000000000               0.000000000               0.000000000               0.000000000               0.000316184               0.005525287               0.000203805              -0.000572091               0.002032441               0.001460350               0.000000000               0.000000000               0.000000000               0.000000000               0.000236530               0.005443940               0.000194330              -0.000591792               0.002011893               0.001420100               0.000000000               0.000000000               0.000000000               0.000000000               0.000168462               0.005371405               0.000181168              -0.000608251               0.001993201               0.001384950               0.000000000               0.000000000               0.000000000               0.000000000               0.000114596               0.005304259               0.000156693              -0.000620057               0.001974754               0.001354697               0.000000000               0.000000000               0.000000000               0.000000000               0.000069192               0.005241032               0.000119445              -0.000629180               0.001956720               0.001327540               0.000000000               0.000000000               0.000000000               0.000000000               0.000031108               0.005189113               0.000067478              -0.000636972               0.001942011               0.001305039               0.000000000               0.000000000               0.000000000               0.000000000               0.000013218               0.005164532               0.000038317              -0.000640608               0.001935030               0.001294421               0.000000000               0.000000000               0.000000000               0.000000000               0.001734222               0.009591895              -0.002775975              -0.000548655               0.003380151               0.002831496               0.000000000               0.000000000               0.000000000               0.000000000               0.001164763               0.008249543              -0.001697831              -0.000594406               0.002947955               0.002353549               0.000000000               0.000000000               0.000000000               0.000000000               0.000920318               0.007380264              -0.000622627              -0.000577413               0.002652534               0.002075122               0.000000000               0.000000000               0.000000000               0.000000000               0.000724105               0.006825746              -0.000180969              -0.000581677               0.002469118               0.001887441               0.000000000               0.000000000               0.000000000               0.000000000               0.000585930               0.006439230               0.000008130              -0.000585179               0.002341448               0.001756270               0.000000000               0.000000000               0.000000000               0.000000000               0.000482168               0.006152961               0.000091999              -0.000588306               0.002247068               0.001658763               0.000000000               0.000000000               0.000000000               0.000000000               0.000399839               0.005943073               0.000130760              -0.000592943               0.002178652               0.001585709               0.000000000               0.000000000               0.000000000               0.000000000               0.000333356               0.005782808               0.000150594              -0.000597841               0.002126864               0.001529023               0.000000000               0.000000000               0.000000000               0.000000000               0.000268187               0.005648930               0.000160662              -0.000605544               0.002084806               0.001479261               0.000000000               0.000000000               0.000000000               0.000000000               0.000207326               0.005537358               0.000162710              -0.000614421               0.002050574               0.001436154               0.000000000               0.000000000               0.000000000               0.000000000               0.000156865               0.005443963               0.000159664              -0.000621670               0.002021859               0.001400190               0.000000000               0.000000000               0.000000000               0.000000000               0.000114035               0.005363296               0.000154323              -0.000627647               0.001996963               0.001369316               0.000000000               0.000000000               0.000000000               0.000000000               0.000080437               0.005289896               0.000143781              -0.000631071               0.001973638               0.001342567               0.000000000               0.000000000               0.000000000               0.000000000               0.000056520               0.005222769               0.000121027              -0.000631649               0.001951456               0.001319806               0.000000000               0.000000000               0.000000000               0.000000000               0.000035140               0.005165873               0.000088448              -0.000632555               0.001932792               0.001300237               0.000000000               0.000000000               0.000000000               0.000000000               0.000016424               0.005126262               0.000048133              -0.000634622               0.001920278               0.001285655               0.000000000               0.000000000               0.000000000               0.000000000               0.000008754               0.005112327               0.000025968              -0.000635756               0.001916011               0.001280254               0.000000000               0.000000000               0.000000000               0.000000000               0.001830701               0.008212153              -0.002920894              -0.000340008               0.002850692               0.002510684               0.000000000               0.000000000               0.000000000               0.000000000               0.001067749               0.007341697              -0.001840928              -0.000517307               0.002619643               0.002102336               0.000000000               0.000000000               0.000000000               0.000000000               0.000603265               0.006900242              -0.000765466              -0.000636305               0.002512159               0.001875855               0.000000000               0.000000000               0.000000000               0.000000000               0.000368139               0.006528241              -0.000332234              -0.000677977               0.002402051               0.001724074               0.000000000               0.000000000               0.000000000               0.000000000               0.000250623               0.006232111              -0.000141916              -0.000685029               0.002305692               0.001620664               0.000000000               0.000000000               0.000000000               0.000000000               0.000189768               0.006000393              -0.000047540              -0.000678885               0.002226406               0.001547521               0.000000000               0.000000000               0.000000000               0.000000000               0.000148977               0.005816917               0.000005954              -0.000671247               0.002162702               0.001491455               0.000000000               0.000000000               0.000000000               0.000000000               0.000118640               0.005664732               0.000037292              -0.000663600               0.002109425               0.001445825               0.000000000               0.000000000               0.000000000               0.000000000               0.000090330               0.005533360               0.000058947              -0.000657795               0.002063700               0.001405905               0.000000000               0.000000000               0.000000000               0.000000000               0.000064615               0.005421099               0.000073436              -0.000653405               0.002024817               0.001371411               0.000000000               0.000000000               0.000000000               0.000000000               0.000045849               0.005324191               0.000082055              -0.000648329               0.001990822               0.001342493               0.000000000               0.000000000               0.000000000               0.000000000               0.000034657               0.005238759               0.000085160              -0.000641847               0.001960184               0.001318338               0.000000000               0.000000000               0.000000000               0.000000000               0.000029856               0.005159391               0.000080065              -0.000633726               0.001931022               0.001297296               0.000000000               0.000000000               0.000000000               0.000000000               0.000025527               0.005086642               0.000065110              -0.000626256               0.001904283               0.001278026               0.000000000               0.000000000               0.000000000               0.000000000               0.000017076               0.005025228               0.000045357              -0.000621749               0.001882309               0.001260560               0.000000000               0.000000000               0.000000000               0.000000000               0.000009720               0.004979702               0.000023000              -0.000618816               0.001866156               0.001247340               0.000000000               0.000000000               0.000000000               0.000000000               0.000004337               0.004955869               0.000012742              -0.000617856               0.001857892               0.001240036               0.000000000               0.000000000               0.000000000               0.000000000               0.001807166               0.006819323              -0.002855929              -0.000174731               0.002331328               0.002156597               0.000000000               0.000000000               0.000000000               0.000000000               0.000923338               0.006437168              -0.001889616              -0.000458395               0.002298499               0.001840104               0.000000000               0.000000000               0.000000000               0.000000000               0.000303401               0.006411229              -0.000912787              -0.000687627               0.002366264               0.001678637               0.000000000               0.000000000               0.000000000               0.000000000               0.000073955               0.006209224              -0.000508872              -0.000748418               0.002319193               0.001570775               0.000000000               0.000000000               0.000000000               0.000000000              -0.000001690               0.005998051              -0.000316163              -0.000750388               0.002249460               0.001499071               0.000000000               0.000000000               0.000000000               0.000000000              -0.000021114               0.005810836              -0.000209271              -0.000734271               0.002181683               0.001447412               0.000000000               0.000000000               0.000000000               0.000000000              -0.000026197               0.005647642              -0.000140738              -0.000715777               0.002121121               0.001405344               0.000000000               0.000000000               0.000000000               0.000000000              -0.000024046               0.005508087              -0.000094991              -0.000697526               0.002068519               0.001370993               0.000000000               0.000000000               0.000000000               0.000000000              -0.000020776               0.005382777              -0.000057904              -0.000680636               0.002021120               0.001340483               0.000000000               0.000000000               0.000000000               0.000000000              -0.000018796               0.005269412              -0.000025549              -0.000665723               0.001978361               0.001312638               0.000000000               0.000000000               0.000000000               0.000000000              -0.000015020               0.005168615              -0.000001792              -0.000651708               0.001940090               0.001288383               0.000000000               0.000000000               0.000000000               0.000000000              -0.000007610               0.005073632               0.000014207              -0.000637056               0.001903546               0.001266490               0.000000000               0.000000000               0.000000000               0.000000000              -0.000000631               0.004982435               0.000021377              -0.000623039               0.001868475               0.001245436               0.000000000               0.000000000               0.000000000               0.000000000               0.000001477               0.004899140               0.000020493              -0.000611837               0.001836976               0.001225139               0.000000000               0.000000000               0.000000000               0.000000000               0.000000631               0.004827831               0.000018012              -0.000603241               0.001810341               0.001207100               0.000000000               0.000000000               0.000000000               0.000000000              -0.000000553               0.004766751               0.000012004              -0.000596050               0.001787584               0.001191535               0.000000000               0.000000000               0.000000000               0.000000000              -0.000007086               0.004727178               0.000010819              -0.000593553               0.001773561               0.001180008               0.000000000               0.000000000               0.000000000               0.000000000               0.001668680               0.005503217              -0.002619690              -0.000062150               0.001855103               0.001792953               0.000000000               0.000000000               0.000000000               0.000000000               0.000746334               0.005594273              -0.001862834              -0.000419410               0.002004542               0.001585132               0.000000000               0.000000000               0.000000000               0.000000000               0.000054643               0.005934128              -0.001062394              -0.000721274               0.002218447               0.001497174               0.000000000               0.000000000               0.000000000               0.000000000              -0.000133843               0.005873815              -0.000693300              -0.000784416               0.002219391               0.001434974               0.000000000               0.000000000               0.000000000               0.000000000              -0.000159107               0.005732489              -0.000493476              -0.000776225               0.002169552               0.001393327               0.000000000               0.000000000               0.000000000               0.000000000              -0.000141645               0.005583558              -0.000370361              -0.000751060               0.002111520               0.001360461               0.000000000               0.000000000               0.000000000               0.000000000              -0.000117521               0.005447876              -0.000281844              -0.000725053               0.002057625               0.001332572               0.000000000               0.000000000               0.000000000               0.000000000              -0.000093188               0.005323304              -0.000215290              -0.000700357               0.002007869               0.001307512               0.000000000               0.000000000               0.000000000               0.000000000              -0.000072747               0.005204610              -0.000159533              -0.000677855               0.001960804               0.001282949               0.000000000               0.000000000               0.000000000               0.000000000              -0.000054950               0.005093563              -0.000107653              -0.000657300               0.001916937               0.001259638               0.000000000               0.000000000               0.000000000               0.000000000              -0.000039750               0.004985908              -0.000065558              -0.000638143               0.001874667               0.001236524               0.000000000               0.000000000               0.000000000               0.000000000              -0.000027656               0.004878716              -0.000035618              -0.000620209               0.001832959               0.001212750               0.000000000               0.000000000               0.000000000               0.000000000              -0.000021675               0.004775416              -0.000014637              -0.000605053               0.001793474               0.001188420               0.000000000               0.000000000               0.000000000               0.000000000              -0.000020227               0.004681870               0.000000115              -0.000592817               0.001758214               0.001165396               0.000000000               0.000000000               0.000000000               0.000000000              -0.000019959               0.004599483               0.000010320              -0.000582419               0.001727285               0.001144867               0.000000000               0.000000000               0.000000000               0.000000000              -0.000014775               0.004526265               0.000011490              -0.000571322               0.001699181               0.001127859               0.000000000               0.000000000               0.000000000               0.000000000              -0.000014863               0.004480165               0.000012817              -0.000565593               0.001681904               0.001116311               0.000000000               0.000000000               0.000000000               0.000000000               0.001460098               0.004368093              -0.002275558               0.000001522               0.001455508               0.001457030               0.000000000               0.000000000               0.000000000               0.000000000               0.000588469               0.004845259              -0.001800109              -0.000384982               0.001743397               0.001358415               0.000000000               0.000000000               0.000000000               0.000000000              -0.000102359               0.005488320              -0.001233686              -0.000724424               0.002070896               0.001346473               0.000000000               0.000000000               0.000000000               0.000000000              -0.000245878               0.005566007              -0.000894984              -0.000787954               0.002117968               0.001330015               0.000000000               0.000000000               0.000000000               0.000000000              -0.000237268               0.005495170              -0.000678368              -0.000775870               0.002090328               0.001314458               0.000000000               0.000000000               0.000000000               0.000000000              -0.000192885               0.005393982              -0.000530350              -0.000746578               0.002046835               0.001300257               0.000000000               0.000000000               0.000000000               0.000000000              -0.000149973               0.005293664              -0.000419543              -0.000717946               0.002003853               0.001285906               0.000000000               0.000000000               0.000000000               0.000000000              -0.000111282               0.005185908              -0.000331598              -0.000689968               0.001958608               0.001268640               0.000000000               0.000000000               0.000000000               0.000000000              -0.000080722               0.005078558              -0.000256338              -0.000665089               0.001914532               0.001249443               0.000000000               0.000000000               0.000000000               0.000000000              -0.000056740               0.004971967              -0.000189578              -0.000642772               0.001871563               0.001228791               0.000000000               0.000000000               0.000000000               0.000000000              -0.000039439               0.004855013              -0.000132716              -0.000621665               0.001825543               0.001203878               0.000000000               0.000000000               0.000000000               0.000000000              -0.000030726               0.004733420              -0.000086044              -0.000603198               0.001778857               0.001175659               0.000000000               0.000000000               0.000000000               0.000000000              -0.000033025               0.004617222              -0.000048403              -0.000589536               0.001735571               0.001146035               0.000000000               0.000000000               0.000000000               0.000000000              -0.000042655               0.004512211              -0.000018940              -0.000580021               0.001697395               0.001117375               0.000000000               0.000000000               0.000000000               0.000000000              -0.000053578               0.004417578               0.000000057              -0.000572287               0.001663274               0.001090986               0.000000000               0.000000000               0.000000000               0.000000000              -0.000058272               0.004328951               0.000006138              -0.000562969               0.001630626               0.001067656               0.000000000               0.000000000               0.000000000               0.000000000              -0.000054807               0.004281969               0.000006562              -0.000555798               0.001612575               0.001056777               0.000000000               0.000000000               0.000000000               0.000000000               0.001170856               0.003295181              -0.001885884               0.000027170               0.001089325               0.001116495               0.000000000               0.000000000               0.000000000               0.000000000               0.000480368               0.003990489              -0.001720049              -0.000318674               0.001436374               0.001117699               0.000000000               0.000000000               0.000000000               0.000000000              -0.000140297               0.004848287              -0.001426842              -0.000658646               0.001835628               0.001176981               0.000000000               0.000000000               0.000000000               0.000000000              -0.000269248               0.005102212              -0.001131464              -0.000738743               0.001946968               0.001208225               0.000000000               0.000000000               0.000000000               0.000000000              -0.000256936               0.005147252              -0.000899889              -0.000739756               0.001962319               0.001222563               0.000000000               0.000000000               0.000000000               0.000000000              -0.000208555               0.005128872              -0.000722762              -0.000719316               0.001949379               0.001230063               0.000000000               0.000000000               0.000000000               0.000000000              -0.000161214               0.005086307              -0.000586093              -0.000696242               0.001927500               0.001231257               0.000000000               0.000000000               0.000000000               0.000000000              -0.000121286               0.005021148              -0.000476772              -0.000673124               0.001898074               0.001224950               0.000000000               0.000000000               0.000000000               0.000000000              -0.000088947               0.004942294              -0.000384296              -0.000651140               0.001864462               0.001213321               0.000000000               0.000000000               0.000000000               0.000000000              -0.000065816               0.004851928              -0.000304016              -0.000631170               0.001827683               0.001196513               0.000000000               0.000000000               0.000000000               0.000000000              -0.000049587               0.004750614              -0.000231769              -0.000612420               0.001787662               0.001175242               0.000000000               0.000000000               0.000000000               0.000000000              -0.000043048               0.004639226              -0.000165766              -0.000596045               0.001745075               0.001149030               0.000000000               0.000000000               0.000000000               0.000000000              -0.000048685               0.004527134              -0.000106665              -0.000584147               0.001703745               0.001119598               0.000000000               0.000000000               0.000000000               0.000000000              -0.000065514               0.004425523              -0.000057240              -0.000577757               0.001667745               0.001089988               0.000000000               0.000000000               0.000000000               0.000000000              -0.000090483               0.004330654              -0.000023546              -0.000575261               0.001635291               0.001060029               0.000000000               0.000000000               0.000000000               0.000000000              -0.000118314               0.004239617              -0.000005680              -0.000574318               0.001604631               0.001030313               0.000000000               0.000000000               0.000000000               0.000000000              -0.000129557               0.004195730              -0.000000042              -0.000573049               0.001589579               0.001016530               0.000000000               0.000000000               0.000000000               0.000000000               0.000740574               0.002314815              -0.001467036              -0.000011639               0.000775476               0.000763837               0.000000000               0.000000000               0.000000000               0.000000000               0.000351175               0.003144335              -0.001589061              -0.000261352               0.001135218               0.000873866               0.000000000               0.000000000               0.000000000               0.000000000              -0.000113733               0.004130993              -0.001570296              -0.000559024               0.001563324               0.001004301               0.000000000               0.000000000               0.000000000               0.000000000              -0.000228419               0.004548138              -0.001354944              -0.000654174               0.001734088               0.001079915               0.000000000               0.000000000               0.000000000               0.000000000              -0.000224488               0.004729018              -0.001129874              -0.000675309               0.001801426               0.001126117               0.000000000               0.000000000               0.000000000               0.000000000              -0.000185168               0.004807927              -0.000935019              -0.000670428               0.001826102               0.001155674               0.000000000               0.000000000               0.000000000               0.000000000              -0.000142698               0.004837521              -0.000777359              -0.000658200               0.001831891               0.001173691               0.000000000               0.000000000               0.000000000               0.000000000              -0.000107097               0.004832551              -0.000648740              -0.000644229               0.001825577               0.001181348               0.000000000               0.000000000               0.000000000               0.000000000              -0.000075551               0.004794853              -0.000542476              -0.000627687               0.001807497               0.001179811               0.000000000               0.000000000               0.000000000               0.000000000              -0.000052692               0.004734073              -0.000452178              -0.000611517               0.001781847               0.001170330               0.000000000               0.000000000               0.000000000               0.000000000              -0.000036119               0.004661707              -0.000369421              -0.000596257               0.001752639               0.001156382               0.000000000               0.000000000               0.000000000               0.000000000              -0.000027961               0.004575546              -0.000289018              -0.000582427               0.001719309               0.001136882               0.000000000               0.000000000               0.000000000               0.000000000              -0.000033647               0.004482026              -0.000211042              -0.000572870               0.001684950               0.001112081               0.000000000               0.000000000               0.000000000               0.000000000              -0.000053992               0.004392310              -0.000139266              -0.000569284               0.001653850               0.001084566               0.000000000               0.000000000               0.000000000               0.000000000              -0.000094743               0.004306081              -0.000077722              -0.000573787               0.001626608               0.001052821               0.000000000               0.000000000               0.000000000               0.000000000              -0.000153839               0.004226156              -0.000031458              -0.000585958               0.001604024               0.001018066               0.000000000               0.000000000               0.000000000               0.000000000              -0.000198042               0.004180110              -0.000007734              -0.000596778               0.001592282               0.000995504               0.000000000               0.000000000               0.000000000               0.000000000               0.000187444               0.001479462              -0.001042397              -0.000114642               0.000531363               0.000416720               0.000000000               0.000000000               0.000000000               0.000000000               0.000158383               0.002342139              -0.001389292              -0.000233375               0.000858496               0.000625121               0.000000000               0.000000000               0.000000000               0.000000000              -0.000060900               0.003338569              -0.001598295              -0.000440159               0.001259564               0.000819405               0.000000000               0.000000000               0.000000000               0.000000000              -0.000119543               0.003875518              -0.001481928              -0.000529268               0.001468249               0.000938981               0.000000000               0.000000000               0.000000000               0.000000000              -0.000116339               0.004180158              -0.001293074              -0.000566146               0.001582087               0.001015941               0.000000000               0.000000000               0.000000000               0.000000000              -0.000089766               0.004363011              -0.001104013              -0.000579038               0.001647335               0.001068297               0.000000000               0.000000000               0.000000000               0.000000000              -0.000061007               0.004479529              -0.000937828              -0.000582818               0.001687434               0.001104616               0.000000000               0.000000000               0.000000000               0.000000000              -0.000037969               0.004545254              -0.000800834              -0.000582394               0.001709201               0.001126807               0.000000000               0.000000000               0.000000000               0.000000000              -0.000015304               0.004566309              -0.000687334              -0.000576527               0.001714263               0.001137737               0.000000000               0.000000000               0.000000000               0.000000000               0.000003190               0.004552840              -0.000590483              -0.000567908               0.001706901               0.001138993               0.000000000               0.000000000               0.000000000               0.000000000               0.000015711               0.004518965              -0.000503306              -0.000558978               0.001692633               0.001133655               0.000000000               0.000000000               0.000000000               0.000000000               0.000024213               0.004473270              -0.000415886              -0.000550078               0.001674434               0.001124357               0.000000000               0.000000000               0.000000000               0.000000000               0.000021743               0.004416128              -0.000327150              -0.000543861               0.001653315               0.001109454               0.000000000               0.000000000               0.000000000               0.000000000               0.000002307               0.004352517              -0.000237850              -0.000543198               0.001631890               0.001088692               0.000000000               0.000000000               0.000000000               0.000000000              -0.000041266               0.004285739              -0.000150498              -0.000551191               0.001612296               0.001061105               0.000000000               0.000000000               0.000000000               0.000000000              -0.000115361               0.004218105              -0.000070895              -0.000570522               0.001596195               0.001025673               0.000000000               0.000000000               0.000000000               0.000000000              -0.000181490               0.004171150              -0.000025611              -0.000589451               0.001586853               0.000997402               0.000000000               0.000000000               0.000000000               0.000000000              -0.000434254               0.000819745              -0.000656535              -0.000265313               0.000361683               0.000096369               0.000000000               0.000000000               0.000000000               0.000000000              -0.000075062               0.001616601              -0.001138724              -0.000230224               0.000615602               0.000385378               0.000000000               0.000000000               0.000000000               0.000000000               0.000004148               0.002529497              -0.001499058              -0.000314632               0.000948034               0.000633401               0.000000000               0.000000000               0.000000000               0.000000000               0.000037348               0.003132005              -0.001473408              -0.000377495               0.001169822               0.000792327               0.000000000               0.000000000               0.000000000               0.000000000               0.000057833               0.003537457              -0.001335276              -0.000420495               0.001319305               0.000898810               0.000000000               0.000000000               0.000000000               0.000000000               0.000075721               0.003819519              -0.001173429              -0.000449044               0.001422841               0.000973797               0.000000000               0.000000000               0.000000000               0.000000000               0.000090362               0.004022211              -0.001019807              -0.000468890               0.001497020               0.001028130               0.000000000               0.000000000               0.000000000               0.000000000               0.000099577               0.004164763              -0.000889630              -0.000483253               0.001549325               0.001066071               0.000000000               0.000000000               0.000000000               0.000000000               0.000108267               0.004256678              -0.000780836              -0.000491484               0.001582706               0.001091222               0.000000000               0.000000000               0.000000000               0.000000000               0.000117019               0.004305375              -0.000685237              -0.000494289               0.001599874               0.001105585               0.000000000               0.000000000               0.000000000               0.000000000               0.000120654               0.004323758              -0.000599121              -0.000495223               0.001606313               0.001111089               0.000000000               0.000000000               0.000000000               0.000000000               0.000124717               0.004329036              -0.000513363              -0.000494359               0.001607784               0.001113425               0.000000000               0.000000000               0.000000000               0.000000000               0.000126220               0.004316472              -0.000422590              -0.000492225               0.001602885               0.001110659               0.000000000               0.000000000               0.000000000               0.000000000               0.000117400               0.004288616              -0.000326093              -0.000492051               0.001593541               0.001101490               0.000000000               0.000000000               0.000000000               0.000000000               0.000090363               0.004251112              -0.000222372              -0.000497502               0.001582857               0.001085355               0.000000000               0.000000000               0.000000000               0.000000000               0.000030672               0.004204540              -0.000113170              -0.000514064               0.001572854               0.001058790               0.000000000               0.000000000               0.000000000               0.000000000              -0.000030078               0.004167637              -0.000050924              -0.000532232               0.001566609               0.001034377               0.000000000               0.000000000               0.000000000               0.000000000              -0.001049231               0.000347307              -0.000351998              -0.000436875               0.000261392              -0.000175483               0.000000000               0.000000000               0.000000000               0.000000000              -0.000321316               0.001011936              -0.000857197              -0.000246986               0.000419637               0.000172651               0.000000000               0.000000000               0.000000000               0.000000000               0.000065802               0.001778792              -0.001269282              -0.000197674               0.000658815               0.000461141               0.000000000               0.000000000               0.000000000               0.000000000               0.000210968               0.002397391              -0.001307809              -0.000220562               0.000872642               0.000652081               0.000000000               0.000000000               0.000000000               0.000000000               0.000264950               0.002874043              -0.001221322              -0.000259900               0.001044637               0.000784738               0.000000000               0.000000000               0.000000000               0.000000000               0.000285548               0.003235235              -0.001097779              -0.000297324               0.001177509               0.000880185               0.000000000               0.000000000               0.000000000               0.000000000               0.000291938               0.003512073              -0.000972260              -0.000329532               0.001280523               0.000950991               0.000000000               0.000000000               0.000000000               0.000000000               0.000291842               0.003727522              -0.000863735              -0.000356499               0.001361328               0.001004829               0.000000000               0.000000000               0.000000000               0.000000000               0.000287735               0.003890585              -0.000772020              -0.000378422               0.001422989               0.001044567               0.000000000               0.000000000               0.000000000               0.000000000               0.000284027               0.004006861              -0.000687461              -0.000394347               0.001467056               0.001072709               0.000000000               0.000000000               0.000000000               0.000000000               0.000278930               0.004084282              -0.000609832              -0.000405936               0.001496726               0.001090790               0.000000000               0.000000000               0.000000000               0.000000000               0.000276611               0.004140080              -0.000534717              -0.000413780               0.001517939               0.001104159               0.000000000               0.000000000               0.000000000               0.000000000               0.000279184               0.004175367              -0.000454521              -0.000417226               0.001530850               0.001113624               0.000000000               0.000000000               0.000000000               0.000000000               0.000283465               0.004192303              -0.000365380              -0.000417737               0.001536666               0.001118929               0.000000000               0.000000000               0.000000000               0.000000000               0.000283040               0.004193154              -0.000261588              -0.000418003               0.001537038               0.001119035               0.000000000               0.000000000               0.000000000               0.000000000               0.000267818               0.004178229              -0.000140347              -0.000421846               0.001533344               0.001111499               0.000000000               0.000000000               0.000000000               0.000000000               0.000243826               0.004160764              -0.000071985              -0.000428660               0.001529794               0.001101134               0.000000000               0.000000000               0.000000000               0.000000000              -0.001574683               0.000048132              -0.000149557              -0.000596522               0.000214883              -0.000381639               0.000000000               0.000000000               0.000000000               0.000000000              -0.000547187               0.000564071              -0.000564445              -0.000275704               0.000279922               0.000004218               0.000000000               0.000000000               0.000000000               0.000000000               0.000110702               0.001171800              -0.000921445              -0.000104963               0.000425583               0.000320620               0.000000000               0.000000000               0.000000000               0.000000000               0.000367909               0.001771941              -0.000985688              -0.000083528               0.000618483               0.000534956               0.000000000               0.000000000               0.000000000               0.000000000               0.000463282               0.002282464              -0.000941984              -0.000111578               0.000798006               0.000686428               0.000000000               0.000000000               0.000000000               0.000000000               0.000493893               0.002695876              -0.000859967              -0.000151775               0.000949208               0.000797433               0.000000000               0.000000000               0.000000000               0.000000000               0.000498682               0.003030097              -0.000771429              -0.000191756               0.001073941               0.000882185               0.000000000               0.000000000               0.000000000               0.000000000               0.000491818               0.003301508              -0.000692236              -0.000228256               0.001176577               0.000948320               0.000000000               0.000000000               0.000000000               0.000000000               0.000476933               0.003522535              -0.000624681              -0.000261467               0.001261322               0.000999855               0.000000000               0.000000000               0.000000000               0.000000000               0.000462290               0.003698289              -0.000562180              -0.000288927               0.001329060               0.001040133               0.000000000               0.000000000               0.000000000               0.000000000               0.000450677               0.003831874              -0.000503253              -0.000309980               0.001380605               0.001070625               0.000000000               0.000000000               0.000000000               0.000000000               0.000444311               0.003938259              -0.000446704              -0.000325665               0.001421295               0.001095630               0.000000000               0.000000000               0.000000000               0.000000000               0.000446788               0.004023142              -0.000385822              -0.000335346               0.001452816               0.001117470               0.000000000               0.000000000               0.000000000               0.000000000               0.000461765               0.004087726              -0.000316298              -0.000337803               0.001475163               0.001137359               0.000000000               0.000000000               0.000000000               0.000000000               0.000491672               0.004131853              -0.000234125              -0.000332104               0.001487972               0.001155868               0.000000000               0.000000000               0.000000000               0.000000000               0.000535461               0.004152498              -0.000129743              -0.000318263               0.001490240               0.001171976               0.000000000               0.000000000               0.000000000               0.000000000               0.000570096               0.004158818              -0.000070717              -0.000306066               0.001488281               0.001182215               0.000000000               0.000000000               0.000000000               0.000000000              -0.001928297              -0.000104277              -0.000042618              -0.000710076               0.000201932              -0.000508145               0.000000000               0.000000000               0.000000000               0.000000000              -0.000710980               0.000297395              -0.000275914              -0.000303792               0.000200394              -0.000103397               0.000000000               0.000000000               0.000000000               0.000000000               0.000134413               0.000781190              -0.000484111              -0.000047244               0.000276142               0.000228898               0.000000000               0.000000000               0.000000000               0.000000000               0.000476940               0.001347554              -0.000531391               0.000010408               0.000445711               0.000456118               0.000000000               0.000000000               0.000000000               0.000000000               0.000609565               0.001866544              -0.000515241              -0.000004732               0.000623752               0.000619020               0.000000000               0.000000000               0.000000000               0.000000000               0.000651446               0.002308482              -0.000475152              -0.000044268               0.000784242               0.000739974               0.000000000               0.000000000               0.000000000               0.000000000               0.000655702               0.002675803              -0.000429086              -0.000088587               0.000921455               0.000832867               0.000000000               0.000000000               0.000000000               0.000000000               0.000642952               0.002983158              -0.000386519              -0.000131788               0.001038305               0.000906518               0.000000000               0.000000000               0.000000000               0.000000000               0.000622020               0.003245732              -0.000350837              -0.000172459               0.001139386               0.000966927               0.000000000               0.000000000               0.000000000               0.000000000               0.000596914               0.003463046              -0.000317811              -0.000209038               0.001224016               0.001014979               0.000000000               0.000000000               0.000000000               0.000000000               0.000576010               0.003639759              -0.000285317              -0.000238965               0.001292896               0.001053930               0.000000000               0.000000000               0.000000000               0.000000000               0.000564572               0.003783386              -0.000253381              -0.000261208               0.001348185               0.001086977               0.000000000               0.000000000               0.000000000               0.000000000               0.000568718               0.003900553              -0.000219471              -0.000274299               0.001391604               0.001117305               0.000000000               0.000000000               0.000000000               0.000000000               0.000597360               0.004000433              -0.000180856              -0.000276043               0.001425479               0.001149435               0.000000000               0.000000000               0.000000000               0.000000000               0.000655714               0.004079436              -0.000135258              -0.000264036               0.001447810               0.001183774               0.000000000               0.000000000               0.000000000               0.000000000               0.000747658               0.004127964              -0.000075590              -0.000235623               0.001454516               0.001218892               0.000000000               0.000000000               0.000000000               0.000000000               0.000832021               0.004153392              -0.000042391              -0.000207166               0.001453505               0.001246340               0.000000000               0.000000000               0.000000000               0.000000000               0.000000000               0.000000000               0.000000000               0.000000000               0.000000000               0.000000000               0.000000000               0.000000000               0.000000000               0.000000000               0.000000000               0.000000000               0.000000000               0.000000000               0.000000000               0.000000000               0.000000000               0.000000000               0.000000000               0.000000000               0.000000000               0.000000000               0.000000000               0.000000000               0.000000000               0.000000000               0.000000000               0.000000000               0.000000000               0.000000000               0.000000000               0.000000000               0.000000000               0.000000000               0.000000000               0.000000000               0.000000000               0.000000000               0.000000000               0.000000000               0.000000000               0.000000000               0.000000000               0.000000000               0.000000000               0.000000000               0.000000000               0.000000000               0.000000000               0.000000000               0.000000000               0.000000000               0.000000000               0.000000000               0.000000000               0.000000000               0.000000000               0.000000000               0.000000000               0.000000000               0.000000000               0.000000000               0.000000000               0.000000000               0.000000000               0.000000000               0.000000000               0.000000000               0.000000000               0.000000000               0.000000000               0.000000000               0.000000000               0.000000000               0.000000000               0.000000000               0.000000000               0.000000000               0.000000000               0.000000000               0.000000000               0.000000000               0.000000000               0.000000000               0.000000000               0.000000000               0.000000000               0.000000000               0.000000000               0.000000000               0.000000000               0.000000000               0.000000000               0.000000000               0.000000000               0.000000000               0.000000000               0.000000000               0.000000000               0.000000000               0.000000000               0.000000000               0.000000000               0.000000000               0.000000000               0.000000000               0.000000000               0.000000000               0.000000000               0.000000000               0.000000000               0.000000000               0.000000000               0.000000000               0.000000000               0.000000000               0.000000000               0.000000000               0.000000000               0.000000000               0.000000000               0.000000000               0.000000000               0.000000000               0.000000000               0.000000000               0.000000000               0.000000000               0.000000000               0.000000000               0.000000000               0.000000000               0.000000000               0.000000000               0.000000000               0.000000000               0.000000000               0.000000000               0.000000000               0.000000000               0.000000000               0.000000000               0.000000000               0.000000000               0.000000000               0.000000000               0.000000000               0.000000000               0.000000000               0.000000000               0.000000000               0.000000000               0.000000000               0.000000000               0.000000000               0.000000000               0.000000000               0.000000000               0.000000000               0.000000000               0.000000000               0.000000000               0.000000000               0.000000000               0.000000000               0.000000000               0.000000000               0.000000000               0.000000000               0.000000000               0.000000000               0.000000000               0.000000000               0.000000000               0.000000000               0.000000000               0.000000000               0.000000000               0.000000000               0.000000000               0.000000000               0.000000000               0.000000000               0.000000000               0.000000000               0.000000000               0.000000000               0.000000000               0.000000000               0.000000000               0.000000000               0.000000000               0.000000000               0.000000000               0.000000000               0.000000000               0.000000000               0.000000000               0.000000000               0.000000000               0.000000000               0.000000000               0.000000000               0.000000000               0.000000000               0.000000000               0.000000000               0.000000000               0.000000000               0.000000000               0.000000000               0.000000000               0.000000000               0.000000000               0.000000000               0.000000000               0.000000000               0.000000000               0.000000000               0.000000000               0.000000000               0.000000000               0.000000000               0.000000000               0.000000000               0.000000000               0.000000000               0.000000000               0.000000000               0.000000000               0.000000000               0.000000000               0.000000000               0.000000000               0.000000000               0.000000000               0.000000000               0.000000000               0.000000000               0.000000000               0.000000000               0.000000000               0.000000000               0.000000000               0.000000000               0.000000000               0.000000000               0.000000000               0.000000000               0.000000000               0.000000000               0.000000000               0.000000000               0.000000000               0.000000000               0.000000000               0.000000000               0.000000000               0.000000000               0.000000000               0.000000000               0.000000000               0.000000000               0.000000000               0.000000000               0.000000000               0.000000000               0.000000000               0.000000000               0.000000000               0.000000000               0.000000000               0.000000000               0.000000000               0.000000000               0.000000000               0.000000000               0.000000000               0.000000000               0.000000000               0.000000000               0.000000000               0.000000000               0.000000000               0.000000000               0.000000000               0.000000000               0.000000000               0.000000000               0.000000000               0.000000000               0.000000000               0.000000000               0.000000000               0.000000000               0.000000000               0.000000000               0.000000000               0.000000000               0.000000000               0.000000000               0.000000000               0.000000000               0.000000000               0.000000000               0.000000000               0.000000000               0.000000000               0.000000000               0.000000000               0.000000000               0.000000000               0.000000000               0.000000000               0.000000000               0.000000000               0.000000000               0.000000000               0.000000000               0.000000000               0.000000000               0.000000000               0.000000000               0.000000000               0.000000000               0.000000000               0.000000000               0.000000000               0.000000000               0.000000000               0.000000000               0.000000000               0.000000000               0.000000000               0.000000000               0.000000000               0.000000000               0.000000000               0.000000000               0.000000000               0.001198294               0.012580130               0.000928564              -0.001123153               0.004567719               0.003444566               0.000000000               0.000000000               0.000000000               0.000000000               0.001224522               0.010245839               0.000549248              -0.000821532               0.003689089               0.002867557               0.000000000               0.000000000               0.000000000               0.000000000               0.001624666               0.008392396               0.000165004              -0.000439799               0.002944037               0.002504238               0.000000000               0.000000000               0.000000000               0.000000000               0.001640667               0.007373081              -0.000007186              -0.000306384               0.002559797               0.002253413               0.000000000               0.000000000               0.000000000               0.000000000               0.001527329               0.006766973              -0.000085063              -0.000273123               0.002346676               0.002073553               0.000000000               0.000000000               0.000000000               0.000000000               0.001374294               0.006379114              -0.000117982              -0.000282028               0.002220360               0.001938331               0.000000000               0.000000000               0.000000000               0.000000000               0.001222089               0.006116793              -0.000130695              -0.000306315               0.002141016               0.001834701               0.000000000               0.000000000               0.000000000               0.000000000               0.001076047               0.005931682              -0.000134655              -0.000337942               0.002089855               0.001751913               0.000000000               0.000000000               0.000000000               0.000000000               0.000929478               0.005795367              -0.000133683              -0.000375866               0.002057058               0.001681193               0.000000000               0.000000000               0.000000000               0.000000000               0.000786413               0.005690444              -0.000127868              -0.000416400               0.002035595               0.001619196               0.000000000               0.000000000               0.000000000               0.000000000               0.000652830               0.005606987              -0.000120869              -0.000456061               0.002020997               0.001564936               0.000000000               0.000000000               0.000000000               0.000000000               0.000526279               0.005536619              -0.000115476              -0.000494722               0.002010429               0.001515707               0.000000000               0.000000000               0.000000000               0.000000000               0.000403689               0.005472568              -0.000108957              -0.000532686               0.002001733               0.001469047               0.000000000               0.000000000               0.000000000               0.000000000               0.000286936               0.005407959              -0.000097742              -0.000568392               0.001992099               0.001423707               0.000000000               0.000000000               0.000000000               0.000000000               0.000180361               0.005335524              -0.000077855              -0.000599304               0.001978258               0.001378955               0.000000000               0.000000000               0.000000000               0.000000000               0.000086879               0.005246729              -0.000045847              -0.000623260               0.001956646               0.001333385               0.000000000               0.000000000               0.000000000               0.000000000               0.000037335               0.005178625              -0.000028562              -0.000633326               0.001937300               0.001303974               0.000000000               0.000000000               0.000000000               0.000000000               0.001350106               0.011894767               0.001756905              -0.000980554               0.004291734               0.003311180               0.000000000               0.000000000               0.000000000               0.000000000               0.001225916               0.009785149               0.001047460              -0.000763424               0.003516158               0.002752734               0.000000000               0.000000000               0.000000000               0.000000000               0.001462404               0.008161255               0.000330702              -0.000471754               0.002877642               0.002405888               0.000000000               0.000000000               0.000000000               0.000000000               0.001416729               0.007257063               0.000014949              -0.000375859               0.002544283               0.002168424               0.000000000               0.000000000               0.000000000               0.000000000               0.001290000               0.006704417              -0.000127191              -0.000354301               0.002352884               0.001998582               0.000000000               0.000000000               0.000000000               0.000000000               0.001143470               0.006341592              -0.000187095              -0.000363897               0.002235142               0.001871245               0.000000000               0.000000000               0.000000000               0.000000000               0.001002759               0.006088542              -0.000209259              -0.000385032               0.002157838               0.001772806               0.000000000               0.000000000               0.000000000               0.000000000               0.000870187               0.005906381              -0.000216051              -0.000411977               0.002106100               0.001694123               0.000000000               0.000000000               0.000000000               0.000000000               0.000739220               0.005769924              -0.000213948              -0.000444032               0.002071299               0.001627268               0.000000000               0.000000000               0.000000000               0.000000000               0.000614406               0.005662253              -0.000205415              -0.000477378               0.002046525               0.001569147               0.000000000               0.000000000               0.000000000               0.000000000               0.000499295               0.005575155              -0.000194596              -0.000509658               0.002028252               0.001518595               0.000000000               0.000000000               0.000000000               0.000000000               0.000390971               0.005499347              -0.000183938              -0.000540803               0.002013365               0.001472562               0.000000000               0.000000000               0.000000000               0.000000000               0.000291658               0.005429304              -0.000170857              -0.000569290               0.001999513               0.001430223               0.000000000               0.000000000               0.000000000               0.000000000               0.000202884               0.005360706              -0.000149863              -0.000594006               0.001984886               0.001390881               0.000000000               0.000000000               0.000000000               0.000000000               0.000126257               0.005289857              -0.000116422              -0.000613884               0.001967896               0.001354012               0.000000000               0.000000000               0.000000000               0.000000000               0.000061736               0.005217970              -0.000066059              -0.000629094               0.001949004               0.001319910               0.000000000               0.000000000               0.000000000               0.000000000               0.000027806               0.005171467              -0.000038538              -0.000636004               0.001935806               0.001299802               0.000000000               0.000000000               0.000000000               0.000000000               0.001551600               0.010857812               0.002389548              -0.000775376               0.003877693               0.003102317               0.000000000               0.000000000               0.000000000               0.000000000               0.001212696               0.009090730               0.001438103              -0.000681579               0.003257406               0.002575826               0.000000000               0.000000000               0.000000000               0.000000000               0.001218831               0.007811702               0.000482589              -0.000519400               0.002777008               0.002257608               0.000000000               0.000000000               0.000000000               0.000000000               0.001093298               0.007073615               0.000075160              -0.000474214               0.002515919               0.002041705               0.000000000               0.000000000               0.000000000               0.000000000               0.000954225               0.006598418              -0.000103894              -0.000466967               0.002355106               0.001888140               0.000000000               0.000000000               0.000000000               0.000000000               0.000822776               0.006268264              -0.000179372              -0.000474991               0.002247731               0.001772740               0.000000000               0.000000000               0.000000000               0.000000000               0.000704680               0.006032686              -0.000207176              -0.000489829               0.002174152               0.001684322               0.000000000               0.000000000               0.000000000               0.000000000               0.000598723               0.005860187              -0.000218167              -0.000508001               0.002122710               0.001614709               0.000000000               0.000000000               0.000000000               0.000000000               0.000497270               0.005725965              -0.000219557              -0.000529268               0.002085058               0.001555790               0.000000000               0.000000000               0.000000000               0.000000000               0.000402406               0.005616821              -0.000213116              -0.000551199               0.002055988               0.001504789               0.000000000               0.000000000               0.000000000               0.000000000               0.000316184               0.005525287              -0.000203805              -0.000572091               0.002032441               0.001460350               0.000000000               0.000000000               0.000000000               0.000000000               0.000236530               0.005443940              -0.000194330              -0.000591792               0.002011893               0.001420100               0.000000000               0.000000000               0.000000000               0.000000000               0.000168462               0.005371405              -0.000181168              -0.000608251               0.001993201               0.001384950               0.000000000               0.000000000               0.000000000               0.000000000               0.000114596               0.005304259              -0.000156693              -0.000620057               0.001974754               0.001354697               0.000000000               0.000000000               0.000000000               0.000000000               0.000069192               0.005241032              -0.000119445              -0.000629180               0.001956720               0.001327540               0.000000000               0.000000000               0.000000000               0.000000000               0.000031108               0.005189113              -0.000067478              -0.000636972               0.001942011               0.001305039               0.000000000               0.000000000               0.000000000               0.000000000               0.000013218               0.005164532              -0.000038317              -0.000640608               0.001935030               0.001294421               0.000000000               0.000000000               0.000000000               0.000000000               0.001734222               0.009591895               0.002775975              -0.000548655               0.003380151               0.002831496               0.000000000               0.000000000               0.000000000               0.000000000               0.001164763               0.008249543               0.001697831              -0.000594406               0.002947955               0.002353549               0.000000000               0.000000000               0.000000000               0.000000000               0.000920318               0.007380264               0.000622627              -0.000577413               0.002652534               0.002075122               0.000000000               0.000000000               0.000000000               0.000000000               0.000724105               0.006825746               0.000180969              -0.000581677               0.002469118               0.001887441               0.000000000               0.000000000               0.000000000               0.000000000               0.000585930               0.006439230              -0.000008130              -0.000585179               0.002341448               0.001756270               0.000000000               0.000000000               0.000000000               0.000000000               0.000482168               0.006152961              -0.000091999              -0.000588306               0.002247068               0.001658763               0.000000000               0.000000000               0.000000000               0.000000000               0.000399839               0.005943073              -0.000130760              -0.000592943               0.002178652               0.001585709               0.000000000               0.000000000               0.000000000               0.000000000               0.000333356               0.005782808              -0.000150594              -0.000597841               0.002126864               0.001529023               0.000000000               0.000000000               0.000000000               0.000000000               0.000268187               0.005648930              -0.000160662              -0.000605544               0.002084806               0.001479261               0.000000000               0.000000000               0.000000000               0.000000000               0.000207326               0.005537358              -0.000162710              -0.000614421               0.002050574               0.001436154               0.000000000               0.000000000               0.000000000               0.000000000               0.000156865               0.005443963              -0.000159664              -0.000621670               0.002021859               0.001400190               0.000000000               0.000000000               0.000000000               0.000000000               0.000114035               0.005363296              -0.000154323              -0.000627647               0.001996963               0.001369316               0.000000000               0.000000000               0.000000000               0.000000000               0.000080437               0.005289896              -0.000143781              -0.000631071               0.001973638               0.001342567               0.000000000               0.000000000               0.000000000               0.000000000               0.000056520               0.005222769              -0.000121027              -0.000631649               0.001951456               0.001319806               0.000000000               0.000000000               0.000000000               0.000000000               0.000035140               0.005165873              -0.000088448              -0.000632555               0.001932792               0.001300237               0.000000000               0.000000000               0.000000000               0.000000000               0.000016424               0.005126262              -0.000048133              -0.000634622               0.001920278               0.001285655               0.000000000               0.000000000               0.000000000               0.000000000               0.000008754               0.005112327              -0.000025968              -0.000635756               0.001916011               0.001280254               0.000000000               0.000000000               0.000000000               0.000000000               0.001830701               0.008212153               0.002920894              -0.000340008               0.002850692               0.002510684               0.000000000               0.000000000               0.000000000               0.000000000               0.001067749               0.007341697               0.001840928              -0.000517307               0.002619643               0.002102336               0.000000000               0.000000000               0.000000000               0.000000000               0.000603265               0.006900242               0.000765466              -0.000636305               0.002512159               0.001875855               0.000000000               0.000000000               0.000000000               0.000000000               0.000368139               0.006528241               0.000332234              -0.000677977               0.002402051               0.001724074               0.000000000               0.000000000               0.000000000               0.000000000               0.000250623               0.006232111               0.000141916              -0.000685029               0.002305692               0.001620664               0.000000000               0.000000000               0.000000000               0.000000000               0.000189768               0.006000393               0.000047540              -0.000678885               0.002226406               0.001547521               0.000000000               0.000000000               0.000000000               0.000000000               0.000148977               0.005816917              -0.000005954              -0.000671247               0.002162702               0.001491455               0.000000000               0.000000000               0.000000000               0.000000000               0.000118640               0.005664732              -0.000037292              -0.000663600               0.002109425               0.001445825               0.000000000               0.000000000               0.000000000               0.000000000               0.000090330               0.005533360              -0.000058947              -0.000657795               0.002063700               0.001405905               0.000000000               0.000000000               0.000000000               0.000000000               0.000064615               0.005421099              -0.000073436              -0.000653405               0.002024817               0.001371411               0.000000000               0.000000000               0.000000000               0.000000000               0.000045849               0.005324191              -0.000082055              -0.000648329               0.001990822               0.001342493               0.000000000               0.000000000               0.000000000               0.000000000               0.000034657               0.005238759              -0.000085160              -0.000641847               0.001960184               0.001318338               0.000000000               0.000000000               0.000000000               0.000000000               0.000029856               0.005159391              -0.000080065              -0.000633726               0.001931022               0.001297296               0.000000000               0.000000000               0.000000000               0.000000000               0.000025527               0.005086642              -0.000065110              -0.000626256               0.001904283               0.001278026               0.000000000               0.000000000               0.000000000               0.000000000               0.000017076               0.005025228              -0.000045357              -0.000621749               0.001882309               0.001260560               0.000000000               0.000000000               0.000000000               0.000000000               0.000009720               0.004979702              -0.000023000              -0.000618816               0.001866156               0.001247340               0.000000000               0.000000000               0.000000000               0.000000000               0.000004337               0.004955869              -0.000012742              -0.000617856               0.001857892               0.001240036               0.000000000               0.000000000               0.000000000               0.000000000               0.001807166               0.006819323               0.002855929              -0.000174731               0.002331328               0.002156597               0.000000000               0.000000000               0.000000000               0.000000000               0.000923338               0.006437168               0.001889616              -0.000458395               0.002298499               0.001840104               0.000000000               0.000000000               0.000000000               0.000000000               0.000303401               0.006411229               0.000912787              -0.000687627               0.002366264               0.001678637               0.000000000               0.000000000               0.000000000               0.000000000               0.000073955               0.006209224               0.000508872              -0.000748418               0.002319193               0.001570775               0.000000000               0.000000000               0.000000000               0.000000000              -0.000001690               0.005998051               0.000316163              -0.000750388               0.002249460               0.001499071               0.000000000               0.000000000               0.000000000               0.000000000              -0.000021114               0.005810836               0.000209271              -0.000734271               0.002181683               0.001447412               0.000000000               0.000000000               0.000000000               0.000000000              -0.000026197               0.005647642               0.000140738              -0.000715777               0.002121121               0.001405344               0.000000000               0.000000000               0.000000000               0.000000000              -0.000024046               0.005508087               0.000094991              -0.000697526               0.002068519               0.001370993               0.000000000               0.000000000               0.000000000               0.000000000              -0.000020776               0.005382777               0.000057904              -0.000680636               0.002021120               0.001340483               0.000000000               0.000000000               0.000000000               0.000000000              -0.000018796               0.005269412               0.000025549              -0.000665723               0.001978361               0.001312638               0.000000000               0.000000000               0.000000000               0.000000000              -0.000015020               0.005168615               0.000001792              -0.000651708               0.001940090               0.001288383               0.000000000               0.000000000               0.000000000               0.000000000              -0.000007610               0.005073632              -0.000014207              -0.000637056               0.001903546               0.001266490               0.000000000               0.000000000               0.000000000               0.000000000              -0.000000631               0.004982435              -0.000021377              -0.000623039               0.001868475               0.001245436               0.000000000               0.000000000               0.000000000               0.000000000               0.000001477               0.004899140              -0.000020493              -0.000611837               0.001836976               0.001225139               0.000000000               0.000000000               0.000000000               0.000000000               0.000000631               0.004827831              -0.000018012              -0.000603241               0.001810341               0.001207100               0.000000000               0.000000000               0.000000000               0.000000000              -0.000000553               0.004766751              -0.000012004              -0.000596050               0.001787584               0.001191535               0.000000000               0.000000000               0.000000000               0.000000000              -0.000007086               0.004727178              -0.000010819              -0.000593553               0.001773561               0.001180008               0.000000000               0.000000000               0.000000000               0.000000000               0.001668680               0.005503217               0.002619690              -0.000062150               0.001855103               0.001792953               0.000000000               0.000000000               0.000000000               0.000000000               0.000746334               0.005594273               0.001862834              -0.000419410               0.002004542               0.001585132               0.000000000               0.000000000               0.000000000               0.000000000               0.000054643               0.005934128               0.001062394              -0.000721274               0.002218447               0.001497174               0.000000000               0.000000000               0.000000000               0.000000000              -0.000133843               0.005873815               0.000693300              -0.000784416               0.002219391               0.001434974               0.000000000               0.000000000               0.000000000               0.000000000              -0.000159107               0.005732489               0.000493476              -0.000776225               0.002169552               0.001393327               0.000000000               0.000000000               0.000000000               0.000000000              -0.000141645               0.005583558               0.000370361              -0.000751060               0.002111520               0.001360461               0.000000000               0.000000000               0.000000000               0.000000000              -0.000117521               0.005447876               0.000281844              -0.000725053               0.002057625               0.001332572               0.000000000               0.000000000               0.000000000               0.000000000              -0.000093188               0.005323304               0.000215290              -0.000700357               0.002007869               0.001307512               0.000000000               0.000000000               0.000000000               0.000000000              -0.000072747               0.005204610               0.000159533              -0.000677855               0.001960804               0.001282949               0.000000000               0.000000000               0.000000000               0.000000000              -0.000054950               0.005093563               0.000107653              -0.000657300               0.001916937               0.001259638               0.000000000               0.000000000               0.000000000               0.000000000              -0.000039750               0.004985908               0.000065558              -0.000638143               0.001874667               0.001236524               0.000000000               0.000000000               0.000000000               0.000000000              -0.000027656               0.004878716               0.000035618              -0.000620209               0.001832959               0.001212750               0.000000000               0.000000000               0.000000000               0.000000000              -0.000021675               0.004775416               0.000014637              -0.000605053               0.001793474               0.001188420               0.000000000               0.000000000               0.000000000               0.000000000              -0.000020227               0.004681870              -0.000000115              -0.000592817               0.001758214               0.001165396               0.000000000               0.000000000               0.000000000               0.000000000              -0.000019959               0.004599483              -0.000010320              -0.000582419               0.001727285               0.001144867               0.000000000               0.000000000               0.000000000               0.000000000              -0.000014775               0.004526265              -0.000011490              -0.000571322               0.001699181               0.001127859               0.000000000               0.000000000               0.000000000               0.000000000              -0.000014863               0.004480165              -0.000012817              -0.000565593               0.001681904               0.001116311               0.000000000               0.000000000               0.000000000               0.000000000               0.001460098               0.004368093               0.002275558               0.000001522               0.001455508               0.001457030               0.000000000               0.000000000               0.000000000               0.000000000               0.000588469               0.004845259               0.001800109              -0.000384982               0.001743397               0.001358415               0.000000000               0.000000000               0.000000000               0.000000000              -0.000102359               0.005488320               0.001233686              -0.000724424               0.002070896               0.001346473               0.000000000               0.000000000               0.000000000               0.000000000              -0.000245878               0.005566007               0.000894984              -0.000787954               0.002117968               0.001330015               0.000000000               0.000000000               0.000000000               0.000000000              -0.000237268               0.005495170               0.000678368              -0.000775870               0.002090328               0.001314458               0.000000000               0.000000000               0.000000000               0.000000000              -0.000192885               0.005393982               0.000530350              -0.000746578               0.002046835               0.001300257               0.000000000               0.000000000               0.000000000               0.000000000              -0.000149973               0.005293664               0.000419543              -0.000717946               0.002003853               0.001285906               0.000000000               0.000000000               0.000000000               0.000000000              -0.000111282               0.005185908               0.000331598              -0.000689968               0.001958608               0.001268640               0.000000000               0.000000000               0.000000000               0.000000000              -0.000080722               0.005078558               0.000256338              -0.000665089               0.001914532               0.001249443               0.000000000               0.000000000               0.000000000               0.000000000              -0.000056740               0.004971967               0.000189578              -0.000642772               0.001871563               0.001228791               0.000000000               0.000000000               0.000000000               0.000000000              -0.000039439               0.004855013               0.000132716              -0.000621665               0.001825543               0.001203878               0.000000000               0.000000000               0.000000000               0.000000000              -0.000030726               0.004733420               0.000086044              -0.000603198               0.001778857               0.001175659               0.000000000               0.000000000               0.000000000               0.000000000              -0.000033025               0.004617222               0.000048403              -0.000589536               0.001735571               0.001146035               0.000000000               0.000000000               0.000000000               0.000000000              -0.000042655               0.004512211               0.000018940              -0.000580021               0.001697395               0.001117375               0.000000000               0.000000000               0.000000000               0.000000000              -0.000053578               0.004417578              -0.000000057              -0.000572287               0.001663274               0.001090986               0.000000000               0.000000000               0.000000000               0.000000000              -0.000058272               0.004328951              -0.000006138              -0.000562969               0.001630626               0.001067656               0.000000000               0.000000000               0.000000000               0.000000000              -0.000054807               0.004281969              -0.000006562              -0.000555798               0.001612575               0.001056777               0.000000000               0.000000000               0.000000000               0.000000000               0.001170856               0.003295181               0.001885884               0.000027170               0.001089325               0.001116495               0.000000000               0.000000000               0.000000000               0.000000000               0.000480368               0.003990489               0.001720049              -0.000318674               0.001436374               0.001117699               0.000000000               0.000000000               0.000000000               0.000000000              -0.000140297               0.004848287               0.001426842              -0.000658646               0.001835628               0.001176981               0.000000000               0.000000000               0.000000000               0.000000000              -0.000269248               0.005102212               0.001131464              -0.000738743               0.001946968               0.001208225               0.000000000               0.000000000               0.000000000               0.000000000              -0.000256936               0.005147252               0.000899889              -0.000739756               0.001962319               0.001222563               0.000000000               0.000000000               0.000000000               0.000000000              -0.000208555               0.005128872               0.000722762              -0.000719316               0.001949379               0.001230063               0.000000000               0.000000000               0.000000000               0.000000000              -0.000161214               0.005086307               0.000586093              -0.000696242               0.001927500               0.001231257               0.000000000               0.000000000               0.000000000               0.000000000              -0.000121286               0.005021148               0.000476772              -0.000673124               0.001898074               0.001224950               0.000000000               0.000000000               0.000000000               0.000000000              -0.000088947               0.004942294               0.000384296              -0.000651140               0.001864462               0.001213321               0.000000000               0.000000000               0.000000000               0.000000000              -0.000065816               0.004851928               0.000304016              -0.000631170               0.001827683               0.001196513               0.000000000               0.000000000               0.000000000               0.000000000              -0.000049587               0.004750614               0.000231769              -0.000612420               0.001787662               0.001175242               0.000000000               0.000000000               0.000000000               0.000000000              -0.000043048               0.004639226               0.000165766              -0.000596045               0.001745075               0.001149030               0.000000000               0.000000000               0.000000000               0.000000000              -0.000048685               0.004527134               0.000106665              -0.000584147               0.001703745               0.001119598               0.000000000               0.000000000               0.000000000               0.000000000              -0.000065514               0.004425523               0.000057240              -0.000577757               0.001667745               0.001089988               0.000000000               0.000000000               0.000000000               0.000000000              -0.000090483               0.004330654               0.000023546              -0.000575261               0.001635291               0.001060029               0.000000000               0.000000000               0.000000000               0.000000000              -0.000118314               0.004239617               0.000005680              -0.000574318               0.001604631               0.001030313               0.000000000               0.000000000               0.000000000               0.000000000              -0.000129557               0.004195730               0.000000042              -0.000573049               0.001589579               0.001016530               0.000000000               0.000000000               0.000000000               0.000000000               0.000740574               0.002314815               0.001467036              -0.000011639               0.000775476               0.000763837               0.000000000               0.000000000               0.000000000               0.000000000               0.000351175               0.003144335               0.001589061              -0.000261352               0.001135218               0.000873866               0.000000000               0.000000000               0.000000000               0.000000000              -0.000113733               0.004130993               0.001570296              -0.000559024               0.001563324               0.001004301               0.000000000               0.000000000               0.000000000               0.000000000              -0.000228419               0.004548138               0.001354944              -0.000654174               0.001734088               0.001079915               0.000000000               0.000000000               0.000000000               0.000000000              -0.000224488               0.004729018               0.001129874              -0.000675309               0.001801426               0.001126117               0.000000000               0.000000000               0.000000000               0.000000000              -0.000185168               0.004807927               0.000935019              -0.000670428               0.001826102               0.001155674               0.000000000               0.000000000               0.000000000               0.000000000              -0.000142698               0.004837521               0.000777359              -0.000658200               0.001831891               0.001173691               0.000000000               0.000000000               0.000000000               0.000000000              -0.000107097               0.004832551               0.000648740              -0.000644229               0.001825577               0.001181348               0.000000000               0.000000000               0.000000000               0.000000000              -0.000075551               0.004794853               0.000542476              -0.000627687               0.001807497               0.001179811               0.000000000               0.000000000               0.000000000               0.000000000              -0.000052692               0.004734073               0.000452178              -0.000611517               0.001781847               0.001170330               0.000000000               0.000000000               0.000000000               0.000000000              -0.000036119               0.004661707               0.000369421              -0.000596257               0.001752639               0.001156382               0.000000000               0.000000000               0.000000000               0.000000000              -0.000027961               0.004575546               0.000289018              -0.000582427               0.001719309               0.001136882               0.000000000               0.000000000               0.000000000               0.000000000              -0.000033647               0.004482026               0.000211042              -0.000572870               0.001684950               0.001112081               0.000000000               0.000000000               0.000000000               0.000000000              -0.000053992               0.004392310               0.000139266              -0.000569284               0.001653850               0.001084566               0.000000000               0.000000000               0.000000000               0.000000000              -0.000094743               0.004306081               0.000077722              -0.000573787               0.001626608               0.001052821               0.000000000               0.000000000               0.000000000               0.000000000              -0.000153839               0.004226156               0.000031458              -0.000585958               0.001604024               0.001018066               0.000000000               0.000000000               0.000000000               0.000000000              -0.000198042               0.004180110               0.000007734              -0.000596778               0.001592282               0.000995504               0.000000000               0.000000000               0.000000000               0.000000000               0.000187444               0.001479462               0.001042397              -0.000114642               0.000531363               0.000416720               0.000000000               0.000000000               0.000000000               0.000000000               0.000158383               0.002342139               0.001389292              -0.000233375               0.000858496               0.000625121               0.000000000               0.000000000               0.000000000               0.000000000              -0.000060900               0.003338569               0.001598295              -0.000440159               0.001259564               0.000819405               0.000000000               0.000000000               0.000000000               0.000000000              -0.000119543               0.003875518               0.001481928              -0.000529268               0.001468249               0.000938981               0.000000000               0.000000000               0.000000000               0.000000000              -0.000116339               0.004180158               0.001293074              -0.000566146               0.001582087               0.001015941               0.000000000               0.000000000               0.000000000               0.000000000              -0.000089766               0.004363011               0.001104013              -0.000579038               0.001647335               0.001068297               0.000000000               0.000000000               0.000000000               0.000000000              -0.000061007               0.004479529               0.000937828              -0.000582818               0.001687434               0.001104616               0.000000000               0.000000000               0.000000000               0.000000000              -0.000037969               0.004545254               0.000800834              -0.000582394               0.001709201               0.001126807               0.000000000               0.000000000               0.000000000               0.000000000              -0.000015304               0.004566309               0.000687334              -0.000576527               0.001714263               0.001137737               0.000000000               0.000000000               0.000000000               0.000000000               0.000003190               0.004552840               0.000590483              -0.000567908               0.001706901               0.001138993               0.000000000               0.000000000               0.000000000               0.000000000               0.000015711               0.004518965               0.000503306              -0.000558978               0.001692633               0.001133655               0.000000000               0.000000000               0.000000000               0.000000000               0.000024213               0.004473270               0.000415886              -0.000550078               0.001674434               0.001124357               0.000000000               0.000000000               0.000000000               0.000000000               0.000021743               0.004416128               0.000327150              -0.000543861               0.001653315               0.001109454               0.000000000               0.000000000               0.000000000               0.000000000               0.000002307               0.004352517               0.000237850              -0.000543198               0.001631890               0.001088692               0.000000000               0.000000000               0.000000000               0.000000000              -0.000041266               0.004285739               0.000150498              -0.000551191               0.001612296               0.001061105               0.000000000               0.000000000               0.000000000               0.000000000              -0.000115361               0.004218105               0.000070895              -0.000570522               0.001596195               0.001025673               0.000000000               0.000000000               0.000000000               0.000000000              -0.000181490               0.004171150               0.000025611              -0.000589451               0.001586853               0.000997402               0.000000000               0.000000000               0.000000000               0.000000000              -0.000434254               0.000819745               0.000656535              -0.000265313               0.000361683               0.000096369               0.000000000               0.000000000               0.000000000               0.000000000              -0.000075062               0.001616601               0.001138724              -0.000230224               0.000615602               0.000385378               0.000000000               0.000000000               0.000000000               0.000000000               0.000004148               0.002529497               0.001499058              -0.000314632               0.000948034               0.000633401               0.000000000               0.000000000               0.000000000               0.000000000               0.000037348               0.003132005               0.001473408              -0.000377495               0.001169822               0.000792327               0.000000000               0.000000000               0.000000000               0.000000000               0.000057833               0.003537457               0.001335276              -0.000420495               0.001319305               0.000898810               0.000000000               0.000000000               0.000000000               0.000000000               0.000075721               0.003819519               0.001173429              -0.000449044               0.001422841               0.000973797               0.000000000               0.000000000               0.000000000               0.000000000               0.000090362               0.004022211               0.001019807              -0.000468890               0.001497020               0.001028130               0.000000000               0.000000000               0.000000000               0.000000000               0.000099577               0.004164763               0.000889630              -0.000483253               0.001549325               0.001066071               0.000000000               0.000000000               0.000000000               0.000000000               0.000108267               0.004256678               0.000780836              -0.000491484               0.001582706               0.001091222               0.000000000               0.000000000               0.000000000               0.000000000               0.000117019               0.004305375               0.000685237              -0.000494289               0.001599874               0.001105585               0.000000000               0.000000000               0.000000000               0.000000000               0.000120654               0.004323758               0.000599121              -0.000495223               0.001606313               0.001111089               0.000000000               0.000000000               0.000000000               0.000000000               0.000124717               0.004329036               0.000513363              -0.000494359               0.001607784               0.001113425               0.000000000               0.000000000               0.000000000               0.000000000               0.000126220               0.004316472               0.000422590              -0.000492225               0.001602885               0.001110659               0.000000000               0.000000000               0.000000000               0.000000000               0.000117400               0.004288616               0.000326093              -0.000492051               0.001593541               0.001101490               0.000000000               0.000000000               0.000000000               0.000000000               0.000090363               0.004251112               0.000222372              -0.000497502               0.001582857               0.001085355               0.000000000               0.000000000               0.000000000               0.000000000               0.000030672               0.004204540               0.000113170              -0.000514064               0.001572854               0.001058790               0.000000000               0.000000000               0.000000000               0.000000000              -0.000030078               0.004167637               0.000050924              -0.000532232               0.001566609               0.001034377               0.000000000               0.000000000               0.000000000               0.000000000              -0.001049231               0.000347307               0.000351998              -0.000436875               0.000261392              -0.000175483               0.000000000               0.000000000               0.000000000               0.000000000              -0.000321316               0.001011936               0.000857197              -0.000246986               0.000419637               0.000172651               0.000000000               0.000000000               0.000000000               0.000000000               0.000065802               0.001778792               0.001269282              -0.000197674               0.000658815               0.000461141               0.000000000               0.000000000               0.000000000               0.000000000               0.000210968               0.002397391               0.001307809              -0.000220562               0.000872642               0.000652081               0.000000000               0.000000000               0.000000000               0.000000000               0.000264950               0.002874043               0.001221322              -0.000259900               0.001044637               0.000784738               0.000000000               0.000000000               0.000000000               0.000000000               0.000285548               0.003235235               0.001097779              -0.000297324               0.001177509               0.000880185               0.000000000               0.000000000               0.000000000               0.000000000               0.000291938               0.003512073               0.000972260              -0.000329532               0.001280523               0.000950991               0.000000000               0.000000000               0.000000000               0.000000000               0.000291842               0.003727522               0.000863735              -0.000356499               0.001361328               0.001004829               0.000000000               0.000000000               0.000000000               0.000000000               0.000287735               0.003890585               0.000772020              -0.000378422               0.001422989               0.001044567               0.000000000               0.000000000               0.000000000               0.000000000               0.000284027               0.004006861               0.000687461              -0.000394347               0.001467056               0.001072709               0.000000000               0.000000000               0.000000000               0.000000000               0.000278930               0.004084282               0.000609832              -0.000405936               0.001496726               0.001090790               0.000000000               0.000000000               0.000000000               0.000000000               0.000276611               0.004140080               0.000534717              -0.000413780               0.001517939               0.001104159               0.000000000               0.000000000               0.000000000               0.000000000               0.000279184               0.004175367               0.000454521              -0.000417226               0.001530850               0.001113624               0.000000000               0.000000000               0.000000000               0.000000000               0.000283465               0.004192303               0.000365380              -0.000417737               0.001536666               0.001118929               0.000000000               0.000000000               0.000000000               0.000000000               0.000283040               0.004193154               0.000261588              -0.000418003               0.001537038               0.001119035               0.000000000               0.000000000               0.000000000               0.000000000               0.000267818               0.004178229               0.000140347              -0.000421846               0.001533344               0.001111499               0.000000000               0.000000000               0.000000000               0.000000000               0.000243826               0.004160764               0.000071985              -0.000428660               0.001529794               0.001101134               0.000000000               0.000000000               0.000000000               0.000000000              -0.001574683               0.000048132               0.000149557              -0.000596522               0.000214883              -0.000381639               0.000000000               0.000000000               0.000000000               0.000000000              -0.000547187               0.000564071               0.000564445              -0.000275704               0.000279922               0.000004218               0.000000000               0.000000000               0.000000000               0.000000000               0.000110702               0.001171800               0.000921445              -0.000104963               0.000425583               0.000320620               0.000000000               0.000000000               0.000000000               0.000000000               0.000367909               0.001771941               0.000985688              -0.000083528               0.000618483               0.000534956               0.000000000               0.000000000               0.000000000               0.000000000               0.000463282               0.002282464               0.000941984              -0.000111578               0.000798006               0.000686428               0.000000000               0.000000000               0.000000000               0.000000000               0.000493893               0.002695876               0.000859967              -0.000151775               0.000949208               0.000797433               0.000000000               0.000000000               0.000000000               0.000000000               0.000498682               0.003030097               0.000771429              -0.000191756               0.001073941               0.000882185               0.000000000               0.000000000               0.000000000               0.000000000               0.000491818               0.003301508               0.000692236              -0.000228256               0.001176577               0.000948320               0.000000000               0.000000000               0.000000000               0.000000000               0.000476933               0.003522535               0.000624681              -0.000261467               0.001261322               0.000999855               0.000000000               0.000000000               0.000000000               0.000000000               0.000462290               0.003698289               0.000562180              -0.000288927               0.001329060               0.001040133               0.000000000               0.000000000               0.000000000               0.000000000               0.000450677               0.003831874               0.000503253              -0.000309980               0.001380605               0.001070625               0.000000000               0.000000000               0.000000000               0.000000000               0.000444311               0.003938259               0.000446704              -0.000325665               0.001421295               0.001095630               0.000000000               0.000000000               0.000000000               0.000000000               0.000446788               0.004023142               0.000385822              -0.000335346               0.001452816               0.001117470               0.000000000               0.000000000               0.000000000               0.000000000               0.000461765               0.004087726               0.000316298              -0.000337803               0.001475163               0.001137359               0.000000000               0.000000000               0.000000000               0.000000000               0.000491672               0.004131853               0.000234125              -0.000332104               0.001487972               0.001155868               0.000000000               0.000000000               0.000000000               0.000000000               0.000535461               0.004152498               0.000129743              -0.000318263               0.001490240               0.001171976               0.000000000               0.000000000               0.000000000               0.000000000               0.000570096               0.004158818               0.000070717              -0.000306066               0.001488281               0.001182215               0.000000000               0.000000000               0.000000000               0.000000000              -0.001928297              -0.000104277               0.000042618              -0.000710076               0.000201932              -0.000508145               0.000000000               0.000000000               0.000000000               0.000000000              -0.000710980               0.000297395               0.000275914              -0.000303792               0.000200394              -0.000103397               0.000000000               0.000000000               0.000000000               0.000000000               0.000134413               0.000781190               0.000484111              -0.000047244               0.000276142               0.000228898               0.000000000               0.000000000               0.000000000               0.000000000               0.000476940               0.001347554               0.000531391               0.000010408               0.000445711               0.000456118               0.000000000               0.000000000               0.000000000               0.000000000               0.000609565               0.001866544               0.000515241              -0.000004732               0.000623752               0.000619020               0.000000000               0.000000000               0.000000000               0.000000000               0.000651446               0.002308482               0.000475152              -0.000044268               0.000784242               0.000739974               0.000000000               0.000000000               0.000000000               0.000000000               0.000655702               0.002675803               0.000429086              -0.000088587               0.000921455               0.000832867               0.000000000               0.000000000               0.000000000               0.000000000               0.000642952               0.002983158               0.000386519              -0.000131788               0.001038305               0.000906518               0.000000000               0.000000000               0.000000000               0.000000000               0.000622020               0.003245732               0.000350837              -0.000172459               0.001139386               0.000966927               0.000000000               0.000000000               0.000000000               0.000000000               0.000596914               0.003463046               0.000317811              -0.000209038               0.001224016               0.001014979               0.000000000               0.000000000               0.000000000               0.000000000               0.000576010               0.003639759               0.000285317              -0.000238965               0.001292896               0.001053930               0.000000000               0.000000000               0.000000000               0.000000000               0.000564572               0.003783386               0.000253381              -0.000261208               0.001348185               0.001086977               0.000000000               0.000000000               0.000000000               0.000000000               0.000568718               0.003900553               0.000219471              -0.000274299               0.001391604               0.001117305               0.000000000               0.000000000               0.000000000               0.000000000               0.000597360               0.004000433               0.000180856              -0.000276043               0.001425479               0.001149435               0.000000000               0.000000000               0.000000000               0.000000000               0.000655714               0.004079436               0.000135258              -0.000264036               0.001447810               0.001183774               0.000000000               0.000000000               0.000000000               0.000000000               0.000747658               0.004127964               0.000075590              -0.000235623               0.001454516               0.001218892               0.000000000               0.000000000               0.000000000               0.000000000               0.000832021               0.004153392               0.000042391              -0.000207166               0.001453505               0.001246340               0.000000000               0.000000000               0.000000000               0.000000000               0.000000000               0.000000000               0.000000000               0.000000000               0.000000000               0.000000000               0.000000000               0.000000000               0.000000000               0.000000000               0.000000000               0.000000000               0.000000000               0.000000000               0.000000000               0.000000000               0.000000000               0.000000000               0.000000000               0.000000000               0.000000000               0.000000000               0.000000000               0.000000000               0.000000000               0.000000000               0.000000000               0.000000000               0.000000000               0.000000000               0.000000000               0.000000000               0.000000000               0.000000000               0.000000000               0.000000000               0.000000000               0.000000000               0.000000000               0.000000000               0.000000000               0.000000000               0.000000000               0.000000000               0.000000000               0.000000000               0.000000000               0.000000000               0.000000000               0.000000000               0.000000000               0.000000000               0.000000000               0.000000000               0.000000000               0.000000000               0.000000000               0.000000000               0.000000000               0.000000000               0.000000000               0.000000000               0.000000000               0.000000000               0.000000000               0.000000000               0.000000000               0.000000000               0.000000000               0.000000000               0.000000000               0.000000000               0.000000000               0.000000000               0.000000000               0.000000000               0.000000000               0.000000000               0.000000000               0.000000000               0.000000000               0.000000000               0.000000000               0.000000000               0.000000000               0.000000000               0.000000000               0.000000000               0.000000000               0.000000000               0.000000000               0.000000000               0.000000000               0.000000000               0.000000000               0.000000000               0.000000000               0.000000000               0.000000000               0.000000000               0.000000000               0.000000000               0.000000000               0.000000000               0.000000000               0.000000000               0.000000000               0.000000000               0.000000000               0.000000000               0.000000000               0.000000000               0.000000000               0.000000000               0.000000000               0.000000000               0.000000000               0.000000000               0.000000000               0.000000000               0.000000000               0.000000000               0.000000000               0.000000000               0.000000000               0.000000000               0.000000000               0.000000000               0.000000000               0.000000000               0.000000000               0.000000000               0.000000000               0.000000000               0.000000000               0.000000000               0.000000000               0.000000000               0.000000000               0.000000000               0.000000000               0.000000000               0.000000000               0.000000000               0.000000000               0.000000000               0.000000000               0.000000000               0.000000000               0.000000000               0.000000000               0.000000000               0.000000000               0.000000000               0.000000000               0.000000000               0.000000000               0.000000000               0.000000000               0.000000000               0.000000000               0.000000000               0.000000000               0.000000000               0.000000000               0.000000000               0.000000000               0.000000000               0.000000000               0.000000000 </DataArray>
</PointData>
</Piece>
</UnstructuredGrid> </VTKFile>
