<?xml version="1.0"?>
<VTKFile type="UnstructuredGrid" version="0.1">
<UnstructuredGrid>
<Piece NumberOfPoints="      1156" NumberOfCells="      1024">
<Points>
<DataArray type="Float64"                                    Name="coordinates"                                                      NumberOfComponents=" 3" format="ascii">
              0.133000000               0.000000000               0.000000000               0.155937500               0.000000000               0.000000000               0.178875000               0.000000000               0.000000000               0.201812500               0.000000000               0.000000000               0.224750000               0.000000000               0.000000000               0.247687500               0.000000000               0.000000000               0.270625000               0.000000000               0.000000000               0.293562500               0.000000000               0.000000000               0.316500000               0.000000000               0.000000000               0.339437500               0.000000000               0.000000000               0.362375000               0.000000000               0.000000000               0.385312500               0.000000000               0.000000000               0.408250000               0.000000000               0.000000000               0.431187500               0.000000000               0.000000000               0.454125000               0.000000000               0.000000000               0.477062500               0.000000000               0.000000000               0.500000000               0.000000000               0.000000000               0.132359569               0.013036280               0.000000000               0.155337096               0.016127762               0.000000000               0.178314623               0.019219245               0.000000000               0.201292150               0.022310727               0.000000000               0.224269676               0.025402210               0.000000000               0.247247203               0.028493692               0.000000000               0.270224730               0.031585175               0.000000000               0.293202257               0.034676657               0.000000000               0.316179784               0.037768140               0.000000000               0.339157311               0.040859622               0.000000000               0.362134838               0.043951105               0.000000000               0.385112365               0.047042587               0.000000000               0.408089892               0.050134070               0.000000000               0.431067419               0.053225552               0.000000000               0.454044946               0.056317035               0.000000000               0.477022473               0.059408517               0.000000000               0.500000000               0.062500000               0.000000000               0.130444442               0.025947013               0.000000000               0.153541665               0.032137825               0.000000000               0.176638887               0.038328636               0.000000000               0.199736109               0.044519448               0.000000000               0.222833332               0.050710260               0.000000000               0.245930554               0.056901071               0.000000000               0.269027776               0.063091883               0.000000000               0.292124999               0.069282695               0.000000000               0.315222221               0.075473506               0.000000000               0.338319444               0.081664318               0.000000000               0.361416666               0.087855130               0.000000000               0.384513888               0.094045942               0.000000000               0.407611111               0.100236753               0.000000000               0.430708333               0.106427565               0.000000000               0.453805555               0.112618377               0.000000000               0.476902778               0.118809188               0.000000000               0.500000000               0.125000000               0.000000000               0.127273065               0.038607862               0.000000000               0.150568498               0.047913621               0.000000000               0.173863932               0.057219379               0.000000000               0.197159365               0.066525138               0.000000000               0.220454798               0.075830897               0.000000000               0.243750232               0.085136655               0.000000000               0.267045665               0.094442414               0.000000000               0.290341099               0.103748172               0.000000000               0.313636532               0.113053931               0.000000000               0.336931966               0.122359690               0.000000000               0.360227399               0.131665448               0.000000000               0.383522833               0.140971207               0.000000000               0.406818266               0.150276966               0.000000000               0.430113700               0.159582724               0.000000000               0.453409133               0.168888483               0.000000000               0.476704567               0.178194241               0.000000000               0.500000000               0.187500000               0.000000000               0.122875978               0.050896897               0.000000000               0.146446229               0.063340840               0.000000000               0.170016481               0.075784784               0.000000000               0.193586732               0.088228728               0.000000000               0.217156983               0.100672672               0.000000000               0.240727235               0.113116616               0.000000000               0.264297486               0.125560560               0.000000000               0.287867738               0.138004504               0.000000000               0.311437989               0.150448448               0.000000000               0.335008240               0.162892392               0.000000000               0.358578492               0.175336336               0.000000000               0.382148743               0.187780280               0.000000000               0.405718994               0.200224224               0.000000000               0.429289246               0.212668168               0.000000000               0.452859497               0.225112112               0.000000000               0.476429749               0.237556056               0.000000000               0.500000000               0.250000000               0.000000000               0.117295528               0.062695766               0.000000000               0.141214558               0.078308531               0.000000000               0.165133587               0.093921295               0.000000000               0.189052617               0.109534060               0.000000000               0.212971646               0.125146824               0.000000000               0.236890676               0.140759589               0.000000000               0.260809705               0.156372354               0.000000000               0.284728735               0.171985118               0.000000000               0.308647764               0.187597883               0.000000000               0.332566794               0.203210648               0.000000000               0.356485823               0.218823412               0.000000000               0.380404853               0.234436177               0.000000000               0.404323882               0.250048941               0.000000000               0.428242912               0.265661706               0.000000000               0.452161941               0.281274471               0.000000000               0.476080971               0.296887235               0.000000000               0.500000000               0.312500000               0.000000000               0.110585458               0.073890841               0.000000000               0.134923867               0.092710163               0.000000000               0.159262276               0.111529486               0.000000000               0.183600685               0.130348808               0.000000000               0.207939094               0.149168131               0.000000000               0.232277503               0.167987453               0.000000000               0.256615912               0.186806776               0.000000000               0.280954320               0.205626098               0.000000000               0.305292729               0.224445420               0.000000000               0.329631138               0.243264743               0.000000000               0.353969547               0.262084065               0.000000000               0.378307956               0.280903388               0.000000000               0.402646365               0.299722710               0.000000000               0.426984773               0.318542033               0.000000000               0.451323182               0.337361355               0.000000000               0.475661591               0.356180678               0.000000000               0.500000000               0.375000000               0.000000000               0.102810390               0.084374307               0.000000000               0.127634741               0.106444663               0.000000000               0.152459092               0.128515018               0.000000000               0.177283442               0.150585374               0.000000000               0.202107793               0.172655730               0.000000000               0.226932143               0.194726086               0.000000000               0.251756494               0.216796442               0.000000000               0.276580845               0.238866798               0.000000000               0.301405195               0.260937153               0.000000000               0.326229546               0.283007509               0.000000000               0.351053896               0.305077865               0.000000000               0.375878247               0.327148221               0.000000000               0.400702598               0.349218577               0.000000000               0.425526948               0.371288933               0.000000000               0.450351299               0.393359288               0.000000000               0.475175649               0.415429644               0.000000000               0.500000000               0.437500000               0.000000000               0.094045202               0.094045202               0.000000000               0.119417377               0.119417377               0.000000000               0.144789552               0.144789552               0.000000000               0.170161727               0.170161727               0.000000000               0.195533901               0.195533901               0.000000000               0.220906076               0.220906076               0.000000000               0.246278251               0.246278251               0.000000000               0.271650426               0.271650426               0.000000000               0.297022601               0.297022601               0.000000000               0.322394776               0.322394776               0.000000000               0.347766951               0.347766951               0.000000000               0.373139126               0.373139126               0.000000000               0.398511300               0.398511300               0.000000000               0.423883475               0.423883475               0.000000000               0.449255650               0.449255650               0.000000000               0.474627825               0.474627825               0.000000000               0.500000000               0.500000000               0.000000000               0.084374307               0.102810390               0.000000000               0.106444663               0.127634741               0.000000000               0.128515018               0.152459092               0.000000000               0.150585374               0.177283442               0.000000000               0.172655730               0.202107793               0.000000000               0.194726086               0.226932143               0.000000000               0.216796442               0.251756494               0.000000000               0.238866798               0.276580845               0.000000000               0.260937153               0.301405195               0.000000000               0.283007509               0.326229546               0.000000000               0.305077865               0.351053896               0.000000000               0.327148221               0.375878247               0.000000000               0.349218577               0.400702598               0.000000000               0.371288933               0.425526948               0.000000000               0.393359288               0.450351299               0.000000000               0.415429644               0.475175649               0.000000000               0.437500000               0.500000000               0.000000000               0.073890841               0.110585458               0.000000000               0.092710163               0.134923867               0.000000000               0.111529486               0.159262276               0.000000000               0.130348808               0.183600685               0.000000000               0.149168131               0.207939094               0.000000000               0.167987453               0.232277503               0.000000000               0.186806776               0.256615912               0.000000000               0.205626098               0.280954320               0.000000000               0.224445420               0.305292729               0.000000000               0.243264743               0.329631138               0.000000000               0.262084065               0.353969547               0.000000000               0.280903388               0.378307956               0.000000000               0.299722710               0.402646365               0.000000000               0.318542033               0.426984773               0.000000000               0.337361355               0.451323182               0.000000000               0.356180678               0.475661591               0.000000000               0.375000000               0.500000000               0.000000000               0.062695766               0.117295528               0.000000000               0.078308531               0.141214558               0.000000000               0.093921295               0.165133587               0.000000000               0.109534060               0.189052617               0.000000000               0.125146824               0.212971646               0.000000000               0.140759589               0.236890676               0.000000000               0.156372354               0.260809705               0.000000000               0.171985118               0.284728735               0.000000000               0.187597883               0.308647764               0.000000000               0.203210648               0.332566794               0.000000000               0.218823412               0.356485823               0.000000000               0.234436177               0.380404853               0.000000000               0.250048941               0.404323882               0.000000000               0.265661706               0.428242912               0.000000000               0.281274471               0.452161941               0.000000000               0.296887235               0.476080971               0.000000000               0.312500000               0.500000000               0.000000000               0.050896897               0.122875978               0.000000000               0.063340840               0.146446229               0.000000000               0.075784784               0.170016481               0.000000000               0.088228728               0.193586732               0.000000000               0.100672672               0.217156983               0.000000000               0.113116616               0.240727235               0.000000000               0.125560560               0.264297486               0.000000000               0.138004504               0.287867738               0.000000000               0.150448448               0.311437989               0.000000000               0.162892392               0.335008240               0.000000000               0.175336336               0.358578492               0.000000000               0.187780280               0.382148743               0.000000000               0.200224224               0.405718994               0.000000000               0.212668168               0.429289246               0.000000000               0.225112112               0.452859497               0.000000000               0.237556056               0.476429749               0.000000000               0.250000000               0.500000000               0.000000000               0.038607862               0.127273065               0.000000000               0.047913621               0.150568498               0.000000000               0.057219379               0.173863932               0.000000000               0.066525138               0.197159365               0.000000000               0.075830897               0.220454798               0.000000000               0.085136655               0.243750232               0.000000000               0.094442414               0.267045665               0.000000000               0.103748172               0.290341099               0.000000000               0.113053931               0.313636532               0.000000000               0.122359690               0.336931966               0.000000000               0.131665448               0.360227399               0.000000000               0.140971207               0.383522833               0.000000000               0.150276966               0.406818266               0.000000000               0.159582724               0.430113700               0.000000000               0.168888483               0.453409133               0.000000000               0.178194241               0.476704567               0.000000000               0.187500000               0.500000000               0.000000000               0.025947013               0.130444442               0.000000000               0.032137825               0.153541665               0.000000000               0.038328636               0.176638887               0.000000000               0.044519448               0.199736109               0.000000000               0.050710260               0.222833332               0.000000000               0.056901071               0.245930554               0.000000000               0.063091883               0.269027776               0.000000000               0.069282695               0.292124999               0.000000000               0.075473506               0.315222221               0.000000000               0.081664318               0.338319444               0.000000000               0.087855130               0.361416666               0.000000000               0.094045942               0.384513888               0.000000000               0.100236753               0.407611111               0.000000000               0.106427565               0.430708333               0.000000000               0.112618377               0.453805555               0.000000000               0.118809188               0.476902778               0.000000000               0.125000000               0.500000000               0.000000000               0.013036280               0.132359569               0.000000000               0.016127762               0.155337096               0.000000000               0.019219245               0.178314623               0.000000000               0.022310727               0.201292150               0.000000000               0.025402210               0.224269676               0.000000000               0.028493692               0.247247203               0.000000000               0.031585175               0.270224730               0.000000000               0.034676657               0.293202257               0.000000000               0.037768140               0.316179784               0.000000000               0.040859622               0.339157311               0.000000000               0.043951105               0.362134838               0.000000000               0.047042587               0.385112365               0.000000000               0.050134070               0.408089892               0.000000000               0.053225552               0.431067419               0.000000000               0.056317035               0.454044946               0.000000000               0.059408517               0.477022473               0.000000000               0.062500000               0.500000000               0.000000000               0.000000000               0.133000000               0.000000000               0.000000000               0.155937500               0.000000000               0.000000000               0.178875000               0.000000000               0.000000000               0.201812500               0.000000000               0.000000000               0.224750000               0.000000000               0.000000000               0.247687500               0.000000000               0.000000000               0.270625000               0.000000000               0.000000000               0.293562500               0.000000000               0.000000000               0.316500000               0.000000000               0.000000000               0.339437500               0.000000000               0.000000000               0.362375000               0.000000000               0.000000000               0.385312500               0.000000000               0.000000000               0.408250000               0.000000000               0.000000000               0.431187500               0.000000000               0.000000000               0.454125000               0.000000000               0.000000000               0.477062500               0.000000000               0.000000000               0.500000000               0.000000000               0.133000000               0.000000000               0.000000000               0.155937500               0.000000000               0.000000000               0.178875000               0.000000000               0.000000000               0.201812500               0.000000000               0.000000000               0.224750000               0.000000000               0.000000000               0.247687500               0.000000000               0.000000000               0.270625000               0.000000000               0.000000000               0.293562500               0.000000000               0.000000000               0.316500000               0.000000000               0.000000000               0.339437500               0.000000000               0.000000000               0.362375000               0.000000000               0.000000000               0.385312500               0.000000000               0.000000000               0.408250000               0.000000000               0.000000000               0.431187500               0.000000000               0.000000000               0.454125000               0.000000000               0.000000000               0.477062500               0.000000000               0.000000000               0.500000000               0.000000000               0.000000000               0.132359569              -0.013036280               0.000000000               0.155337096              -0.016127762               0.000000000               0.178314623              -0.019219245               0.000000000               0.201292150              -0.022310727               0.000000000               0.224269676              -0.025402210               0.000000000               0.247247203              -0.028493692               0.000000000               0.270224730              -0.031585175               0.000000000               0.293202257              -0.034676657               0.000000000               0.316179784              -0.037768140               0.000000000               0.339157311              -0.040859622               0.000000000               0.362134838              -0.043951105               0.000000000               0.385112365              -0.047042587               0.000000000               0.408089892              -0.050134070               0.000000000               0.431067419              -0.053225552               0.000000000               0.454044946              -0.056317035               0.000000000               0.477022473              -0.059408517               0.000000000               0.500000000              -0.062500000               0.000000000               0.130444442              -0.025947013               0.000000000               0.153541665              -0.032137825               0.000000000               0.176638887              -0.038328636               0.000000000               0.199736109              -0.044519448               0.000000000               0.222833332              -0.050710260               0.000000000               0.245930554              -0.056901071               0.000000000               0.269027776              -0.063091883               0.000000000               0.292124999              -0.069282695               0.000000000               0.315222221              -0.075473506               0.000000000               0.338319444              -0.081664318               0.000000000               0.361416666              -0.087855130               0.000000000               0.384513888              -0.094045942               0.000000000               0.407611111              -0.100236753               0.000000000               0.430708333              -0.106427565               0.000000000               0.453805555              -0.112618377               0.000000000               0.476902778              -0.118809188               0.000000000               0.500000000              -0.125000000               0.000000000               0.127273065              -0.038607862               0.000000000               0.150568498              -0.047913621               0.000000000               0.173863932              -0.057219379               0.000000000               0.197159365              -0.066525138               0.000000000               0.220454798              -0.075830897               0.000000000               0.243750232              -0.085136655               0.000000000               0.267045665              -0.094442414               0.000000000               0.290341099              -0.103748172               0.000000000               0.313636532              -0.113053931               0.000000000               0.336931966              -0.122359690               0.000000000               0.360227399              -0.131665448               0.000000000               0.383522833              -0.140971207               0.000000000               0.406818266              -0.150276966               0.000000000               0.430113700              -0.159582724               0.000000000               0.453409133              -0.168888483               0.000000000               0.476704567              -0.178194241               0.000000000               0.500000000              -0.187500000               0.000000000               0.122875978              -0.050896897               0.000000000               0.146446229              -0.063340840               0.000000000               0.170016481              -0.075784784               0.000000000               0.193586732              -0.088228728               0.000000000               0.217156983              -0.100672672               0.000000000               0.240727235              -0.113116616               0.000000000               0.264297486              -0.125560560               0.000000000               0.287867738              -0.138004504               0.000000000               0.311437989              -0.150448448               0.000000000               0.335008240              -0.162892392               0.000000000               0.358578492              -0.175336336               0.000000000               0.382148743              -0.187780280               0.000000000               0.405718994              -0.200224224               0.000000000               0.429289246              -0.212668168               0.000000000               0.452859497              -0.225112112               0.000000000               0.476429749              -0.237556056               0.000000000               0.500000000              -0.250000000               0.000000000               0.117295528              -0.062695766               0.000000000               0.141214558              -0.078308531               0.000000000               0.165133587              -0.093921295               0.000000000               0.189052617              -0.109534060               0.000000000               0.212971646              -0.125146824               0.000000000               0.236890676              -0.140759589               0.000000000               0.260809705              -0.156372354               0.000000000               0.284728735              -0.171985118               0.000000000               0.308647764              -0.187597883               0.000000000               0.332566794              -0.203210648               0.000000000               0.356485823              -0.218823412               0.000000000               0.380404853              -0.234436177               0.000000000               0.404323882              -0.250048941               0.000000000               0.428242912              -0.265661706               0.000000000               0.452161941              -0.281274471               0.000000000               0.476080971              -0.296887235               0.000000000               0.500000000              -0.312500000               0.000000000               0.110585458              -0.073890841               0.000000000               0.134923867              -0.092710163               0.000000000               0.159262276              -0.111529486               0.000000000               0.183600685              -0.130348808               0.000000000               0.207939094              -0.149168131               0.000000000               0.232277503              -0.167987453               0.000000000               0.256615912              -0.186806776               0.000000000               0.280954320              -0.205626098               0.000000000               0.305292729              -0.224445420               0.000000000               0.329631138              -0.243264743               0.000000000               0.353969547              -0.262084065               0.000000000               0.378307956              -0.280903388               0.000000000               0.402646365              -0.299722710               0.000000000               0.426984773              -0.318542033               0.000000000               0.451323182              -0.337361355               0.000000000               0.475661591              -0.356180678               0.000000000               0.500000000              -0.375000000               0.000000000               0.102810390              -0.084374307               0.000000000               0.127634741              -0.106444663               0.000000000               0.152459092              -0.128515018               0.000000000               0.177283442              -0.150585374               0.000000000               0.202107793              -0.172655730               0.000000000               0.226932143              -0.194726086               0.000000000               0.251756494              -0.216796442               0.000000000               0.276580845              -0.238866798               0.000000000               0.301405195              -0.260937153               0.000000000               0.326229546              -0.283007509               0.000000000               0.351053896              -0.305077865               0.000000000               0.375878247              -0.327148221               0.000000000               0.400702598              -0.349218577               0.000000000               0.425526948              -0.371288933               0.000000000               0.450351299              -0.393359288               0.000000000               0.475175649              -0.415429644               0.000000000               0.500000000              -0.437500000               0.000000000               0.094045202              -0.094045202               0.000000000               0.119417377              -0.119417377               0.000000000               0.144789552              -0.144789552               0.000000000               0.170161727              -0.170161727               0.000000000               0.195533901              -0.195533901               0.000000000               0.220906076              -0.220906076               0.000000000               0.246278251              -0.246278251               0.000000000               0.271650426              -0.271650426               0.000000000               0.297022601              -0.297022601               0.000000000               0.322394776              -0.322394776               0.000000000               0.347766951              -0.347766951               0.000000000               0.373139126              -0.373139126               0.000000000               0.398511300              -0.398511300               0.000000000               0.423883475              -0.423883475               0.000000000               0.449255650              -0.449255650               0.000000000               0.474627825              -0.474627825               0.000000000               0.500000000              -0.500000000               0.000000000               0.084374307              -0.102810390               0.000000000               0.106444663              -0.127634741               0.000000000               0.128515018              -0.152459092               0.000000000               0.150585374              -0.177283442               0.000000000               0.172655730              -0.202107793               0.000000000               0.194726086              -0.226932143               0.000000000               0.216796442              -0.251756494               0.000000000               0.238866798              -0.276580845               0.000000000               0.260937153              -0.301405195               0.000000000               0.283007509              -0.326229546               0.000000000               0.305077865              -0.351053896               0.000000000               0.327148221              -0.375878247               0.000000000               0.349218577              -0.400702598               0.000000000               0.371288933              -0.425526948               0.000000000               0.393359288              -0.450351299               0.000000000               0.415429644              -0.475175649               0.000000000               0.437500000              -0.500000000               0.000000000               0.073890841              -0.110585458               0.000000000               0.092710163              -0.134923867               0.000000000               0.111529486              -0.159262276               0.000000000               0.130348808              -0.183600685               0.000000000               0.149168131              -0.207939094               0.000000000               0.167987453              -0.232277503               0.000000000               0.186806776              -0.256615912               0.000000000               0.205626098              -0.280954320               0.000000000               0.224445420              -0.305292729               0.000000000               0.243264743              -0.329631138               0.000000000               0.262084065              -0.353969547               0.000000000               0.280903388              -0.378307956               0.000000000               0.299722710              -0.402646365               0.000000000               0.318542033              -0.426984773               0.000000000               0.337361355              -0.451323182               0.000000000               0.356180678              -0.475661591               0.000000000               0.375000000              -0.500000000               0.000000000               0.062695766              -0.117295528               0.000000000               0.078308531              -0.141214558               0.000000000               0.093921295              -0.165133587               0.000000000               0.109534060              -0.189052617               0.000000000               0.125146824              -0.212971646               0.000000000               0.140759589              -0.236890676               0.000000000               0.156372354              -0.260809705               0.000000000               0.171985118              -0.284728735               0.000000000               0.187597883              -0.308647764               0.000000000               0.203210648              -0.332566794               0.000000000               0.218823412              -0.356485823               0.000000000               0.234436177              -0.380404853               0.000000000               0.250048941              -0.404323882               0.000000000               0.265661706              -0.428242912               0.000000000               0.281274471              -0.452161941               0.000000000               0.296887235              -0.476080971               0.000000000               0.312500000              -0.500000000               0.000000000               0.050896897              -0.122875978               0.000000000               0.063340840              -0.146446229               0.000000000               0.075784784              -0.170016481               0.000000000               0.088228728              -0.193586732               0.000000000               0.100672672              -0.217156983               0.000000000               0.113116616              -0.240727235               0.000000000               0.125560560              -0.264297486               0.000000000               0.138004504              -0.287867738               0.000000000               0.150448448              -0.311437989               0.000000000               0.162892392              -0.335008240               0.000000000               0.175336336              -0.358578492               0.000000000               0.187780280              -0.382148743               0.000000000               0.200224224              -0.405718994               0.000000000               0.212668168              -0.429289246               0.000000000               0.225112112              -0.452859497               0.000000000               0.237556056              -0.476429749               0.000000000               0.250000000              -0.500000000               0.000000000               0.038607862              -0.127273065               0.000000000               0.047913621              -0.150568498               0.000000000               0.057219379              -0.173863932               0.000000000               0.066525138              -0.197159365               0.000000000               0.075830897              -0.220454798               0.000000000               0.085136655              -0.243750232               0.000000000               0.094442414              -0.267045665               0.000000000               0.103748172              -0.290341099               0.000000000               0.113053931              -0.313636532               0.000000000               0.122359690              -0.336931966               0.000000000               0.131665448              -0.360227399               0.000000000               0.140971207              -0.383522833               0.000000000               0.150276966              -0.406818266               0.000000000               0.159582724              -0.430113700               0.000000000               0.168888483              -0.453409133               0.000000000               0.178194241              -0.476704567               0.000000000               0.187500000              -0.500000000               0.000000000               0.025947013              -0.130444442               0.000000000               0.032137825              -0.153541665               0.000000000               0.038328636              -0.176638887               0.000000000               0.044519448              -0.199736109               0.000000000               0.050710260              -0.222833332               0.000000000               0.056901071              -0.245930554               0.000000000               0.063091883              -0.269027776               0.000000000               0.069282695              -0.292124999               0.000000000               0.075473506              -0.315222221               0.000000000               0.081664318              -0.338319444               0.000000000               0.087855130              -0.361416666               0.000000000               0.094045942              -0.384513888               0.000000000               0.100236753              -0.407611111               0.000000000               0.106427565              -0.430708333               0.000000000               0.112618377              -0.453805555               0.000000000               0.118809188              -0.476902778               0.000000000               0.125000000              -0.500000000               0.000000000               0.013036280              -0.132359569               0.000000000               0.016127762              -0.155337096               0.000000000               0.019219245              -0.178314623               0.000000000               0.022310727              -0.201292150               0.000000000               0.025402210              -0.224269676               0.000000000               0.028493692              -0.247247203               0.000000000               0.031585175              -0.270224730               0.000000000               0.034676657              -0.293202257               0.000000000               0.037768140              -0.316179784               0.000000000               0.040859622              -0.339157311               0.000000000               0.043951105              -0.362134838               0.000000000               0.047042587              -0.385112365               0.000000000               0.050134070              -0.408089892               0.000000000               0.053225552              -0.431067419               0.000000000               0.056317035              -0.454044946               0.000000000               0.059408517              -0.477022473               0.000000000               0.062500000              -0.500000000               0.000000000               0.000000000              -0.133000000               0.000000000               0.000000000              -0.155937500               0.000000000               0.000000000              -0.178875000               0.000000000               0.000000000              -0.201812500               0.000000000               0.000000000              -0.224750000               0.000000000               0.000000000              -0.247687500               0.000000000               0.000000000              -0.270625000               0.000000000               0.000000000              -0.293562500               0.000000000               0.000000000              -0.316500000               0.000000000               0.000000000              -0.339437500               0.000000000               0.000000000              -0.362375000               0.000000000               0.000000000              -0.385312500               0.000000000               0.000000000              -0.408250000               0.000000000               0.000000000              -0.431187500               0.000000000               0.000000000              -0.454125000               0.000000000               0.000000000              -0.477062500               0.000000000               0.000000000              -0.500000000               0.000000000              -0.133000000               0.000000000               0.000000000              -0.155937500               0.000000000               0.000000000              -0.178875000               0.000000000               0.000000000              -0.201812500               0.000000000               0.000000000              -0.224750000               0.000000000               0.000000000              -0.247687500               0.000000000               0.000000000              -0.270625000               0.000000000               0.000000000              -0.293562500               0.000000000               0.000000000              -0.316500000               0.000000000               0.000000000              -0.339437500               0.000000000               0.000000000              -0.362375000               0.000000000               0.000000000              -0.385312500               0.000000000               0.000000000              -0.408250000               0.000000000               0.000000000              -0.431187500               0.000000000               0.000000000              -0.454125000               0.000000000               0.000000000              -0.477062500               0.000000000               0.000000000              -0.500000000               0.000000000               0.000000000              -0.132359569              -0.013036280               0.000000000              -0.155337096              -0.016127762               0.000000000              -0.178314623              -0.019219245               0.000000000              -0.201292150              -0.022310727               0.000000000              -0.224269676              -0.025402210               0.000000000              -0.247247203              -0.028493692               0.000000000              -0.270224730              -0.031585175               0.000000000              -0.293202257              -0.034676657               0.000000000              -0.316179784              -0.037768140               0.000000000              -0.339157311              -0.040859622               0.000000000              -0.362134838              -0.043951105               0.000000000              -0.385112365              -0.047042587               0.000000000              -0.408089892              -0.050134070               0.000000000              -0.431067419              -0.053225552               0.000000000              -0.454044946              -0.056317035               0.000000000              -0.477022473              -0.059408517               0.000000000              -0.500000000              -0.062500000               0.000000000              -0.130444442              -0.025947013               0.000000000              -0.153541665              -0.032137825               0.000000000              -0.176638887              -0.038328636               0.000000000              -0.199736109              -0.044519448               0.000000000              -0.222833332              -0.050710260               0.000000000              -0.245930554              -0.056901071               0.000000000              -0.269027776              -0.063091883               0.000000000              -0.292124999              -0.069282695               0.000000000              -0.315222221              -0.075473506               0.000000000              -0.338319444              -0.081664318               0.000000000              -0.361416666              -0.087855130               0.000000000              -0.384513888              -0.094045942               0.000000000              -0.407611111              -0.100236753               0.000000000              -0.430708333              -0.106427565               0.000000000              -0.453805555              -0.112618377               0.000000000              -0.476902778              -0.118809188               0.000000000              -0.500000000              -0.125000000               0.000000000              -0.127273065              -0.038607862               0.000000000              -0.150568498              -0.047913621               0.000000000              -0.173863932              -0.057219379               0.000000000              -0.197159365              -0.066525138               0.000000000              -0.220454798              -0.075830897               0.000000000              -0.243750232              -0.085136655               0.000000000              -0.267045665              -0.094442414               0.000000000              -0.290341099              -0.103748172               0.000000000              -0.313636532              -0.113053931               0.000000000              -0.336931966              -0.122359690               0.000000000              -0.360227399              -0.131665448               0.000000000              -0.383522833              -0.140971207               0.000000000              -0.406818266              -0.150276966               0.000000000              -0.430113700              -0.159582724               0.000000000              -0.453409133              -0.168888483               0.000000000              -0.476704567              -0.178194241               0.000000000              -0.500000000              -0.187500000               0.000000000              -0.122875978              -0.050896897               0.000000000              -0.146446229              -0.063340840               0.000000000              -0.170016481              -0.075784784               0.000000000              -0.193586732              -0.088228728               0.000000000              -0.217156983              -0.100672672               0.000000000              -0.240727235              -0.113116616               0.000000000              -0.264297486              -0.125560560               0.000000000              -0.287867738              -0.138004504               0.000000000              -0.311437989              -0.150448448               0.000000000              -0.335008240              -0.162892392               0.000000000              -0.358578492              -0.175336336               0.000000000              -0.382148743              -0.187780280               0.000000000              -0.405718994              -0.200224224               0.000000000              -0.429289246              -0.212668168               0.000000000              -0.452859497              -0.225112112               0.000000000              -0.476429749              -0.237556056               0.000000000              -0.500000000              -0.250000000               0.000000000              -0.117295528              -0.062695766               0.000000000              -0.141214558              -0.078308531               0.000000000              -0.165133587              -0.093921295               0.000000000              -0.189052617              -0.109534060               0.000000000              -0.212971646              -0.125146824               0.000000000              -0.236890676              -0.140759589               0.000000000              -0.260809705              -0.156372354               0.000000000              -0.284728735              -0.171985118               0.000000000              -0.308647764              -0.187597883               0.000000000              -0.332566794              -0.203210648               0.000000000              -0.356485823              -0.218823412               0.000000000              -0.380404853              -0.234436177               0.000000000              -0.404323882              -0.250048941               0.000000000              -0.428242912              -0.265661706               0.000000000              -0.452161941              -0.281274471               0.000000000              -0.476080971              -0.296887235               0.000000000              -0.500000000              -0.312500000               0.000000000              -0.110585458              -0.073890841               0.000000000              -0.134923867              -0.092710163               0.000000000              -0.159262276              -0.111529486               0.000000000              -0.183600685              -0.130348808               0.000000000              -0.207939094              -0.149168131               0.000000000              -0.232277503              -0.167987453               0.000000000              -0.256615912              -0.186806776               0.000000000              -0.280954320              -0.205626098               0.000000000              -0.305292729              -0.224445420               0.000000000              -0.329631138              -0.243264743               0.000000000              -0.353969547              -0.262084065               0.000000000              -0.378307956              -0.280903388               0.000000000              -0.402646365              -0.299722710               0.000000000              -0.426984773              -0.318542033               0.000000000              -0.451323182              -0.337361355               0.000000000              -0.475661591              -0.356180678               0.000000000              -0.500000000              -0.375000000               0.000000000              -0.102810390              -0.084374307               0.000000000              -0.127634741              -0.106444663               0.000000000              -0.152459092              -0.128515018               0.000000000              -0.177283442              -0.150585374               0.000000000              -0.202107793              -0.172655730               0.000000000              -0.226932143              -0.194726086               0.000000000              -0.251756494              -0.216796442               0.000000000              -0.276580845              -0.238866798               0.000000000              -0.301405195              -0.260937153               0.000000000              -0.326229546              -0.283007509               0.000000000              -0.351053896              -0.305077865               0.000000000              -0.375878247              -0.327148221               0.000000000              -0.400702598              -0.349218577               0.000000000              -0.425526948              -0.371288933               0.000000000              -0.450351299              -0.393359288               0.000000000              -0.475175649              -0.415429644               0.000000000              -0.500000000              -0.437500000               0.000000000              -0.094045202              -0.094045202               0.000000000              -0.119417377              -0.119417377               0.000000000              -0.144789552              -0.144789552               0.000000000              -0.170161727              -0.170161727               0.000000000              -0.195533901              -0.195533901               0.000000000              -0.220906076              -0.220906076               0.000000000              -0.246278251              -0.246278251               0.000000000              -0.271650426              -0.271650426               0.000000000              -0.297022601              -0.297022601               0.000000000              -0.322394776              -0.322394776               0.000000000              -0.347766951              -0.347766951               0.000000000              -0.373139126              -0.373139126               0.000000000              -0.398511300              -0.398511300               0.000000000              -0.423883475              -0.423883475               0.000000000              -0.449255650              -0.449255650               0.000000000              -0.474627825              -0.474627825               0.000000000              -0.500000000              -0.500000000               0.000000000              -0.084374307              -0.102810390               0.000000000              -0.106444663              -0.127634741               0.000000000              -0.128515018              -0.152459092               0.000000000              -0.150585374              -0.177283442               0.000000000              -0.172655730              -0.202107793               0.000000000              -0.194726086              -0.226932143               0.000000000              -0.216796442              -0.251756494               0.000000000              -0.238866798              -0.276580845               0.000000000              -0.260937153              -0.301405195               0.000000000              -0.283007509              -0.326229546               0.000000000              -0.305077865              -0.351053896               0.000000000              -0.327148221              -0.375878247               0.000000000              -0.349218577              -0.400702598               0.000000000              -0.371288933              -0.425526948               0.000000000              -0.393359288              -0.450351299               0.000000000              -0.415429644              -0.475175649               0.000000000              -0.437500000              -0.500000000               0.000000000              -0.073890841              -0.110585458               0.000000000              -0.092710163              -0.134923867               0.000000000              -0.111529486              -0.159262276               0.000000000              -0.130348808              -0.183600685               0.000000000              -0.149168131              -0.207939094               0.000000000              -0.167987453              -0.232277503               0.000000000              -0.186806776              -0.256615912               0.000000000              -0.205626098              -0.280954320               0.000000000              -0.224445420              -0.305292729               0.000000000              -0.243264743              -0.329631138               0.000000000              -0.262084065              -0.353969547               0.000000000              -0.280903388              -0.378307956               0.000000000              -0.299722710              -0.402646365               0.000000000              -0.318542033              -0.426984773               0.000000000              -0.337361355              -0.451323182               0.000000000              -0.356180678              -0.475661591               0.000000000              -0.375000000              -0.500000000               0.000000000              -0.062695766              -0.117295528               0.000000000              -0.078308531              -0.141214558               0.000000000              -0.093921295              -0.165133587               0.000000000              -0.109534060              -0.189052617               0.000000000              -0.125146824              -0.212971646               0.000000000              -0.140759589              -0.236890676               0.000000000              -0.156372354              -0.260809705               0.000000000              -0.171985118              -0.284728735               0.000000000              -0.187597883              -0.308647764               0.000000000              -0.203210648              -0.332566794               0.000000000              -0.218823412              -0.356485823               0.000000000              -0.234436177              -0.380404853               0.000000000              -0.250048941              -0.404323882               0.000000000              -0.265661706              -0.428242912               0.000000000              -0.281274471              -0.452161941               0.000000000              -0.296887235              -0.476080971               0.000000000              -0.312500000              -0.500000000               0.000000000              -0.050896897              -0.122875978               0.000000000              -0.063340840              -0.146446229               0.000000000              -0.075784784              -0.170016481               0.000000000              -0.088228728              -0.193586732               0.000000000              -0.100672672              -0.217156983               0.000000000              -0.113116616              -0.240727235               0.000000000              -0.125560560              -0.264297486               0.000000000              -0.138004504              -0.287867738               0.000000000              -0.150448448              -0.311437989               0.000000000              -0.162892392              -0.335008240               0.000000000              -0.175336336              -0.358578492               0.000000000              -0.187780280              -0.382148743               0.000000000              -0.200224224              -0.405718994               0.000000000              -0.212668168              -0.429289246               0.000000000              -0.225112112              -0.452859497               0.000000000              -0.237556056              -0.476429749               0.000000000              -0.250000000              -0.500000000               0.000000000              -0.038607862              -0.127273065               0.000000000              -0.047913621              -0.150568498               0.000000000              -0.057219379              -0.173863932               0.000000000              -0.066525138              -0.197159365               0.000000000              -0.075830897              -0.220454798               0.000000000              -0.085136655              -0.243750232               0.000000000              -0.094442414              -0.267045665               0.000000000              -0.103748172              -0.290341099               0.000000000              -0.113053931              -0.313636532               0.000000000              -0.122359690              -0.336931966               0.000000000              -0.131665448              -0.360227399               0.000000000              -0.140971207              -0.383522833               0.000000000              -0.150276966              -0.406818266               0.000000000              -0.159582724              -0.430113700               0.000000000              -0.168888483              -0.453409133               0.000000000              -0.178194241              -0.476704567               0.000000000              -0.187500000              -0.500000000               0.000000000              -0.025947013              -0.130444442               0.000000000              -0.032137825              -0.153541665               0.000000000              -0.038328636              -0.176638887               0.000000000              -0.044519448              -0.199736109               0.000000000              -0.050710260              -0.222833332               0.000000000              -0.056901071              -0.245930554               0.000000000              -0.063091883              -0.269027776               0.000000000              -0.069282695              -0.292124999               0.000000000              -0.075473506              -0.315222221               0.000000000              -0.081664318              -0.338319444               0.000000000              -0.087855130              -0.361416666               0.000000000              -0.094045942              -0.384513888               0.000000000              -0.100236753              -0.407611111               0.000000000              -0.106427565              -0.430708333               0.000000000              -0.112618377              -0.453805555               0.000000000              -0.118809188              -0.476902778               0.000000000              -0.125000000              -0.500000000               0.000000000              -0.013036280              -0.132359569               0.000000000              -0.016127762              -0.155337096               0.000000000              -0.019219245              -0.178314623               0.000000000              -0.022310727              -0.201292150               0.000000000              -0.025402210              -0.224269676               0.000000000              -0.028493692              -0.247247203               0.000000000              -0.031585175              -0.270224730               0.000000000              -0.034676657              -0.293202257               0.000000000              -0.037768140              -0.316179784               0.000000000              -0.040859622              -0.339157311               0.000000000              -0.043951105              -0.362134838               0.000000000              -0.047042587              -0.385112365               0.000000000              -0.050134070              -0.408089892               0.000000000              -0.053225552              -0.431067419               0.000000000              -0.056317035              -0.454044946               0.000000000              -0.059408517              -0.477022473               0.000000000              -0.062500000              -0.500000000               0.000000000               0.000000000              -0.133000000               0.000000000               0.000000000              -0.155937500               0.000000000               0.000000000              -0.178875000               0.000000000               0.000000000              -0.201812500               0.000000000               0.000000000              -0.224750000               0.000000000               0.000000000              -0.247687500               0.000000000               0.000000000              -0.270625000               0.000000000               0.000000000              -0.293562500               0.000000000               0.000000000              -0.316500000               0.000000000               0.000000000              -0.339437500               0.000000000               0.000000000              -0.362375000               0.000000000               0.000000000              -0.385312500               0.000000000               0.000000000              -0.408250000               0.000000000               0.000000000              -0.431187500               0.000000000               0.000000000              -0.454125000               0.000000000               0.000000000              -0.477062500               0.000000000               0.000000000              -0.500000000               0.000000000              -0.133000000               0.000000000               0.000000000              -0.155937500               0.000000000               0.000000000              -0.178875000               0.000000000               0.000000000              -0.201812500               0.000000000               0.000000000              -0.224750000               0.000000000               0.000000000              -0.247687500               0.000000000               0.000000000              -0.270625000               0.000000000               0.000000000              -0.293562500               0.000000000               0.000000000              -0.316500000               0.000000000               0.000000000              -0.339437500               0.000000000               0.000000000              -0.362375000               0.000000000               0.000000000              -0.385312500               0.000000000               0.000000000              -0.408250000               0.000000000               0.000000000              -0.431187500               0.000000000               0.000000000              -0.454125000               0.000000000               0.000000000              -0.477062500               0.000000000               0.000000000              -0.500000000               0.000000000               0.000000000              -0.132359569               0.013036280               0.000000000              -0.155337096               0.016127762               0.000000000              -0.178314623               0.019219245               0.000000000              -0.201292150               0.022310727               0.000000000              -0.224269676               0.025402210               0.000000000              -0.247247203               0.028493692               0.000000000              -0.270224730               0.031585175               0.000000000              -0.293202257               0.034676657               0.000000000              -0.316179784               0.037768140               0.000000000              -0.339157311               0.040859622               0.000000000              -0.362134838               0.043951105               0.000000000              -0.385112365               0.047042587               0.000000000              -0.408089892               0.050134070               0.000000000              -0.431067419               0.053225552               0.000000000              -0.454044946               0.056317035               0.000000000              -0.477022473               0.059408517               0.000000000              -0.500000000               0.062500000               0.000000000              -0.130444442               0.025947013               0.000000000              -0.153541665               0.032137825               0.000000000              -0.176638887               0.038328636               0.000000000              -0.199736109               0.044519448               0.000000000              -0.222833332               0.050710260               0.000000000              -0.245930554               0.056901071               0.000000000              -0.269027776               0.063091883               0.000000000              -0.292124999               0.069282695               0.000000000              -0.315222221               0.075473506               0.000000000              -0.338319444               0.081664318               0.000000000              -0.361416666               0.087855130               0.000000000              -0.384513888               0.094045942               0.000000000              -0.407611111               0.100236753               0.000000000              -0.430708333               0.106427565               0.000000000              -0.453805555               0.112618377               0.000000000              -0.476902778               0.118809188               0.000000000              -0.500000000               0.125000000               0.000000000              -0.127273065               0.038607862               0.000000000              -0.150568498               0.047913621               0.000000000              -0.173863932               0.057219379               0.000000000              -0.197159365               0.066525138               0.000000000              -0.220454798               0.075830897               0.000000000              -0.243750232               0.085136655               0.000000000              -0.267045665               0.094442414               0.000000000              -0.290341099               0.103748172               0.000000000              -0.313636532               0.113053931               0.000000000              -0.336931966               0.122359690               0.000000000              -0.360227399               0.131665448               0.000000000              -0.383522833               0.140971207               0.000000000              -0.406818266               0.150276966               0.000000000              -0.430113700               0.159582724               0.000000000              -0.453409133               0.168888483               0.000000000              -0.476704567               0.178194241               0.000000000              -0.500000000               0.187500000               0.000000000              -0.122875978               0.050896897               0.000000000              -0.146446229               0.063340840               0.000000000              -0.170016481               0.075784784               0.000000000              -0.193586732               0.088228728               0.000000000              -0.217156983               0.100672672               0.000000000              -0.240727235               0.113116616               0.000000000              -0.264297486               0.125560560               0.000000000              -0.287867738               0.138004504               0.000000000              -0.311437989               0.150448448               0.000000000              -0.335008240               0.162892392               0.000000000              -0.358578492               0.175336336               0.000000000              -0.382148743               0.187780280               0.000000000              -0.405718994               0.200224224               0.000000000              -0.429289246               0.212668168               0.000000000              -0.452859497               0.225112112               0.000000000              -0.476429749               0.237556056               0.000000000              -0.500000000               0.250000000               0.000000000              -0.117295528               0.062695766               0.000000000              -0.141214558               0.078308531               0.000000000              -0.165133587               0.093921295               0.000000000              -0.189052617               0.109534060               0.000000000              -0.212971646               0.125146824               0.000000000              -0.236890676               0.140759589               0.000000000              -0.260809705               0.156372354               0.000000000              -0.284728735               0.171985118               0.000000000              -0.308647764               0.187597883               0.000000000              -0.332566794               0.203210648               0.000000000              -0.356485823               0.218823412               0.000000000              -0.380404853               0.234436177               0.000000000              -0.404323882               0.250048941               0.000000000              -0.428242912               0.265661706               0.000000000              -0.452161941               0.281274471               0.000000000              -0.476080971               0.296887235               0.000000000              -0.500000000               0.312500000               0.000000000              -0.110585458               0.073890841               0.000000000              -0.134923867               0.092710163               0.000000000              -0.159262276               0.111529486               0.000000000              -0.183600685               0.130348808               0.000000000              -0.207939094               0.149168131               0.000000000              -0.232277503               0.167987453               0.000000000              -0.256615912               0.186806776               0.000000000              -0.280954320               0.205626098               0.000000000              -0.305292729               0.224445420               0.000000000              -0.329631138               0.243264743               0.000000000              -0.353969547               0.262084065               0.000000000              -0.378307956               0.280903388               0.000000000              -0.402646365               0.299722710               0.000000000              -0.426984773               0.318542033               0.000000000              -0.451323182               0.337361355               0.000000000              -0.475661591               0.356180678               0.000000000              -0.500000000               0.375000000               0.000000000              -0.102810390               0.084374307               0.000000000              -0.127634741               0.106444663               0.000000000              -0.152459092               0.128515018               0.000000000              -0.177283442               0.150585374               0.000000000              -0.202107793               0.172655730               0.000000000              -0.226932143               0.194726086               0.000000000              -0.251756494               0.216796442               0.000000000              -0.276580845               0.238866798               0.000000000              -0.301405195               0.260937153               0.000000000              -0.326229546               0.283007509               0.000000000              -0.351053896               0.305077865               0.000000000              -0.375878247               0.327148221               0.000000000              -0.400702598               0.349218577               0.000000000              -0.425526948               0.371288933               0.000000000              -0.450351299               0.393359288               0.000000000              -0.475175649               0.415429644               0.000000000              -0.500000000               0.437500000               0.000000000              -0.094045202               0.094045202               0.000000000              -0.119417377               0.119417377               0.000000000              -0.144789552               0.144789552               0.000000000              -0.170161727               0.170161727               0.000000000              -0.195533901               0.195533901               0.000000000              -0.220906076               0.220906076               0.000000000              -0.246278251               0.246278251               0.000000000              -0.271650426               0.271650426               0.000000000              -0.297022601               0.297022601               0.000000000              -0.322394776               0.322394776               0.000000000              -0.347766951               0.347766951               0.000000000              -0.373139126               0.373139126               0.000000000              -0.398511300               0.398511300               0.000000000              -0.423883475               0.423883475               0.000000000              -0.449255650               0.449255650               0.000000000              -0.474627825               0.474627825               0.000000000              -0.500000000               0.500000000               0.000000000              -0.084374307               0.102810390               0.000000000              -0.106444663               0.127634741               0.000000000              -0.128515018               0.152459092               0.000000000              -0.150585374               0.177283442               0.000000000              -0.172655730               0.202107793               0.000000000              -0.194726086               0.226932143               0.000000000              -0.216796442               0.251756494               0.000000000              -0.238866798               0.276580845               0.000000000              -0.260937153               0.301405195               0.000000000              -0.283007509               0.326229546               0.000000000              -0.305077865               0.351053896               0.000000000              -0.327148221               0.375878247               0.000000000              -0.349218577               0.400702598               0.000000000              -0.371288933               0.425526948               0.000000000              -0.393359288               0.450351299               0.000000000              -0.415429644               0.475175649               0.000000000              -0.437500000               0.500000000               0.000000000              -0.073890841               0.110585458               0.000000000              -0.092710163               0.134923867               0.000000000              -0.111529486               0.159262276               0.000000000              -0.130348808               0.183600685               0.000000000              -0.149168131               0.207939094               0.000000000              -0.167987453               0.232277503               0.000000000              -0.186806776               0.256615912               0.000000000              -0.205626098               0.280954320               0.000000000              -0.224445420               0.305292729               0.000000000              -0.243264743               0.329631138               0.000000000              -0.262084065               0.353969547               0.000000000              -0.280903388               0.378307956               0.000000000              -0.299722710               0.402646365               0.000000000              -0.318542033               0.426984773               0.000000000              -0.337361355               0.451323182               0.000000000              -0.356180678               0.475661591               0.000000000              -0.375000000               0.500000000               0.000000000              -0.062695766               0.117295528               0.000000000              -0.078308531               0.141214558               0.000000000              -0.093921295               0.165133587               0.000000000              -0.109534060               0.189052617               0.000000000              -0.125146824               0.212971646               0.000000000              -0.140759589               0.236890676               0.000000000              -0.156372354               0.260809705               0.000000000              -0.171985118               0.284728735               0.000000000              -0.187597883               0.308647764               0.000000000              -0.203210648               0.332566794               0.000000000              -0.218823412               0.356485823               0.000000000              -0.234436177               0.380404853               0.000000000              -0.250048941               0.404323882               0.000000000              -0.265661706               0.428242912               0.000000000              -0.281274471               0.452161941               0.000000000              -0.296887235               0.476080971               0.000000000              -0.312500000               0.500000000               0.000000000              -0.050896897               0.122875978               0.000000000              -0.063340840               0.146446229               0.000000000              -0.075784784               0.170016481               0.000000000              -0.088228728               0.193586732               0.000000000              -0.100672672               0.217156983               0.000000000              -0.113116616               0.240727235               0.000000000              -0.125560560               0.264297486               0.000000000              -0.138004504               0.287867738               0.000000000              -0.150448448               0.311437989               0.000000000              -0.162892392               0.335008240               0.000000000              -0.175336336               0.358578492               0.000000000              -0.187780280               0.382148743               0.000000000              -0.200224224               0.405718994               0.000000000              -0.212668168               0.429289246               0.000000000              -0.225112112               0.452859497               0.000000000              -0.237556056               0.476429749               0.000000000              -0.250000000               0.500000000               0.000000000              -0.038607862               0.127273065               0.000000000              -0.047913621               0.150568498               0.000000000              -0.057219379               0.173863932               0.000000000              -0.066525138               0.197159365               0.000000000              -0.075830897               0.220454798               0.000000000              -0.085136655               0.243750232               0.000000000              -0.094442414               0.267045665               0.000000000              -0.103748172               0.290341099               0.000000000              -0.113053931               0.313636532               0.000000000              -0.122359690               0.336931966               0.000000000              -0.131665448               0.360227399               0.000000000              -0.140971207               0.383522833               0.000000000              -0.150276966               0.406818266               0.000000000              -0.159582724               0.430113700               0.000000000              -0.168888483               0.453409133               0.000000000              -0.178194241               0.476704567               0.000000000              -0.187500000               0.500000000               0.000000000              -0.025947013               0.130444442               0.000000000              -0.032137825               0.153541665               0.000000000              -0.038328636               0.176638887               0.000000000              -0.044519448               0.199736109               0.000000000              -0.050710260               0.222833332               0.000000000              -0.056901071               0.245930554               0.000000000              -0.063091883               0.269027776               0.000000000              -0.069282695               0.292124999               0.000000000              -0.075473506               0.315222221               0.000000000              -0.081664318               0.338319444               0.000000000              -0.087855130               0.361416666               0.000000000              -0.094045942               0.384513888               0.000000000              -0.100236753               0.407611111               0.000000000              -0.106427565               0.430708333               0.000000000              -0.112618377               0.453805555               0.000000000              -0.118809188               0.476902778               0.000000000              -0.125000000               0.500000000               0.000000000              -0.013036280               0.132359569               0.000000000              -0.016127762               0.155337096               0.000000000              -0.019219245               0.178314623               0.000000000              -0.022310727               0.201292150               0.000000000              -0.025402210               0.224269676               0.000000000              -0.028493692               0.247247203               0.000000000              -0.031585175               0.270224730               0.000000000              -0.034676657               0.293202257               0.000000000              -0.037768140               0.316179784               0.000000000              -0.040859622               0.339157311               0.000000000              -0.043951105               0.362134838               0.000000000              -0.047042587               0.385112365               0.000000000              -0.050134070               0.408089892               0.000000000              -0.053225552               0.431067419               0.000000000              -0.056317035               0.454044946               0.000000000              -0.059408517               0.477022473               0.000000000              -0.062500000               0.500000000               0.000000000               0.000000000               0.133000000               0.000000000               0.000000000               0.155937500               0.000000000               0.000000000               0.178875000               0.000000000               0.000000000               0.201812500               0.000000000               0.000000000               0.224750000               0.000000000               0.000000000               0.247687500               0.000000000               0.000000000               0.270625000               0.000000000               0.000000000               0.293562500               0.000000000               0.000000000               0.316500000               0.000000000               0.000000000               0.339437500               0.000000000               0.000000000               0.362375000               0.000000000               0.000000000               0.385312500               0.000000000               0.000000000               0.408250000               0.000000000               0.000000000               0.431187500               0.000000000               0.000000000               0.454125000               0.000000000               0.000000000               0.477062500               0.000000000               0.000000000               0.500000000               0.000000000 </DataArray>
</Points>
<Cells>
<DataArray type="Int32"                                    Name="connectivity"                                                      NumberOfComponents=" 1" format="ascii">
         0          1         18         17          1          2         19         18          2          3         20         19          3          4         21         20          4          5         22         21          5          6         23         22          6          7         24         23          7          8         25         24          8          9         26         25          9         10         27         26         10         11         28         27         11         12         29         28         12         13         30         29         13         14         31         30         14         15         32         31         15         16         33         32         17         18         35         34         18         19         36         35         19         20         37         36         20         21         38         37         21         22         39         38         22         23         40         39         23         24         41         40         24         25         42         41         25         26         43         42         26         27         44         43         27         28         45         44         28         29         46         45         29         30         47         46         30         31         48         47         31         32         49         48         32         33         50         49         34         35         52         51         35         36         53         52         36         37         54         53         37         38         55         54         38         39         56         55         39         40         57         56         40         41         58         57         41         42         59         58         42         43         60         59         43         44         61         60         44         45         62         61         45         46         63         62         46         47         64         63         47         48         65         64         48         49         66         65         49         50         67         66         51         52         69         68         52         53         70         69         53         54         71         70         54         55         72         71         55         56         73         72         56         57         74         73         57         58         75         74         58         59         76         75         59         60         77         76         60         61         78         77         61         62         79         78         62         63         80         79         63         64         81         80         64         65         82         81         65         66         83         82         66         67         84         83         68         69         86         85         69         70         87         86         70         71         88         87         71         72         89         88         72         73         90         89         73         74         91         90         74         75         92         91         75         76         93         92         76         77         94         93         77         78         95         94         78         79         96         95         79         80         97         96         80         81         98         97         81         82         99         98         82         83        100         99         83         84        101        100         85         86        103        102         86         87        104        103         87         88        105        104         88         89        106        105         89         90        107        106         90         91        108        107         91         92        109        108         92         93        110        109         93         94        111        110         94         95        112        111         95         96        113        112         96         97        114        113         97         98        115        114         98         99        116        115         99        100        117        116        100        101        118        117        102        103        120        119        103        104        121        120        104        105        122        121        105        106        123        122        106        107        124        123        107        108        125        124        108        109        126        125        109        110        127        126        110        111        128        127        111        112        129        128        112        113        130        129        113        114        131        130        114        115        132        131        115        116        133        132        116        117        134        133        117        118        135        134        119        120        137        136        120        121        138        137        121        122        139        138        122        123        140        139        123        124        141        140        124        125        142        141        125        126        143        142        126        127        144        143        127        128        145        144        128        129        146        145        129        130        147        146        130        131        148        147        131        132        149        148        132        133        150        149        133        134        151        150        134        135        152        151        136        137        154        153        137        138        155        154        138        139        156        155        139        140        157        156        140        141        158        157        141        142        159        158        142        143        160        159        143        144        161        160        144        145        162        161        145        146        163        162        146        147        164        163        147        148        165        164        148        149        166        165        149        150        167        166        150        151        168        167        151        152        169        168        153        154        171        170        154        155        172        171        155        156        173        172        156        157        174        173        157        158        175        174        158        159        176        175        159        160        177        176        160        161        178        177        161        162        179        178        162        163        180        179        163        164        181        180        164        165        182        181        165        166        183        182        166        167        184        183        167        168        185        184        168        169        186        185        170        171        188        187        171        172        189        188        172        173        190        189        173        174        191        190        174        175        192        191        175        176        193        192        176        177        194        193        177        178        195        194        178        179        196        195        179        180        197        196        180        181        198        197        181        182        199        198        182        183        200        199        183        184        201        200        184        185        202        201        185        186        203        202        187        188        205        204        188        189        206        205        189        190        207        206        190        191        208        207        191        192        209        208        192        193        210        209        193        194        211        210        194        195        212        211        195        196        213        212        196        197        214        213        197        198        215        214        198        199        216        215        199        200        217        216        200        201        218        217        201        202        219        218        202        203        220        219        204        205        222        221        205        206        223        222        206        207        224        223        207        208        225        224        208        209        226        225        209        210        227        226        210        211        228        227        211        212        229        228        212        213        230        229        213        214        231        230        214        215        232        231        215        216        233        232        216        217        234        233        217        218        235        234        218        219        236        235        219        220        237        236        221        222        239        238        222        223        240        239        223        224        241        240        224        225        242        241        225        226        243        242        226        227        244        243        227        228        245        244        228        229        246        245        229        230        247        246        230        231        248        247        231        232        249        248        232        233        250        249        233        234        251        250        234        235        252        251        235        236        253        252        236        237        254        253        238        239        256        255        239        240        257        256        240        241        258        257        241        242        259        258        242        243        260        259        243        244        261        260        244        245        262        261        245        246        263        262        246        247        264        263        247        248        265        264        248        249        266        265        249        250        267        266        250        251        268        267        251        252        269        268        252        253        270        269        253        254        271        270        255        256        273        272        256        257        274        273        257        258        275        274        258        259        276        275        259        260        277        276        260        261        278        277        261        262        279        278        262        263        280        279        263        264        281        280        264        265        282        281        265        266        283        282        266        267        284        283        267        268        285        284        268        269        286        285        269        270        287        286        270        271        288        287        306        307          1          0        307        308          2          1        308        309          3          2        309        310          4          3        310        311          5          4        311        312          6          5        312        313          7          6        313        314          8          7        314        315          9          8        315        316         10          9        316        317         11         10        317        318         12         11        318        319         13         12        319        320         14         13        320        321         15         14        321        322         16         15        323        324        307        306        324        325        308        307        325        326        309        308        326        327        310        309        327        328        311        310        328        329        312        311        329        330        313        312        330        331        314        313        331        332        315        314        332        333        316        315        333        334        317        316        334        335        318        317        335        336        319        318        336        337        320        319        337        338        321        320        338        339        322        321        340        341        324        323        341        342        325        324        342        343        326        325        343        344        327        326        344        345        328        327        345        346        329        328        346        347        330        329        347        348        331        330        348        349        332        331        349        350        333        332        350        351        334        333        351        352        335        334        352        353        336        335        353        354        337        336        354        355        338        337        355        356        339        338        357        358        341        340        358        359        342        341        359        360        343        342        360        361        344        343        361        362        345        344        362        363        346        345        363        364        347        346        364        365        348        347        365        366        349        348        366        367        350        349        367        368        351        350        368        369        352        351        369        370        353        352        370        371        354        353        371        372        355        354        372        373        356        355        374        375        358        357        375        376        359        358        376        377        360        359        377        378        361        360        378        379        362        361        379        380        363        362        380        381        364        363        381        382        365        364        382        383        366        365        383        384        367        366        384        385        368        367        385        386        369        368        386        387        370        369        387        388        371        370        388        389        372        371        389        390        373        372        391        392        375        374        392        393        376        375        393        394        377        376        394        395        378        377        395        396        379        378        396        397        380        379        397        398        381        380        398        399        382        381        399        400        383        382        400        401        384        383        401        402        385        384        402        403        386        385        403        404        387        386        404        405        388        387        405        406        389        388        406        407        390        389        408        409        392        391        409        410        393        392        410        411        394        393        411        412        395        394        412        413        396        395        413        414        397        396        414        415        398        397        415        416        399        398        416        417        400        399        417        418        401        400        418        419        402        401        419        420        403        402        420        421        404        403        421        422        405        404        422        423        406        405        423        424        407        406        425        426        409        408        426        427        410        409        427        428        411        410        428        429        412        411        429        430        413        412        430        431        414        413        431        432        415        414        432        433        416        415        433        434        417        416        434        435        418        417        435        436        419        418        436        437        420        419        437        438        421        420        438        439        422        421        439        440        423        422        440        441        424        423        442        443        426        425        443        444        427        426        444        445        428        427        445        446        429        428        446        447        430        429        447        448        431        430        448        449        432        431        449        450        433        432        450        451        434        433        451        452        435        434        452        453        436        435        453        454        437        436        454        455        438        437        455        456        439        438        456        457        440        439        457        458        441        440        459        460        443        442        460        461        444        443        461        462        445        444        462        463        446        445        463        464        447        446        464        465        448        447        465        466        449        448        466        467        450        449        467        468        451        450        468        469        452        451        469        470        453        452        470        471        454        453        471        472        455        454        472        473        456        455        473        474        457        456        474        475        458        457        476        477        460        459        477        478        461        460        478        479        462        461        479        480        463        462        480        481        464        463        481        482        465        464        482        483        466        465        483        484        467        466        484        485        468        467        485        486        469        468        486        487        470        469        487        488        471        470        488        489        472        471        489        490        473        472        490        491        474        473        491        492        475        474        493        494        477        476        494        495        478        477        495        496        479        478        496        497        480        479        497        498        481        480        498        499        482        481        499        500        483        482        500        501        484        483        501        502        485        484        502        503        486        485        503        504        487        486        504        505        488        487        505        506        489        488        506        507        490        489        507        508        491        490        508        509        492        491        510        511        494        493        511        512        495        494        512        513        496        495        513        514        497        496        514        515        498        497        515        516        499        498        516        517        500        499        517        518        501        500        518        519        502        501        519        520        503        502        520        521        504        503        521        522        505        504        522        523        506        505        523        524        507        506        524        525        508        507        525        526        509        508        527        528        511        510        528        529        512        511        529        530        513        512        530        531        514        513        531        532        515        514        532        533        516        515        533        534        517        516        534        535        518        517        535        536        519        518        536        537        520        519        537        538        521        520        538        539        522        521        539        540        523        522        540        541        524        523        541        542        525        524        542        543        526        525        544        545        528        527        545        546        529        528        546        547        530        529        547        548        531        530        548        549        532        531        549        550        533        532        550        551        534        533        551        552        535        534        552        553        536        535        553        554        537        536        554        555        538        537        555        556        539        538        556        557        540        539        557        558        541        540        558        559        542        541        559        560        543        542        561        562        545        544        562        563        546        545        563        564        547        546        564        565        548        547        565        566        549        548        566        567        550        549        567        568        551        550        568        569        552        551        569        570        553        552        570        571        554        553        571        572        555        554        572        573        556        555        573        574        557        556        574        575        558        557        575        576        559        558        576        577        560        559        578        579        596        595        579        580        597        596        580        581        598        597        581        582        599        598        582        583        600        599        583        584        601        600        584        585        602        601        585        586        603        602        586        587        604        603        587        588        605        604        588        589        606        605        589        590        607        606        590        591        608        607        591        592        609        608        592        593        610        609        593        594        611        610        595        596        613        612        596        597        614        613        597        598        615        614        598        599        616        615        599        600        617        616        600        601        618        617        601        602        619        618        602        603        620        619        603        604        621        620        604        605        622        621        605        606        623        622        606        607        624        623        607        608        625        624        608        609        626        625        609        610        627        626        610        611        628        627        612        613        630        629        613        614        631        630        614        615        632        631        615        616        633        632        616        617        634        633        617        618        635        634        618        619        636        635        619        620        637        636        620        621        638        637        621        622        639        638        622        623        640        639        623        624        641        640        624        625        642        641        625        626        643        642        626        627        644        643        627        628        645        644        629        630        647        646        630        631        648        647        631        632        649        648        632        633        650        649        633        634        651        650        634        635        652        651        635        636        653        652        636        637        654        653        637        638        655        654        638        639        656        655        639        640        657        656        640        641        658        657        641        642        659        658        642        643        660        659        643        644        661        660        644        645        662        661        646        647        664        663        647        648        665        664        648        649        666        665        649        650        667        666        650        651        668        667        651        652        669        668        652        653        670        669        653        654        671        670        654        655        672        671        655        656        673        672        656        657        674        673        657        658        675        674        658        659        676        675        659        660        677        676        660        661        678        677        661        662        679        678        663        664        681        680        664        665        682        681        665        666        683        682        666        667        684        683        667        668        685        684        668        669        686        685        669        670        687        686        670        671        688        687        671        672        689        688        672        673        690        689        673        674        691        690        674        675        692        691        675        676        693        692        676        677        694        693        677        678        695        694        678        679        696        695        680        681        698        697        681        682        699        698        682        683        700        699        683        684        701        700        684        685        702        701        685        686        703        702        686        687        704        703        687        688        705        704        688        689        706        705        689        690        707        706        690        691        708        707        691        692        709        708        692        693        710        709        693        694        711        710        694        695        712        711        695        696        713        712        697        698        715        714        698        699        716        715        699        700        717        716        700        701        718        717        701        702        719        718        702        703        720        719        703        704        721        720        704        705        722        721        705        706        723        722        706        707        724        723        707        708        725        724        708        709        726        725        709        710        727        726        710        711        728        727        711        712        729        728        712        713        730        729        714        715        732        731        715        716        733        732        716        717        734        733        717        718        735        734        718        719        736        735        719        720        737        736        720        721        738        737        721        722        739        738        722        723        740        739        723        724        741        740        724        725        742        741        725        726        743        742        726        727        744        743        727        728        745        744        728        729        746        745        729        730        747        746        731        732        749        748        732        733        750        749        733        734        751        750        734        735        752        751        735        736        753        752        736        737        754        753        737        738        755        754        738        739        756        755        739        740        757        756        740        741        758        757        741        742        759        758        742        743        760        759        743        744        761        760        744        745        762        761        745        746        763        762        746        747        764        763        748        749        766        765        749        750        767        766        750        751        768        767        751        752        769        768        752        753        770        769        753        754        771        770        754        755        772        771        755        756        773        772        756        757        774        773        757        758        775        774        758        759        776        775        759        760        777        776        760        761        778        777        761        762        779        778        762        763        780        779        763        764        781        780        765        766        783        782        766        767        784        783        767        768        785        784        768        769        786        785        769        770        787        786        770        771        788        787        771        772        789        788        772        773        790        789        773        774        791        790        774        775        792        791        775        776        793        792        776        777        794        793        777        778        795        794        778        779        796        795        779        780        797        796        780        781        798        797        782        783        800        799        783        784        801        800        784        785        802        801        785        786        803        802        786        787        804        803        787        788        805        804        788        789        806        805        789        790        807        806        790        791        808        807        791        792        809        808        792        793        810        809        793        794        811        810        794        795        812        811        795        796        813        812        796        797        814        813        797        798        815        814        799        800        817        816        800        801        818        817        801        802        819        818        802        803        820        819        803        804        821        820        804        805        822        821        805        806        823        822        806        807        824        823        807        808        825        824        808        809        826        825        809        810        827        826        810        811        828        827        811        812        829        828        812        813        830        829        813        814        831        830        814        815        832        831        816        817        834        833        817        818        835        834        818        819        836        835        819        820        837        836        820        821        838        837        821        822        839        838        822        823        840        839        823        824        841        840        824        825        842        841        825        826        843        842        826        827        844        843        827        828        845        844        828        829        846        845        829        830        847        846        830        831        848        847        831        832        849        848        833        834        562        561        834        835        563        562        835        836        564        563        836        837        565        564        837        838        566        565        838        839        567        566        839        840        568        567        840        841        569        568        841        842        570        569        842        843        571        570        843        844        572        571        844        845        573        572        845        846        574        573        846        847        575        574        847        848        576        575        848        849        577        576        884        885        579        578        885        886        580        579        886        887        581        580        887        888        582        581        888        889        583        582        889        890        584        583        890        891        585        584        891        892        586        585        892        893        587        586        893        894        588        587        894        895        589        588        895        896        590        589        896        897        591        590        897        898        592        591        898        899        593        592        899        900        594        593        901        902        885        884        902        903        886        885        903        904        887        886        904        905        888        887        905        906        889        888        906        907        890        889        907        908        891        890        908        909        892        891        909        910        893        892        910        911        894        893        911        912        895        894        912        913        896        895        913        914        897        896        914        915        898        897        915        916        899        898        916        917        900        899        918        919        902        901        919        920        903        902        920        921        904        903        921        922        905        904        922        923        906        905        923        924        907        906        924        925        908        907        925        926        909        908        926        927        910        909        927        928        911        910        928        929        912        911        929        930        913        912        930        931        914        913        931        932        915        914        932        933        916        915        933        934        917        916        935        936        919        918        936        937        920        919        937        938        921        920        938        939        922        921        939        940        923        922        940        941        924        923        941        942        925        924        942        943        926        925        943        944        927        926        944        945        928        927        945        946        929        928        946        947        930        929        947        948        931        930        948        949        932        931        949        950        933        932        950        951        934        933        952        953        936        935        953        954        937        936        954        955        938        937        955        956        939        938        956        957        940        939        957        958        941        940        958        959        942        941        959        960        943        942        960        961        944        943        961        962        945        944        962        963        946        945        963        964        947        946        964        965        948        947        965        966        949        948        966        967        950        949        967        968        951        950        969        970        953        952        970        971        954        953        971        972        955        954        972        973        956        955        973        974        957        956        974        975        958        957        975        976        959        958        976        977        960        959        977        978        961        960        978        979        962        961        979        980        963        962        980        981        964        963        981        982        965        964        982        983        966        965        983        984        967        966        984        985        968        967        986        987        970        969        987        988        971        970        988        989        972        971        989        990        973        972        990        991        974        973        991        992        975        974        992        993        976        975        993        994        977        976        994        995        978        977        995        996        979        978        996        997        980        979        997        998        981        980        998        999        982        981        999       1000        983        982       1000       1001        984        983       1001       1002        985        984       1003       1004        987        986       1004       1005        988        987       1005       1006        989        988       1006       1007        990        989       1007       1008        991        990       1008       1009        992        991       1009       1010        993        992       1010       1011        994        993       1011       1012        995        994       1012       1013        996        995       1013       1014        997        996       1014       1015        998        997       1015       1016        999        998       1016       1017       1000        999       1017       1018       1001       1000       1018       1019       1002       1001       1020       1021       1004       1003       1021       1022       1005       1004       1022       1023       1006       1005       1023       1024       1007       1006       1024       1025       1008       1007       1025       1026       1009       1008       1026       1027       1010       1009       1027       1028       1011       1010       1028       1029       1012       1011       1029       1030       1013       1012       1030       1031       1014       1013       1031       1032       1015       1014       1032       1033       1016       1015       1033       1034       1017       1016       1034       1035       1018       1017       1035       1036       1019       1018       1037       1038       1021       1020       1038       1039       1022       1021       1039       1040       1023       1022       1040       1041       1024       1023       1041       1042       1025       1024       1042       1043       1026       1025       1043       1044       1027       1026       1044       1045       1028       1027       1045       1046       1029       1028       1046       1047       1030       1029       1047       1048       1031       1030       1048       1049       1032       1031       1049       1050       1033       1032       1050       1051       1034       1033       1051       1052       1035       1034       1052       1053       1036       1035       1054       1055       1038       1037       1055       1056       1039       1038       1056       1057       1040       1039       1057       1058       1041       1040       1058       1059       1042       1041       1059       1060       1043       1042       1060       1061       1044       1043       1061       1062       1045       1044       1062       1063       1046       1045       1063       1064       1047       1046       1064       1065       1048       1047       1065       1066       1049       1048       1066       1067       1050       1049       1067       1068       1051       1050       1068       1069       1052       1051       1069       1070       1053       1052       1071       1072       1055       1054       1072       1073       1056       1055       1073       1074       1057       1056       1074       1075       1058       1057       1075       1076       1059       1058       1076       1077       1060       1059       1077       1078       1061       1060       1078       1079       1062       1061       1079       1080       1063       1062       1080       1081       1064       1063       1081       1082       1065       1064       1082       1083       1066       1065       1083       1084       1067       1066       1084       1085       1068       1067       1085       1086       1069       1068       1086       1087       1070       1069       1088       1089       1072       1071       1089       1090       1073       1072       1090       1091       1074       1073       1091       1092       1075       1074       1092       1093       1076       1075       1093       1094       1077       1076       1094       1095       1078       1077       1095       1096       1079       1078       1096       1097       1080       1079       1097       1098       1081       1080       1098       1099       1082       1081       1099       1100       1083       1082       1100       1101       1084       1083       1101       1102       1085       1084       1102       1103       1086       1085       1103       1104       1087       1086       1105       1106       1089       1088       1106       1107       1090       1089       1107       1108       1091       1090       1108       1109       1092       1091       1109       1110       1093       1092       1110       1111       1094       1093       1111       1112       1095       1094       1112       1113       1096       1095       1113       1114       1097       1096       1114       1115       1098       1097       1115       1116       1099       1098       1116       1117       1100       1099       1117       1118       1101       1100       1118       1119       1102       1101       1119       1120       1103       1102       1120       1121       1104       1103       1122       1123       1106       1105       1123       1124       1107       1106       1124       1125       1108       1107       1125       1126       1109       1108       1126       1127       1110       1109       1127       1128       1111       1110       1128       1129       1112       1111       1129       1130       1113       1112       1130       1131       1114       1113       1131       1132       1115       1114       1132       1133       1116       1115       1133       1134       1117       1116       1134       1135       1118       1117       1135       1136       1119       1118       1136       1137       1120       1119       1137       1138       1121       1120        272        273       1123       1122        273        274       1124       1123        274        275       1125       1124        275        276       1126       1125        276        277       1127       1126        277        278       1128       1127        278        279       1129       1128        279        280       1130       1129        280        281       1131       1130        281        282       1132       1131        282        283       1133       1132        283        284       1134       1133        284        285       1135       1134        285        286       1136       1135        286        287       1137       1136        287        288       1138       1137 </DataArray>
<DataArray type="Int32"                                    Name="offsets"                                                      NumberOfComponents=" 1" format="ascii">
         4          8         12         16         20         24         28         32         36         40         44         48         52         56         60         64         68         72         76         80         84         88         92         96        100        104        108        112        116        120        124        128        132        136        140        144        148        152        156        160        164        168        172        176        180        184        188        192        196        200        204        208        212        216        220        224        228        232        236        240        244        248        252        256        260        264        268        272        276        280        284        288        292        296        300        304        308        312        316        320        324        328        332        336        340        344        348        352        356        360        364        368        372        376        380        384        388        392        396        400        404        408        412        416        420        424        428        432        436        440        444        448        452        456        460        464        468        472        476        480        484        488        492        496        500        504        508        512        516        520        524        528        532        536        540        544        548        552        556        560        564        568        572        576        580        584        588        592        596        600        604        608        612        616        620        624        628        632        636        640        644        648        652        656        660        664        668        672        676        680        684        688        692        696        700        704        708        712        716        720        724        728        732        736        740        744        748        752        756        760        764        768        772        776        780        784        788        792        796        800        804        808        812        816        820        824        828        832        836        840        844        848        852        856        860        864        868        872        876        880        884        888        892        896        900        904        908        912        916        920        924        928        932        936        940        944        948        952        956        960        964        968        972        976        980        984        988        992        996       1000       1004       1008       1012       1016       1020       1024       1028       1032       1036       1040       1044       1048       1052       1056       1060       1064       1068       1072       1076       1080       1084       1088       1092       1096       1100       1104       1108       1112       1116       1120       1124       1128       1132       1136       1140       1144       1148       1152       1156       1160       1164       1168       1172       1176       1180       1184       1188       1192       1196       1200       1204       1208       1212       1216       1220       1224       1228       1232       1236       1240       1244       1248       1252       1256       1260       1264       1268       1272       1276       1280       1284       1288       1292       1296       1300       1304       1308       1312       1316       1320       1324       1328       1332       1336       1340       1344       1348       1352       1356       1360       1364       1368       1372       1376       1380       1384       1388       1392       1396       1400       1404       1408       1412       1416       1420       1424       1428       1432       1436       1440       1444       1448       1452       1456       1460       1464       1468       1472       1476       1480       1484       1488       1492       1496       1500       1504       1508       1512       1516       1520       1524       1528       1532       1536       1540       1544       1548       1552       1556       1560       1564       1568       1572       1576       1580       1584       1588       1592       1596       1600       1604       1608       1612       1616       1620       1624       1628       1632       1636       1640       1644       1648       1652       1656       1660       1664       1668       1672       1676       1680       1684       1688       1692       1696       1700       1704       1708       1712       1716       1720       1724       1728       1732       1736       1740       1744       1748       1752       1756       1760       1764       1768       1772       1776       1780       1784       1788       1792       1796       1800       1804       1808       1812       1816       1820       1824       1828       1832       1836       1840       1844       1848       1852       1856       1860       1864       1868       1872       1876       1880       1884       1888       1892       1896       1900       1904       1908       1912       1916       1920       1924       1928       1932       1936       1940       1944       1948       1952       1956       1960       1964       1968       1972       1976       1980       1984       1988       1992       1996       2000       2004       2008       2012       2016       2020       2024       2028       2032       2036       2040       2044       2048       2052       2056       2060       2064       2068       2072       2076       2080       2084       2088       2092       2096       2100       2104       2108       2112       2116       2120       2124       2128       2132       2136       2140       2144       2148       2152       2156       2160       2164       2168       2172       2176       2180       2184       2188       2192       2196       2200       2204       2208       2212       2216       2220       2224       2228       2232       2236       2240       2244       2248       2252       2256       2260       2264       2268       2272       2276       2280       2284       2288       2292       2296       2300       2304       2308       2312       2316       2320       2324       2328       2332       2336       2340       2344       2348       2352       2356       2360       2364       2368       2372       2376       2380       2384       2388       2392       2396       2400       2404       2408       2412       2416       2420       2424       2428       2432       2436       2440       2444       2448       2452       2456       2460       2464       2468       2472       2476       2480       2484       2488       2492       2496       2500       2504       2508       2512       2516       2520       2524       2528       2532       2536       2540       2544       2548       2552       2556       2560       2564       2568       2572       2576       2580       2584       2588       2592       2596       2600       2604       2608       2612       2616       2620       2624       2628       2632       2636       2640       2644       2648       2652       2656       2660       2664       2668       2672       2676       2680       2684       2688       2692       2696       2700       2704       2708       2712       2716       2720       2724       2728       2732       2736       2740       2744       2748       2752       2756       2760       2764       2768       2772       2776       2780       2784       2788       2792       2796       2800       2804       2808       2812       2816       2820       2824       2828       2832       2836       2840       2844       2848       2852       2856       2860       2864       2868       2872       2876       2880       2884       2888       2892       2896       2900       2904       2908       2912       2916       2920       2924       2928       2932       2936       2940       2944       2948       2952       2956       2960       2964       2968       2972       2976       2980       2984       2988       2992       2996       3000       3004       3008       3012       3016       3020       3024       3028       3032       3036       3040       3044       3048       3052       3056       3060       3064       3068       3072       3076       3080       3084       3088       3092       3096       3100       3104       3108       3112       3116       3120       3124       3128       3132       3136       3140       3144       3148       3152       3156       3160       3164       3168       3172       3176       3180       3184       3188       3192       3196       3200       3204       3208       3212       3216       3220       3224       3228       3232       3236       3240       3244       3248       3252       3256       3260       3264       3268       3272       3276       3280       3284       3288       3292       3296       3300       3304       3308       3312       3316       3320       3324       3328       3332       3336       3340       3344       3348       3352       3356       3360       3364       3368       3372       3376       3380       3384       3388       3392       3396       3400       3404       3408       3412       3416       3420       3424       3428       3432       3436       3440       3444       3448       3452       3456       3460       3464       3468       3472       3476       3480       3484       3488       3492       3496       3500       3504       3508       3512       3516       3520       3524       3528       3532       3536       3540       3544       3548       3552       3556       3560       3564       3568       3572       3576       3580       3584       3588       3592       3596       3600       3604       3608       3612       3616       3620       3624       3628       3632       3636       3640       3644       3648       3652       3656       3660       3664       3668       3672       3676       3680       3684       3688       3692       3696       3700       3704       3708       3712       3716       3720       3724       3728       3732       3736       3740       3744       3748       3752       3756       3760       3764       3768       3772       3776       3780       3784       3788       3792       3796       3800       3804       3808       3812       3816       3820       3824       3828       3832       3836       3840       3844       3848       3852       3856       3860       3864       3868       3872       3876       3880       3884       3888       3892       3896       3900       3904       3908       3912       3916       3920       3924       3928       3932       3936       3940       3944       3948       3952       3956       3960       3964       3968       3972       3976       3980       3984       3988       3992       3996       4000       4004       4008       4012       4016       4020       4024       4028       4032       4036       4040       4044       4048       4052       4056       4060       4064       4068       4072       4076       4080       4084       4088       4092       4096 </DataArray>
<DataArray type="UInt8"                                    Name="types"                                                      NumberOfComponents=" 1" format="ascii">
         9          9          9          9          9          9          9          9          9          9          9          9          9          9          9          9          9          9          9          9          9          9          9          9          9          9          9          9          9          9          9          9          9          9          9          9          9          9          9          9          9          9          9          9          9          9          9          9          9          9          9          9          9          9          9          9          9          9          9          9          9          9          9          9          9          9          9          9          9          9          9          9          9          9          9          9          9          9          9          9          9          9          9          9          9          9          9          9          9          9          9          9          9          9          9          9          9          9          9          9          9          9          9          9          9          9          9          9          9          9          9          9          9          9          9          9          9          9          9          9          9          9          9          9          9          9          9          9          9          9          9          9          9          9          9          9          9          9          9          9          9          9          9          9          9          9          9          9          9          9          9          9          9          9          9          9          9          9          9          9          9          9          9          9          9          9          9          9          9          9          9          9          9          9          9          9          9          9          9          9          9          9          9          9          9          9          9          9          9          9          9          9          9          9          9          9          9          9          9          9          9          9          9          9          9          9          9          9          9          9          9          9          9          9          9          9          9          9          9          9          9          9          9          9          9          9          9          9          9          9          9          9          9          9          9          9          9          9          9          9          9          9          9          9          9          9          9          9          9          9          9          9          9          9          9          9          9          9          9          9          9          9          9          9          9          9          9          9          9          9          9          9          9          9          9          9          9          9          9          9          9          9          9          9          9          9          9          9          9          9          9          9          9          9          9          9          9          9          9          9          9          9          9          9          9          9          9          9          9          9          9          9          9          9          9          9          9          9          9          9          9          9          9          9          9          9          9          9          9          9          9          9          9          9          9          9          9          9          9          9          9          9          9          9          9          9          9          9          9          9          9          9          9          9          9          9          9          9          9          9          9          9          9          9          9          9          9          9          9          9          9          9          9          9          9          9          9          9          9          9          9          9          9          9          9          9          9          9          9          9          9          9          9          9          9          9          9          9          9          9          9          9          9          9          9          9          9          9          9          9          9          9          9          9          9          9          9          9          9          9          9          9          9          9          9          9          9          9          9          9          9          9          9          9          9          9          9          9          9          9          9          9          9          9          9          9          9          9          9          9          9          9          9          9          9          9          9          9          9          9          9          9          9          9          9          9          9          9          9          9          9          9          9          9          9          9          9          9          9          9          9          9          9          9          9          9          9          9          9          9          9          9          9          9          9          9          9          9          9          9          9          9          9          9          9          9          9          9          9          9          9          9          9          9          9          9          9          9          9          9          9          9          9          9          9          9          9          9          9          9          9          9          9          9          9          9          9          9          9          9          9          9          9          9          9          9          9          9          9          9          9          9          9          9          9          9          9          9          9          9          9          9          9          9          9          9          9          9          9          9          9          9          9          9          9          9          9          9          9          9          9          9          9          9          9          9          9          9          9          9          9          9          9          9          9          9          9          9          9          9          9          9          9          9          9          9          9          9          9          9          9          9          9          9          9          9          9          9          9          9          9          9          9          9          9          9          9          9          9          9          9          9          9          9          9          9          9          9          9          9          9          9          9          9          9          9          9          9          9          9          9          9          9          9          9          9          9          9          9          9          9          9          9          9          9          9          9          9          9          9          9          9          9          9          9          9          9          9          9          9          9          9          9          9          9          9          9          9          9          9          9          9          9          9          9          9          9          9          9          9          9          9          9          9          9          9          9          9          9          9          9          9          9          9          9          9          9          9          9          9          9          9          9          9          9          9          9          9          9          9          9          9          9          9          9          9          9          9          9          9          9          9          9          9          9          9          9          9          9          9          9          9          9          9          9          9          9          9          9          9          9          9          9          9          9          9          9          9          9          9          9          9          9          9          9          9          9          9          9          9          9          9          9          9          9          9          9          9          9          9          9          9          9          9          9          9          9          9          9          9          9          9          9          9          9          9          9          9          9          9          9          9          9          9          9          9          9          9          9          9          9          9          9          9          9          9          9          9          9          9          9          9          9          9          9          9          9          9          9          9          9          9          9          9          9          9          9          9          9          9          9          9          9          9          9          9          9          9          9          9          9          9          9          9          9          9          9          9          9          9          9          9          9          9          9          9          9          9          9          9          9          9          9          9          9          9          9          9          9          9          9          9          9          9          9          9          9          9          9          9          9          9          9          9          9          9          9          9          9          9          9          9          9          9          9          9          9          9          9          9          9          9          9          9          9          9          9          9          9          9          9          9          9          9          9          9          9          9          9          9          9          9          9          9          9          9          9          9          9          9          9          9          9          9          9          9          9          9          9          9          9          9          9          9          9          9          9          9          9          9          9          9          9          9          9          9          9          9          9          9          9          9          9          9          9          9          9          9          9          9          9          9          9          9          9          9          9          9          9          9          9          9          9          9          9          9          9          9          9          9          9          9          9          9          9          9          9          9          9          9          9          9          9          9 </DataArray>
</Cells>
<CellData>
<DataArray type="Int32"                                    Name="material"                                                      NumberOfComponents=" 1" format="ascii">
         1          1          1          1          1          1          1          1          1          1          1          1          1          1          1          1          1          1          1          1          1          1          1          1          1          1          1          1          1          1          1          1          1          1          1          1          1          1          1          1          1          1          1          1          1          1          1          1          1          1          1          1          1          1          1          1          1          1          1          1          1          1          1          1          1          1          1          1          1          1          1          1          1          1          1          1          1          1          1          1          1          1          1          1          1          1          1          1          1          1          1          1          1          1          1          1          1          1          1          1          1          1          1          1          1          1          1          1          1          1          1          1          1          1          1          1          1          1          1          1          1          1          1          1          1          1          1          1          1          1          1          1          1          1          1          1          1          1          1          1          1          1          1          1          1          1          1          1          1          1          1          1          1          1          1          1          1          1          1          1          1          1          1          1          1          1          1          1          1          1          1          1          1          1          1          1          1          1          1          1          1          1          1          1          1          1          1          1          1          1          1          1          1          1          1          1          1          1          1          1          1          1          1          1          1          1          1          1          1          1          1          1          1          1          1          1          1          1          1          1          1          1          1          1          1          1          1          1          1          1          1          1          1          1          1          1          1          1          1          1          1          1          1          1          1          1          1          1          1          1          1          1          1          1          1          1          1          1          1          1          1          1          1          1          1          1          1          1          1          1          1          1          1          1          1          1          1          1          1          1          1          1          1          1          1          1          1          1          1          1          1          1          1          1          1          1          1          1          1          1          1          1          1          1          1          1          1          1          1          1          1          1          1          1          1          1          1          1          1          1          1          1          1          1          1          1          1          1          1          1          1          1          1          1          1          1          1          1          1          1          1          1          1          1          1          1          1          1          1          1          1          1          1          1          1          1          1          1          1          1          1          1          1          1          1          1          1          1          1          1          1          1          1          1          1          1          1          1          1          1          1          1          1          1          1          1          1          1          1          1          1          1          1          1          1          1          1          1          1          1          1          1          1          1          1          1          1          1          1          1          1          1          1          1          1          1          1          1          1          1          1          1          1          1          1          1          1          1          1          1          1          1          1          1          1          1          1          1          1          1          1          1          1          1          1          1          1          1          1          1          1          1          1          1          1          1          1          1          1          1          1          1          1          1          1          1          1          1          1          1          1          1          1          1          1          1          1          1          1          1          1          1          1          1          1          1          1          1          1          1          1          1          1          1          1          1          1          1          1          1          1          1          1          1          1          1          1          1          1          1          1          1          1          1          1          1          1          1          1          1          1          1          1          1          1          1          1          1          1          1          1          1          1          1          1          1          1          1          1          1          1          1          1          1          1          1          1          1          1          1          1          1          1          1          1          1          1          1          1          1          1          1          1          1          1          1          1          1          1          1          1          1          1          1          1          1          1          1          1          1          1          1          1          1          1          1          1          1          1          1          1          1          1          1          1          1          1          1          1          1          1          1          1          1          1          1          1          1          1          1          1          1          1          1          1          1          1          1          1          1          1          1          1          1          1          1          1          1          1          1          1          1          1          1          1          1          1          1          1          1          1          1          1          1          1          1          1          1          1          1          1          1          1          1          1          1          1          1          1          1          1          1          1          1          1          1          1          1          1          1          1          1          1          1          1          1          1          1          1          1          1          1          1          1          1          1          1          1          1          1          1          1          1          1          1          1          1          1          1          1          1          1          1          1          1          1          1          1          1          1          1          1          1          1          1          1          1          1          1          1          1          1          1          1          1          1          1          1          1          1          1          1          1          1          1          1          1          1          1          1          1          1          1          1          1          1          1          1          1          1          1          1          1          1          1          1          1          1          1          1          1          1          1          1          1          1          1          1          1          1          1          1          1          1          1          1          1          1          1          1          1          1          1          1          1          1          1          1          1          1          1          1          1          1          1          1          1          1          1          1          1          1          1          1          1          1          1          1          1          1          1          1          1          1          1          1          1          1          1          1          1          1          1          1          1          1          1          1          1          1          1          1          1          1          1          1          1          1          1          1          1          1          1          1          1          1          1          1          1          1          1          1          1          1          1          1          1          1          1          1          1          1          1          1          1          1          1          1          1          1          1          1          1          1          1          1          1          1          1          1          1          1          1          1          1          1          1          1          1          1          1          1          1          1          1          1          1          1          1          1          1          1          1          1          1          1          1          1          1          1          1          1          1          1          1          1          1          1          1          1          1          1          1          1          1          1          1          1          1          1          1          1          1          1          1          1          1          1          1          1          1          1          1          1          1          1          1          1          1          1          1          1          1          1          1          1          1          1          1          1          1          1          1          1          1          1          1          1          1          1          1          1          1          1          1          1          1          1          1          1          1          1          1          1          1          1          1          1          1          1          1          1          1          1          1          1          1          1          1          1          1          1          1          1          1          1          1          1          1          1          1          1          1          1          1          1          1          1          1          1          1          1          1          1 </DataArray>
</CellData>
<PointData>
<DataArray type="Float64"                                    Name="u"                                                      NumberOfComponents=" 3" format="ascii">
             -0.000024169              -0.000000000               0.999999996              -0.000040158              -0.000000000               0.999999996              -0.000048137              -0.000000000               0.999999996              -0.000053020               0.000000000               0.999999996              -0.000056824               0.000000000               0.999999996              -0.000060468               0.000000000               0.999999996              -0.000064375               0.000000000               0.999999996              -0.000068780               0.000000000               0.999999996              -0.000073778               0.000000000               0.999999996              -0.000079366              -0.000000000               0.999999996              -0.000085634              -0.000000000               0.999999996              -0.000092529               0.000000000               0.999999996              -0.000100106               0.000000000               0.999999996              -0.000108328               0.000000000               0.999999996              -0.000117134               0.000000000               0.999999996              -0.000126527               0.000000000               0.999999996              -0.000136402              -0.000000000               0.999999996              -0.000024007               0.000039308               0.999999996              -0.000039308               0.000034896               0.999999996              -0.000046884               0.000033802               0.999999996              -0.000051562               0.000034543               0.999999996              -0.000055323               0.000036397               0.999999996              -0.000059024               0.000038951               0.999999996              -0.000063066               0.000041984               0.999999996              -0.000067581               0.000045467               0.999999996              -0.000072661               0.000049140               0.999999996              -0.000078375               0.000052982               0.999999996              -0.000084719               0.000057068               0.999999996              -0.000091715               0.000061280               0.999999996              -0.000099392               0.000065634               0.999999996              -0.000107713               0.000070010               0.999999996              -0.000116617               0.000074410               0.999999996              -0.000126063               0.000078672               0.999999996              -0.000135983               0.000082676               0.999999996              -0.000023601               0.000078117               0.999999996              -0.000036887               0.000069314               0.999999996              -0.000043347               0.000067332               0.999999996              -0.000047553               0.000069016               0.999999996              -0.000051251               0.000072874               0.999999996              -0.000055076               0.000078036               0.999999996              -0.000059359               0.000084159               0.999999996              -0.000064223               0.000091059               0.999999996              -0.000069654               0.000098383               0.999999996              -0.000075700               0.000106086               0.999999996              -0.000082383               0.000114185               0.999999996              -0.000089719               0.000122680               0.999999996              -0.000097720               0.000131401               0.999999996              -0.000106322               0.000140250               0.999999996              -0.000115447               0.000149058               0.999999996              -0.000125067               0.000157806               0.999999996              -0.000135171               0.000166219               0.999999996              -0.000022814               0.000116012               0.999999996              -0.000032977               0.000102921               0.999999996              -0.000037959               0.000100405               0.999999996              -0.000041641               0.000103243               0.999999996              -0.000045331               0.000109310               0.999999996              -0.000049433               0.000117269               0.999999996              -0.000054156               0.000126528               0.999999996              -0.000059536               0.000136875               0.999999996              -0.000065609               0.000147900               0.999999996              -0.000072364               0.000159437               0.999999996              -0.000079777               0.000171624               0.999999996              -0.000087827               0.000184377               0.999999996              -0.000096458               0.000197482               0.999999996              -0.000105625               0.000210740               0.999999996              -0.000115271               0.000224097               0.999999996              -0.000125403               0.000237590               0.999999996              -0.000136096               0.000251230               0.999999996              -0.000021705               0.000152548               0.999999996              -0.000027919               0.000135474               0.999999996              -0.000031294               0.000132804               0.999999996              -0.000034546               0.000137178               0.999999996              -0.000038456               0.000145636               0.999999996              -0.000043061               0.000156479               0.999999996              -0.000048534               0.000168972               0.999999996              -0.000054828               0.000182803               0.999999996              -0.000061890               0.000197598               0.999999996              -0.000069679               0.000213042               0.999999996              -0.000078153               0.000229241               0.999999996              -0.000087196               0.000246144               0.999999996              -0.000096754               0.000263625               0.999999996              -0.000106805               0.000281448               0.999999996              -0.000117400               0.000299648               0.999999996              -0.000128616               0.000318376               0.999999996              -0.000140529               0.000337837               0.999999996              -0.000020414               0.000187298               0.999999996              -0.000022039               0.000166783               0.999999996              -0.000023991               0.000164370               0.999999996              -0.000027173               0.000170546               0.999999996              -0.000031612               0.000181497               0.999999996              -0.000037131               0.000195259               0.999999996              -0.000043673               0.000211039               0.999999996              -0.000051103               0.000228377               0.999999996              -0.000059337               0.000247022               0.999999996              -0.000068371               0.000266552               0.999999996              -0.000078152               0.000286831               0.999999996              -0.000088544               0.000307993               0.999999996              -0.000099486               0.000329877               0.999999996              -0.000111049               0.000352415               0.999999996              -0.000123267               0.000375635               0.999999996              -0.000136157               0.000399704               0.999999996              -0.000149653               0.000424879               0.999999996              -0.000018925               0.000219968               0.999999996              -0.000015741               0.000196695               0.999999996              -0.000016681               0.000194971               0.999999996              -0.000020292               0.000203009               0.999999996              -0.000025678               0.000216493               0.999999996              -0.000032363               0.000233244               0.999999996              -0.000040113               0.000252379               0.999999996              -0.000048854               0.000273330               0.999999996              -0.000058582               0.000295904               0.999999996              -0.000069294               0.000319624               0.999999996              -0.000080727               0.000344043               0.999999996              -0.000092849               0.000369424               0.999999996              -0.000105574               0.000395709               0.999999996              -0.000118936               0.000422909               0.999999996              -0.000132851               0.000451028               0.999999996              -0.000147208               0.000479957               0.999999996              -0.000161680               0.000509606               0.999999996              -0.000017310               0.000250263               0.999999996              -0.000009517               0.000225077               0.999999996              -0.000009965               0.000224300               0.999999996              -0.000014390               0.000234321               0.999999996              -0.000020984               0.000250285               0.999999996              -0.000028936               0.000270088               0.999999996              -0.000038092               0.000292731               0.999999996              -0.000048537               0.000317507               0.999999996              -0.000060077               0.000344083               0.999999996              -0.000072531               0.000371951               0.999999996              -0.000085665               0.000400546               0.999999996              -0.000099424               0.000430120               0.999999996              -0.000113716               0.000460789               0.999999996              -0.000128437               0.000492510               0.999999996              -0.000143390               0.000525102               0.999999996              -0.000158409               0.000558343               0.999999996              -0.000173213               0.000591507               0.999999996              -0.000015806               0.000277665               0.999999996              -0.000003533               0.000252002               0.999999996              -0.000004260               0.000252194               0.999999996              -0.000009790               0.000264061               0.999999996              -0.000017627               0.000282572               0.999999996              -0.000027038               0.000305573               0.999999996              -0.000037897               0.000331832               0.999999996              -0.000050111               0.000360627               0.999999996              -0.000063402               0.000391215               0.999999996              -0.000077362               0.000423096               0.999999996              -0.000091799               0.000455851               0.999999996              -0.000106731               0.000489649               0.999999996              -0.000122031               0.000524544               0.999999996              -0.000137596               0.000560427               0.999999996              -0.000153362               0.000596990               0.999999996              -0.000169161               0.000633749               0.999999996              -0.000184805               0.000670266               0.999999996              -0.000014778               0.000303101               0.999999996               0.000000553               0.000279802               0.999999996               0.000001394               0.000277512               0.999999996              -0.000003052               0.000286379               0.999999996              -0.000009934               0.000301886               0.999999996              -0.000018393               0.000321968               0.999999996              -0.000028112               0.000345483               0.999999996              -0.000038995               0.000371672               0.999999996              -0.000050809               0.000399870               0.999999996              -0.000063180               0.000429440               0.999999996              -0.000075945               0.000459960               0.999999996              -0.000088860               0.000491196               0.999999996              -0.000101946               0.000523186               0.999999996              -0.000115163               0.000556067               0.999999996              -0.000128696               0.000589753               0.999999996              -0.000142627               0.000624075               0.999999996              -0.000156941               0.000658576               0.999999996              -0.000013430               0.000325978               0.999999996               0.000003354               0.000306226               0.999999996               0.000005747               0.000302909               0.999999996               0.000002579               0.000309404               0.999999996              -0.000003167               0.000322306               0.999999996              -0.000010485               0.000339676               0.999999996              -0.000018988               0.000360537               0.999999996              -0.000028504               0.000384220               0.999999996              -0.000038791               0.000410085               0.999999996              -0.000049600               0.000437408               0.999999996              -0.000060641               0.000465790               0.999999996              -0.000071700               0.000494856               0.999999996              -0.000082727               0.000524472               0.999999996              -0.000093588               0.000554678               0.999999996              -0.000104517               0.000585612               0.999999996              -0.000115761               0.000617214               0.999999996              -0.000127363               0.000649451               0.999999996              -0.000011831               0.000345923               0.999999996               0.000004952               0.000330636               0.999999996               0.000008568               0.000327413               0.999999996               0.000006715               0.000332417               0.999999996               0.000002304               0.000343272               0.999999996              -0.000003749               0.000358406               0.999999996              -0.000011043               0.000376959               0.999999996              -0.000019088               0.000398316               0.999999996              -0.000027688               0.000421894               0.999999996              -0.000036731               0.000447173               0.999999996              -0.000046155               0.000473560               0.999999996              -0.000055624               0.000500739               0.999999996              -0.000064678               0.000528461               0.999999996              -0.000073252               0.000556639               0.999999996              -0.000081569               0.000585267               0.999999996              -0.000089732               0.000614487               0.999999996              -0.000097826               0.000644430               0.999999996              -0.000009980               0.000362651               0.999999996               0.000005409               0.000352171               0.999999996               0.000009667               0.000349920               0.999999996               0.000008996               0.000354329               0.999999996               0.000005809               0.000363792               0.999999996               0.000001147               0.000377248               0.999999996              -0.000004698               0.000393992               0.999999996              -0.000011145               0.000413470               0.999999996              -0.000017956               0.000435137               0.999999996              -0.000025217               0.000458576               0.999999996              -0.000032831               0.000483326               0.999999996              -0.000040482               0.000509040               0.999999996              -0.000047786               0.000535304               0.999999996              -0.000054454               0.000562001               0.999999996              -0.000060393               0.000589080               0.999999996              -0.000065534               0.000616583               0.999999996              -0.000069988               0.000644618               0.999999996              -0.000007848               0.000375930               0.999999996               0.000004939               0.000370075               0.999999996               0.000009093               0.000369352               0.999999996               0.000009208               0.000373819               0.999999996               0.000007140               0.000382621               0.999999996               0.000003796               0.000394932               0.999999996              -0.000000374               0.000410397               0.999999996              -0.000005125               0.000428518               0.999999996              -0.000010282               0.000448734               0.999999996              -0.000015605               0.000470726               0.999999996              -0.000021122               0.000494273               0.999999996              -0.000026888               0.000518928               0.999999996              -0.000032542               0.000544289               0.999999996              -0.000037477               0.000570136               0.999999996              -0.000041350               0.000596381               0.999999996              -0.000044067               0.000622920               0.999999996              -0.000045528               0.000649787               0.999999996              -0.000005416               0.000385602               0.999999996               0.000003704               0.000383505               0.999999996               0.000007023               0.000384383               0.999999996               0.000007433               0.000389318               0.999999996               0.000006260               0.000397928               0.999999996               0.000004240               0.000409697               0.999999996               0.000001664               0.000424321               0.999999996              -0.000001480               0.000441424               0.999999996              -0.000004964               0.000460696               0.999999996              -0.000008391               0.000481833               0.999999996              -0.000011961               0.000504460               0.999999996              -0.000015914               0.000528296               0.999999996              -0.000019850               0.000553075               0.999999996              -0.000023071               0.000578534               0.999999996              -0.000025282               0.000604418               0.999999996              -0.000026354               0.000630595               0.999999996              -0.000026042               0.000657016               0.999999996              -0.000002760               0.000391481               0.999999996               0.000001964               0.000391888               0.999999996               0.000003850               0.000393988               0.999999996               0.000004142               0.000399407               0.999999996               0.000003616               0.000408073               0.999999996               0.000002716               0.000419592               0.999999996               0.000001501               0.000433678               0.999999996              -0.000000118               0.000450187               0.999999996              -0.000001847               0.000468887               0.999999996              -0.000003506               0.000489474               0.999999996              -0.000005318               0.000511561               0.999999996              -0.000007335               0.000534930               0.999999996              -0.000009345               0.000559408               0.999999996              -0.000010987               0.000584744               0.999999996              -0.000011954               0.000610642               0.999999996              -0.000012112               0.000636852               0.999999996              -0.000011471               0.000663176               0.999999996               0.000000000               0.000393412               0.999999996              -0.000000000               0.000394725               0.999999996              -0.000000000               0.000397285               0.999999996               0.000000000               0.000402846               0.999999996               0.000000000               0.000411579               0.999999996              -0.000000000               0.000423081               0.999999996              -0.000000000               0.000436963               0.999999996              -0.000000000               0.000453275               0.999999996              -0.000000000               0.000471770               0.999999996               0.000000000               0.000492149               0.999999996              -0.000000000               0.000514159               0.999999996               0.000000000               0.000537439               0.999999996               0.000000000               0.000561828               0.999999996              -0.000000000               0.000587124               0.999999996              -0.000000000               0.000613079               0.999999996               0.000000000               0.000639378               0.999999996               0.000000000               0.000665706               0.999999996              -0.000024169              -0.000000000               0.999999996              -0.000040158              -0.000000000               0.999999996              -0.000048137              -0.000000000               0.999999996              -0.000053020               0.000000000               0.999999996              -0.000056824               0.000000000               0.999999996              -0.000060468               0.000000000               0.999999996              -0.000064375               0.000000000               0.999999996              -0.000068780               0.000000000               0.999999996              -0.000073778               0.000000000               0.999999996              -0.000079366              -0.000000000               0.999999996              -0.000085634              -0.000000000               0.999999996              -0.000092529               0.000000000               0.999999996              -0.000100106               0.000000000               0.999999996              -0.000108328               0.000000000               0.999999996              -0.000117134               0.000000000               0.999999996              -0.000126527               0.000000000               0.999999996              -0.000136402              -0.000000000               0.999999996              -0.000024007              -0.000039308               0.999999996              -0.000039308              -0.000034896               0.999999996              -0.000046884              -0.000033802               0.999999996              -0.000051562              -0.000034543               0.999999996              -0.000055323              -0.000036397               0.999999996              -0.000059024              -0.000038951               0.999999996              -0.000063066              -0.000041984               0.999999996              -0.000067581              -0.000045467               0.999999996              -0.000072661              -0.000049140               0.999999996              -0.000078375              -0.000052982               0.999999996              -0.000084719              -0.000057068               0.999999996              -0.000091715              -0.000061280               0.999999996              -0.000099392              -0.000065634               0.999999996              -0.000107713              -0.000070010               0.999999996              -0.000116617              -0.000074410               0.999999996              -0.000126063              -0.000078672               0.999999996              -0.000135983              -0.000082676               0.999999996              -0.000023601              -0.000078117               0.999999996              -0.000036887              -0.000069314               0.999999996              -0.000043347              -0.000067332               0.999999996              -0.000047553              -0.000069016               0.999999996              -0.000051251              -0.000072874               0.999999996              -0.000055076              -0.000078036               0.999999996              -0.000059359              -0.000084159               0.999999996              -0.000064223              -0.000091059               0.999999996              -0.000069654              -0.000098383               0.999999996              -0.000075700              -0.000106086               0.999999996              -0.000082383              -0.000114185               0.999999996              -0.000089719              -0.000122680               0.999999996              -0.000097720              -0.000131401               0.999999996              -0.000106322              -0.000140250               0.999999996              -0.000115447              -0.000149058               0.999999996              -0.000125067              -0.000157806               0.999999996              -0.000135171              -0.000166219               0.999999996              -0.000022814              -0.000116012               0.999999996              -0.000032977              -0.000102921               0.999999996              -0.000037959              -0.000100405               0.999999996              -0.000041641              -0.000103243               0.999999996              -0.000045331              -0.000109310               0.999999996              -0.000049433              -0.000117269               0.999999996              -0.000054156              -0.000126528               0.999999996              -0.000059536              -0.000136875               0.999999996              -0.000065609              -0.000147900               0.999999996              -0.000072364              -0.000159437               0.999999996              -0.000079777              -0.000171624               0.999999996              -0.000087827              -0.000184377               0.999999996              -0.000096458              -0.000197482               0.999999996              -0.000105625              -0.000210740               0.999999996              -0.000115271              -0.000224097               0.999999996              -0.000125403              -0.000237590               0.999999996              -0.000136096              -0.000251230               0.999999996              -0.000021705              -0.000152548               0.999999996              -0.000027919              -0.000135474               0.999999996              -0.000031294              -0.000132804               0.999999996              -0.000034546              -0.000137178               0.999999996              -0.000038456              -0.000145636               0.999999996              -0.000043061              -0.000156479               0.999999996              -0.000048534              -0.000168972               0.999999996              -0.000054828              -0.000182803               0.999999996              -0.000061890              -0.000197598               0.999999996              -0.000069679              -0.000213042               0.999999996              -0.000078153              -0.000229241               0.999999996              -0.000087196              -0.000246144               0.999999996              -0.000096754              -0.000263625               0.999999996              -0.000106805              -0.000281448               0.999999996              -0.000117400              -0.000299648               0.999999996              -0.000128616              -0.000318376               0.999999996              -0.000140529              -0.000337837               0.999999996              -0.000020414              -0.000187298               0.999999996              -0.000022039              -0.000166783               0.999999996              -0.000023991              -0.000164370               0.999999996              -0.000027173              -0.000170546               0.999999996              -0.000031612              -0.000181497               0.999999996              -0.000037131              -0.000195259               0.999999996              -0.000043673              -0.000211039               0.999999996              -0.000051103              -0.000228377               0.999999996              -0.000059337              -0.000247022               0.999999996              -0.000068371              -0.000266552               0.999999996              -0.000078152              -0.000286831               0.999999996              -0.000088544              -0.000307993               0.999999996              -0.000099486              -0.000329877               0.999999996              -0.000111049              -0.000352415               0.999999996              -0.000123267              -0.000375635               0.999999996              -0.000136157              -0.000399704               0.999999996              -0.000149653              -0.000424879               0.999999996              -0.000018925              -0.000219968               0.999999996              -0.000015741              -0.000196695               0.999999996              -0.000016681              -0.000194971               0.999999996              -0.000020292              -0.000203009               0.999999996              -0.000025678              -0.000216493               0.999999996              -0.000032363              -0.000233244               0.999999996              -0.000040113              -0.000252379               0.999999996              -0.000048854              -0.000273330               0.999999996              -0.000058582              -0.000295904               0.999999996              -0.000069294              -0.000319624               0.999999996              -0.000080727              -0.000344043               0.999999996              -0.000092849              -0.000369424               0.999999996              -0.000105574              -0.000395709               0.999999996              -0.000118936              -0.000422909               0.999999996              -0.000132851              -0.000451028               0.999999996              -0.000147208              -0.000479957               0.999999996              -0.000161680              -0.000509606               0.999999996              -0.000017310              -0.000250263               0.999999996              -0.000009517              -0.000225077               0.999999996              -0.000009965              -0.000224300               0.999999996              -0.000014390              -0.000234321               0.999999996              -0.000020984              -0.000250285               0.999999996              -0.000028936              -0.000270088               0.999999996              -0.000038092              -0.000292731               0.999999996              -0.000048537              -0.000317507               0.999999996              -0.000060077              -0.000344083               0.999999996              -0.000072531              -0.000371951               0.999999996              -0.000085665              -0.000400546               0.999999996              -0.000099424              -0.000430120               0.999999996              -0.000113716              -0.000460789               0.999999996              -0.000128437              -0.000492510               0.999999996              -0.000143390              -0.000525102               0.999999996              -0.000158409              -0.000558343               0.999999996              -0.000173213              -0.000591507               0.999999996              -0.000015806              -0.000277665               0.999999996              -0.000003533              -0.000252002               0.999999996              -0.000004260              -0.000252194               0.999999996              -0.000009790              -0.000264061               0.999999996              -0.000017627              -0.000282572               0.999999996              -0.000027038              -0.000305573               0.999999996              -0.000037897              -0.000331832               0.999999996              -0.000050111              -0.000360627               0.999999996              -0.000063402              -0.000391215               0.999999996              -0.000077362              -0.000423096               0.999999996              -0.000091799              -0.000455851               0.999999996              -0.000106731              -0.000489649               0.999999996              -0.000122031              -0.000524544               0.999999996              -0.000137596              -0.000560427               0.999999996              -0.000153362              -0.000596990               0.999999996              -0.000169161              -0.000633749               0.999999996              -0.000184805              -0.000670266               0.999999996              -0.000014778              -0.000303101               0.999999996               0.000000553              -0.000279802               0.999999996               0.000001394              -0.000277512               0.999999996              -0.000003052              -0.000286379               0.999999996              -0.000009934              -0.000301886               0.999999996              -0.000018393              -0.000321968               0.999999996              -0.000028112              -0.000345483               0.999999996              -0.000038995              -0.000371672               0.999999996              -0.000050809              -0.000399870               0.999999996              -0.000063180              -0.000429440               0.999999996              -0.000075945              -0.000459960               0.999999996              -0.000088860              -0.000491196               0.999999996              -0.000101946              -0.000523186               0.999999996              -0.000115163              -0.000556067               0.999999996              -0.000128696              -0.000589753               0.999999996              -0.000142627              -0.000624075               0.999999996              -0.000156941              -0.000658576               0.999999996              -0.000013430              -0.000325978               0.999999996               0.000003354              -0.000306226               0.999999996               0.000005747              -0.000302909               0.999999996               0.000002579              -0.000309404               0.999999996              -0.000003167              -0.000322306               0.999999996              -0.000010485              -0.000339676               0.999999996              -0.000018988              -0.000360537               0.999999996              -0.000028504              -0.000384220               0.999999996              -0.000038791              -0.000410085               0.999999996              -0.000049600              -0.000437408               0.999999996              -0.000060641              -0.000465790               0.999999996              -0.000071700              -0.000494856               0.999999996              -0.000082727              -0.000524472               0.999999996              -0.000093588              -0.000554678               0.999999996              -0.000104517              -0.000585612               0.999999996              -0.000115761              -0.000617214               0.999999996              -0.000127363              -0.000649451               0.999999996              -0.000011831              -0.000345923               0.999999996               0.000004952              -0.000330636               0.999999996               0.000008568              -0.000327413               0.999999996               0.000006715              -0.000332417               0.999999996               0.000002304              -0.000343272               0.999999996              -0.000003749              -0.000358406               0.999999996              -0.000011043              -0.000376959               0.999999996              -0.000019088              -0.000398316               0.999999996              -0.000027688              -0.000421894               0.999999996              -0.000036731              -0.000447173               0.999999996              -0.000046155              -0.000473560               0.999999996              -0.000055624              -0.000500739               0.999999996              -0.000064678              -0.000528461               0.999999996              -0.000073252              -0.000556639               0.999999996              -0.000081569              -0.000585267               0.999999996              -0.000089732              -0.000614487               0.999999996              -0.000097826              -0.000644430               0.999999996              -0.000009980              -0.000362651               0.999999996               0.000005409              -0.000352171               0.999999996               0.000009667              -0.000349920               0.999999996               0.000008996              -0.000354329               0.999999996               0.000005809              -0.000363792               0.999999996               0.000001147              -0.000377248               0.999999996              -0.000004698              -0.000393992               0.999999996              -0.000011145              -0.000413470               0.999999996              -0.000017956              -0.000435137               0.999999996              -0.000025217              -0.000458576               0.999999996              -0.000032831              -0.000483326               0.999999996              -0.000040482              -0.000509040               0.999999996              -0.000047786              -0.000535304               0.999999996              -0.000054454              -0.000562001               0.999999996              -0.000060393              -0.000589080               0.999999996              -0.000065534              -0.000616583               0.999999996              -0.000069988              -0.000644618               0.999999996              -0.000007848              -0.000375930               0.999999996               0.000004939              -0.000370075               0.999999996               0.000009093              -0.000369352               0.999999996               0.000009208              -0.000373819               0.999999996               0.000007140              -0.000382621               0.999999996               0.000003796              -0.000394932               0.999999996              -0.000000374              -0.000410397               0.999999996              -0.000005125              -0.000428518               0.999999996              -0.000010282              -0.000448734               0.999999996              -0.000015605              -0.000470726               0.999999996              -0.000021122              -0.000494273               0.999999996              -0.000026888              -0.000518928               0.999999996              -0.000032542              -0.000544289               0.999999996              -0.000037477              -0.000570136               0.999999996              -0.000041350              -0.000596381               0.999999996              -0.000044067              -0.000622920               0.999999996              -0.000045528              -0.000649787               0.999999996              -0.000005416              -0.000385602               0.999999996               0.000003704              -0.000383505               0.999999996               0.000007023              -0.000384383               0.999999996               0.000007433              -0.000389318               0.999999996               0.000006260              -0.000397928               0.999999996               0.000004240              -0.000409697               0.999999996               0.000001664              -0.000424321               0.999999996              -0.000001480              -0.000441424               0.999999996              -0.000004964              -0.000460696               0.999999996              -0.000008391              -0.000481833               0.999999996              -0.000011961              -0.000504460               0.999999996              -0.000015914              -0.000528296               0.999999996              -0.000019850              -0.000553075               0.999999996              -0.000023071              -0.000578534               0.999999996              -0.000025282              -0.000604418               0.999999996              -0.000026354              -0.000630595               0.999999996              -0.000026042              -0.000657016               0.999999996              -0.000002760              -0.000391481               0.999999996               0.000001964              -0.000391888               0.999999996               0.000003850              -0.000393988               0.999999996               0.000004142              -0.000399407               0.999999996               0.000003616              -0.000408073               0.999999996               0.000002716              -0.000419592               0.999999996               0.000001501              -0.000433678               0.999999996              -0.000000118              -0.000450187               0.999999996              -0.000001847              -0.000468887               0.999999996              -0.000003506              -0.000489474               0.999999996              -0.000005318              -0.000511561               0.999999996              -0.000007335              -0.000534930               0.999999996              -0.000009345              -0.000559408               0.999999996              -0.000010987              -0.000584744               0.999999996              -0.000011954              -0.000610642               0.999999996              -0.000012112              -0.000636852               0.999999996              -0.000011471              -0.000663176               0.999999996              -0.000000000              -0.000393412               0.999999996               0.000000000              -0.000394725               0.999999996              -0.000000000              -0.000397285               0.999999996              -0.000000000              -0.000402846               0.999999996              -0.000000000              -0.000411579               0.999999996              -0.000000000              -0.000423081               0.999999996               0.000000000              -0.000436963               0.999999996               0.000000000              -0.000453275               0.999999996               0.000000000              -0.000471770               0.999999996               0.000000000              -0.000492149               0.999999996               0.000000000              -0.000514159               0.999999996              -0.000000000              -0.000537439               0.999999996              -0.000000000              -0.000561828               0.999999996              -0.000000000              -0.000587124               0.999999996              -0.000000000              -0.000613079               0.999999996              -0.000000000              -0.000639378               0.999999996               0.000000000              -0.000665706               0.999999996               0.000024169               0.000000000               0.999999996               0.000040158              -0.000000000               0.999999996               0.000048137              -0.000000000               0.999999996               0.000053020              -0.000000000               0.999999996               0.000056824              -0.000000000               0.999999996               0.000060468              -0.000000000               0.999999996               0.000064375              -0.000000000               0.999999996               0.000068780              -0.000000000               0.999999996               0.000073778               0.000000000               0.999999996               0.000079366               0.000000000               0.999999996               0.000085634               0.000000000               0.999999996               0.000092529               0.000000000               0.999999996               0.000100106               0.000000000               0.999999996               0.000108328               0.000000000               0.999999996               0.000117134               0.000000000               0.999999996               0.000126527               0.000000000               0.999999996               0.000136402               0.000000000               0.999999996               0.000024007              -0.000039308               0.999999996               0.000039308              -0.000034896               0.999999996               0.000046884              -0.000033802               0.999999996               0.000051562              -0.000034543               0.999999996               0.000055323              -0.000036397               0.999999996               0.000059024              -0.000038951               0.999999996               0.000063066              -0.000041984               0.999999996               0.000067581              -0.000045467               0.999999996               0.000072661              -0.000049140               0.999999996               0.000078375              -0.000052982               0.999999996               0.000084719              -0.000057068               0.999999996               0.000091715              -0.000061280               0.999999996               0.000099392              -0.000065634               0.999999996               0.000107713              -0.000070010               0.999999996               0.000116617              -0.000074410               0.999999996               0.000126063              -0.000078672               0.999999996               0.000135983              -0.000082676               0.999999996               0.000023601              -0.000078117               0.999999996               0.000036887              -0.000069314               0.999999996               0.000043347              -0.000067332               0.999999996               0.000047553              -0.000069016               0.999999996               0.000051251              -0.000072874               0.999999996               0.000055076              -0.000078036               0.999999996               0.000059359              -0.000084159               0.999999996               0.000064223              -0.000091059               0.999999996               0.000069654              -0.000098383               0.999999996               0.000075700              -0.000106086               0.999999996               0.000082383              -0.000114185               0.999999996               0.000089719              -0.000122680               0.999999996               0.000097720              -0.000131401               0.999999996               0.000106322              -0.000140250               0.999999996               0.000115447              -0.000149058               0.999999996               0.000125067              -0.000157806               0.999999996               0.000135171              -0.000166219               0.999999996               0.000022814              -0.000116012               0.999999996               0.000032977              -0.000102921               0.999999996               0.000037959              -0.000100405               0.999999996               0.000041641              -0.000103243               0.999999996               0.000045331              -0.000109310               0.999999996               0.000049433              -0.000117269               0.999999996               0.000054156              -0.000126528               0.999999996               0.000059536              -0.000136875               0.999999996               0.000065609              -0.000147900               0.999999996               0.000072364              -0.000159437               0.999999996               0.000079777              -0.000171624               0.999999996               0.000087827              -0.000184377               0.999999996               0.000096458              -0.000197482               0.999999996               0.000105625              -0.000210740               0.999999996               0.000115271              -0.000224097               0.999999996               0.000125403              -0.000237590               0.999999996               0.000136096              -0.000251230               0.999999996               0.000021705              -0.000152548               0.999999996               0.000027919              -0.000135474               0.999999996               0.000031294              -0.000132804               0.999999996               0.000034546              -0.000137178               0.999999996               0.000038456              -0.000145636               0.999999996               0.000043061              -0.000156479               0.999999996               0.000048534              -0.000168972               0.999999996               0.000054828              -0.000182803               0.999999996               0.000061890              -0.000197598               0.999999996               0.000069679              -0.000213042               0.999999996               0.000078153              -0.000229241               0.999999996               0.000087196              -0.000246144               0.999999996               0.000096754              -0.000263625               0.999999996               0.000106805              -0.000281448               0.999999996               0.000117400              -0.000299648               0.999999996               0.000128616              -0.000318376               0.999999996               0.000140529              -0.000337837               0.999999996               0.000020414              -0.000187298               0.999999996               0.000022039              -0.000166783               0.999999996               0.000023991              -0.000164370               0.999999996               0.000027173              -0.000170546               0.999999996               0.000031612              -0.000181497               0.999999996               0.000037131              -0.000195259               0.999999996               0.000043673              -0.000211039               0.999999996               0.000051103              -0.000228377               0.999999996               0.000059337              -0.000247022               0.999999996               0.000068371              -0.000266552               0.999999996               0.000078152              -0.000286831               0.999999996               0.000088544              -0.000307993               0.999999996               0.000099486              -0.000329877               0.999999996               0.000111049              -0.000352415               0.999999996               0.000123267              -0.000375635               0.999999996               0.000136157              -0.000399704               0.999999996               0.000149653              -0.000424879               0.999999996               0.000018925              -0.000219968               0.999999996               0.000015741              -0.000196695               0.999999996               0.000016681              -0.000194971               0.999999996               0.000020292              -0.000203009               0.999999996               0.000025678              -0.000216493               0.999999996               0.000032363              -0.000233244               0.999999996               0.000040113              -0.000252379               0.999999996               0.000048854              -0.000273330               0.999999996               0.000058582              -0.000295904               0.999999996               0.000069294              -0.000319624               0.999999996               0.000080727              -0.000344043               0.999999996               0.000092849              -0.000369424               0.999999996               0.000105574              -0.000395709               0.999999996               0.000118936              -0.000422909               0.999999996               0.000132851              -0.000451028               0.999999996               0.000147208              -0.000479957               0.999999996               0.000161680              -0.000509606               0.999999996               0.000017310              -0.000250263               0.999999996               0.000009517              -0.000225077               0.999999996               0.000009965              -0.000224300               0.999999996               0.000014390              -0.000234321               0.999999996               0.000020984              -0.000250285               0.999999996               0.000028936              -0.000270088               0.999999996               0.000038092              -0.000292731               0.999999996               0.000048537              -0.000317507               0.999999996               0.000060077              -0.000344083               0.999999996               0.000072531              -0.000371951               0.999999996               0.000085665              -0.000400546               0.999999996               0.000099424              -0.000430120               0.999999996               0.000113716              -0.000460789               0.999999996               0.000128437              -0.000492510               0.999999996               0.000143390              -0.000525102               0.999999996               0.000158409              -0.000558343               0.999999996               0.000173213              -0.000591507               0.999999996               0.000015806              -0.000277665               0.999999996               0.000003533              -0.000252002               0.999999996               0.000004260              -0.000252194               0.999999996               0.000009790              -0.000264061               0.999999996               0.000017627              -0.000282572               0.999999996               0.000027038              -0.000305573               0.999999996               0.000037897              -0.000331832               0.999999996               0.000050111              -0.000360627               0.999999996               0.000063402              -0.000391215               0.999999996               0.000077362              -0.000423096               0.999999996               0.000091799              -0.000455851               0.999999996               0.000106731              -0.000489649               0.999999996               0.000122031              -0.000524544               0.999999996               0.000137596              -0.000560427               0.999999996               0.000153362              -0.000596990               0.999999996               0.000169161              -0.000633749               0.999999996               0.000184805              -0.000670266               0.999999996               0.000014778              -0.000303101               0.999999996              -0.000000553              -0.000279802               0.999999996              -0.000001394              -0.000277512               0.999999996               0.000003052              -0.000286379               0.999999996               0.000009934              -0.000301886               0.999999996               0.000018393              -0.000321968               0.999999996               0.000028112              -0.000345483               0.999999996               0.000038995              -0.000371672               0.999999996               0.000050809              -0.000399870               0.999999996               0.000063180              -0.000429440               0.999999996               0.000075945              -0.000459960               0.999999996               0.000088860              -0.000491196               0.999999996               0.000101946              -0.000523186               0.999999996               0.000115163              -0.000556067               0.999999996               0.000128696              -0.000589753               0.999999996               0.000142627              -0.000624075               0.999999996               0.000156941              -0.000658576               0.999999996               0.000013430              -0.000325978               0.999999996              -0.000003354              -0.000306226               0.999999996              -0.000005747              -0.000302909               0.999999996              -0.000002579              -0.000309404               0.999999996               0.000003167              -0.000322306               0.999999996               0.000010485              -0.000339676               0.999999996               0.000018988              -0.000360537               0.999999996               0.000028504              -0.000384220               0.999999996               0.000038791              -0.000410085               0.999999996               0.000049600              -0.000437408               0.999999996               0.000060641              -0.000465790               0.999999996               0.000071700              -0.000494856               0.999999996               0.000082727              -0.000524472               0.999999996               0.000093588              -0.000554678               0.999999996               0.000104517              -0.000585612               0.999999996               0.000115761              -0.000617214               0.999999996               0.000127363              -0.000649451               0.999999996               0.000011831              -0.000345923               0.999999996              -0.000004952              -0.000330636               0.999999996              -0.000008568              -0.000327413               0.999999996              -0.000006715              -0.000332417               0.999999996              -0.000002304              -0.000343272               0.999999996               0.000003749              -0.000358406               0.999999996               0.000011043              -0.000376959               0.999999996               0.000019088              -0.000398316               0.999999996               0.000027688              -0.000421894               0.999999996               0.000036731              -0.000447173               0.999999996               0.000046155              -0.000473560               0.999999996               0.000055624              -0.000500739               0.999999996               0.000064678              -0.000528461               0.999999996               0.000073252              -0.000556639               0.999999996               0.000081569              -0.000585267               0.999999996               0.000089732              -0.000614487               0.999999996               0.000097826              -0.000644430               0.999999996               0.000009980              -0.000362651               0.999999996              -0.000005409              -0.000352171               0.999999996              -0.000009667              -0.000349920               0.999999996              -0.000008996              -0.000354329               0.999999996              -0.000005809              -0.000363792               0.999999996              -0.000001147              -0.000377248               0.999999996               0.000004698              -0.000393992               0.999999996               0.000011145              -0.000413470               0.999999996               0.000017956              -0.000435137               0.999999996               0.000025217              -0.000458576               0.999999996               0.000032831              -0.000483326               0.999999996               0.000040482              -0.000509040               0.999999996               0.000047786              -0.000535304               0.999999996               0.000054454              -0.000562001               0.999999996               0.000060393              -0.000589080               0.999999996               0.000065534              -0.000616583               0.999999996               0.000069988              -0.000644618               0.999999996               0.000007848              -0.000375930               0.999999996              -0.000004939              -0.000370075               0.999999996              -0.000009093              -0.000369352               0.999999996              -0.000009208              -0.000373819               0.999999996              -0.000007140              -0.000382621               0.999999996              -0.000003796              -0.000394932               0.999999996               0.000000374              -0.000410397               0.999999996               0.000005125              -0.000428518               0.999999996               0.000010282              -0.000448734               0.999999996               0.000015605              -0.000470726               0.999999996               0.000021122              -0.000494273               0.999999996               0.000026888              -0.000518928               0.999999996               0.000032542              -0.000544289               0.999999996               0.000037477              -0.000570136               0.999999996               0.000041350              -0.000596381               0.999999996               0.000044067              -0.000622920               0.999999996               0.000045528              -0.000649787               0.999999996               0.000005416              -0.000385602               0.999999996              -0.000003704              -0.000383505               0.999999996              -0.000007023              -0.000384383               0.999999996              -0.000007433              -0.000389318               0.999999996              -0.000006260              -0.000397928               0.999999996              -0.000004240              -0.000409697               0.999999996              -0.000001664              -0.000424321               0.999999996               0.000001480              -0.000441424               0.999999996               0.000004964              -0.000460696               0.999999996               0.000008391              -0.000481833               0.999999996               0.000011961              -0.000504460               0.999999996               0.000015914              -0.000528296               0.999999996               0.000019850              -0.000553075               0.999999996               0.000023071              -0.000578534               0.999999996               0.000025282              -0.000604418               0.999999996               0.000026354              -0.000630595               0.999999996               0.000026042              -0.000657016               0.999999996               0.000002760              -0.000391481               0.999999996              -0.000001964              -0.000391888               0.999999996              -0.000003850              -0.000393988               0.999999996              -0.000004142              -0.000399407               0.999999996              -0.000003616              -0.000408073               0.999999996              -0.000002716              -0.000419592               0.999999996              -0.000001501              -0.000433678               0.999999996               0.000000118              -0.000450187               0.999999996               0.000001847              -0.000468887               0.999999996               0.000003506              -0.000489474               0.999999996               0.000005318              -0.000511561               0.999999996               0.000007335              -0.000534930               0.999999996               0.000009345              -0.000559408               0.999999996               0.000010987              -0.000584744               0.999999996               0.000011954              -0.000610642               0.999999996               0.000012112              -0.000636852               0.999999996               0.000011471              -0.000663176               0.999999996              -0.000000000              -0.000393412               0.999999996               0.000000000              -0.000394725               0.999999996              -0.000000000              -0.000397285               0.999999996              -0.000000000              -0.000402846               0.999999996              -0.000000000              -0.000411579               0.999999996              -0.000000000              -0.000423081               0.999999996               0.000000000              -0.000436963               0.999999996               0.000000000              -0.000453275               0.999999996               0.000000000              -0.000471770               0.999999996               0.000000000              -0.000492149               0.999999996               0.000000000              -0.000514159               0.999999996              -0.000000000              -0.000537439               0.999999996              -0.000000000              -0.000561828               0.999999996              -0.000000000              -0.000587124               0.999999996              -0.000000000              -0.000613079               0.999999996              -0.000000000              -0.000639378               0.999999996               0.000000000              -0.000665706               0.999999996               0.000024169               0.000000000               0.999999996               0.000040158              -0.000000000               0.999999996               0.000048137              -0.000000000               0.999999996               0.000053020              -0.000000000               0.999999996               0.000056824              -0.000000000               0.999999996               0.000060468              -0.000000000               0.999999996               0.000064375              -0.000000000               0.999999996               0.000068780              -0.000000000               0.999999996               0.000073778               0.000000000               0.999999996               0.000079366               0.000000000               0.999999996               0.000085634               0.000000000               0.999999996               0.000092529               0.000000000               0.999999996               0.000100106               0.000000000               0.999999996               0.000108328               0.000000000               0.999999996               0.000117134               0.000000000               0.999999996               0.000126527               0.000000000               0.999999996               0.000136402               0.000000000               0.999999996               0.000024007               0.000039308               0.999999996               0.000039308               0.000034896               0.999999996               0.000046884               0.000033802               0.999999996               0.000051562               0.000034543               0.999999996               0.000055323               0.000036397               0.999999996               0.000059024               0.000038951               0.999999996               0.000063066               0.000041984               0.999999996               0.000067581               0.000045467               0.999999996               0.000072661               0.000049140               0.999999996               0.000078375               0.000052982               0.999999996               0.000084719               0.000057068               0.999999996               0.000091715               0.000061280               0.999999996               0.000099392               0.000065634               0.999999996               0.000107713               0.000070010               0.999999996               0.000116617               0.000074410               0.999999996               0.000126063               0.000078672               0.999999996               0.000135983               0.000082676               0.999999996               0.000023601               0.000078117               0.999999996               0.000036887               0.000069314               0.999999996               0.000043347               0.000067332               0.999999996               0.000047553               0.000069016               0.999999996               0.000051251               0.000072874               0.999999996               0.000055076               0.000078036               0.999999996               0.000059359               0.000084159               0.999999996               0.000064223               0.000091059               0.999999996               0.000069654               0.000098383               0.999999996               0.000075700               0.000106086               0.999999996               0.000082383               0.000114185               0.999999996               0.000089719               0.000122680               0.999999996               0.000097720               0.000131401               0.999999996               0.000106322               0.000140250               0.999999996               0.000115447               0.000149058               0.999999996               0.000125067               0.000157806               0.999999996               0.000135171               0.000166219               0.999999996               0.000022814               0.000116012               0.999999996               0.000032977               0.000102921               0.999999996               0.000037959               0.000100405               0.999999996               0.000041641               0.000103243               0.999999996               0.000045331               0.000109310               0.999999996               0.000049433               0.000117269               0.999999996               0.000054156               0.000126528               0.999999996               0.000059536               0.000136875               0.999999996               0.000065609               0.000147900               0.999999996               0.000072364               0.000159437               0.999999996               0.000079777               0.000171624               0.999999996               0.000087827               0.000184377               0.999999996               0.000096458               0.000197482               0.999999996               0.000105625               0.000210740               0.999999996               0.000115271               0.000224097               0.999999996               0.000125403               0.000237590               0.999999996               0.000136096               0.000251230               0.999999996               0.000021705               0.000152548               0.999999996               0.000027919               0.000135474               0.999999996               0.000031294               0.000132804               0.999999996               0.000034546               0.000137178               0.999999996               0.000038456               0.000145636               0.999999996               0.000043061               0.000156479               0.999999996               0.000048534               0.000168972               0.999999996               0.000054828               0.000182803               0.999999996               0.000061890               0.000197598               0.999999996               0.000069679               0.000213042               0.999999996               0.000078153               0.000229241               0.999999996               0.000087196               0.000246144               0.999999996               0.000096754               0.000263625               0.999999996               0.000106805               0.000281448               0.999999996               0.000117400               0.000299648               0.999999996               0.000128616               0.000318376               0.999999996               0.000140529               0.000337837               0.999999996               0.000020414               0.000187298               0.999999996               0.000022039               0.000166783               0.999999996               0.000023991               0.000164370               0.999999996               0.000027173               0.000170546               0.999999996               0.000031612               0.000181497               0.999999996               0.000037131               0.000195259               0.999999996               0.000043673               0.000211039               0.999999996               0.000051103               0.000228377               0.999999996               0.000059337               0.000247022               0.999999996               0.000068371               0.000266552               0.999999996               0.000078152               0.000286831               0.999999996               0.000088544               0.000307993               0.999999996               0.000099486               0.000329877               0.999999996               0.000111049               0.000352415               0.999999996               0.000123267               0.000375635               0.999999996               0.000136157               0.000399704               0.999999996               0.000149653               0.000424879               0.999999996               0.000018925               0.000219968               0.999999996               0.000015741               0.000196695               0.999999996               0.000016681               0.000194971               0.999999996               0.000020292               0.000203009               0.999999996               0.000025678               0.000216493               0.999999996               0.000032363               0.000233244               0.999999996               0.000040113               0.000252379               0.999999996               0.000048854               0.000273330               0.999999996               0.000058582               0.000295904               0.999999996               0.000069294               0.000319624               0.999999996               0.000080727               0.000344043               0.999999996               0.000092849               0.000369424               0.999999996               0.000105574               0.000395709               0.999999996               0.000118936               0.000422909               0.999999996               0.000132851               0.000451028               0.999999996               0.000147208               0.000479957               0.999999996               0.000161680               0.000509606               0.999999996               0.000017310               0.000250263               0.999999996               0.000009517               0.000225077               0.999999996               0.000009965               0.000224300               0.999999996               0.000014390               0.000234321               0.999999996               0.000020984               0.000250285               0.999999996               0.000028936               0.000270088               0.999999996               0.000038092               0.000292731               0.999999996               0.000048537               0.000317507               0.999999996               0.000060077               0.000344083               0.999999996               0.000072531               0.000371951               0.999999996               0.000085665               0.000400546               0.999999996               0.000099424               0.000430120               0.999999996               0.000113716               0.000460789               0.999999996               0.000128437               0.000492510               0.999999996               0.000143390               0.000525102               0.999999996               0.000158409               0.000558343               0.999999996               0.000173213               0.000591507               0.999999996               0.000015806               0.000277665               0.999999996               0.000003533               0.000252002               0.999999996               0.000004260               0.000252194               0.999999996               0.000009790               0.000264061               0.999999996               0.000017627               0.000282572               0.999999996               0.000027038               0.000305573               0.999999996               0.000037897               0.000331832               0.999999996               0.000050111               0.000360627               0.999999996               0.000063402               0.000391215               0.999999996               0.000077362               0.000423096               0.999999996               0.000091799               0.000455851               0.999999996               0.000106731               0.000489649               0.999999996               0.000122031               0.000524544               0.999999996               0.000137596               0.000560427               0.999999996               0.000153362               0.000596990               0.999999996               0.000169161               0.000633749               0.999999996               0.000184805               0.000670266               0.999999996               0.000014778               0.000303101               0.999999996              -0.000000553               0.000279802               0.999999996              -0.000001394               0.000277512               0.999999996               0.000003052               0.000286379               0.999999996               0.000009934               0.000301886               0.999999996               0.000018393               0.000321968               0.999999996               0.000028112               0.000345483               0.999999996               0.000038995               0.000371672               0.999999996               0.000050809               0.000399870               0.999999996               0.000063180               0.000429440               0.999999996               0.000075945               0.000459960               0.999999996               0.000088860               0.000491196               0.999999996               0.000101946               0.000523186               0.999999996               0.000115163               0.000556067               0.999999996               0.000128696               0.000589753               0.999999996               0.000142627               0.000624075               0.999999996               0.000156941               0.000658576               0.999999996               0.000013430               0.000325978               0.999999996              -0.000003354               0.000306226               0.999999996              -0.000005747               0.000302909               0.999999996              -0.000002579               0.000309404               0.999999996               0.000003167               0.000322306               0.999999996               0.000010485               0.000339676               0.999999996               0.000018988               0.000360537               0.999999996               0.000028504               0.000384220               0.999999996               0.000038791               0.000410085               0.999999996               0.000049600               0.000437408               0.999999996               0.000060641               0.000465790               0.999999996               0.000071700               0.000494856               0.999999996               0.000082727               0.000524472               0.999999996               0.000093588               0.000554678               0.999999996               0.000104517               0.000585612               0.999999996               0.000115761               0.000617214               0.999999996               0.000127363               0.000649451               0.999999996               0.000011831               0.000345923               0.999999996              -0.000004952               0.000330636               0.999999996              -0.000008568               0.000327413               0.999999996              -0.000006715               0.000332417               0.999999996              -0.000002304               0.000343272               0.999999996               0.000003749               0.000358406               0.999999996               0.000011043               0.000376959               0.999999996               0.000019088               0.000398316               0.999999996               0.000027688               0.000421894               0.999999996               0.000036731               0.000447173               0.999999996               0.000046155               0.000473560               0.999999996               0.000055624               0.000500739               0.999999996               0.000064678               0.000528461               0.999999996               0.000073252               0.000556639               0.999999996               0.000081569               0.000585267               0.999999996               0.000089732               0.000614487               0.999999996               0.000097826               0.000644430               0.999999996               0.000009980               0.000362651               0.999999996              -0.000005409               0.000352171               0.999999996              -0.000009667               0.000349920               0.999999996              -0.000008996               0.000354329               0.999999996              -0.000005809               0.000363792               0.999999996              -0.000001147               0.000377248               0.999999996               0.000004698               0.000393992               0.999999996               0.000011145               0.000413470               0.999999996               0.000017956               0.000435137               0.999999996               0.000025217               0.000458576               0.999999996               0.000032831               0.000483326               0.999999996               0.000040482               0.000509040               0.999999996               0.000047786               0.000535304               0.999999996               0.000054454               0.000562001               0.999999996               0.000060393               0.000589080               0.999999996               0.000065534               0.000616583               0.999999996               0.000069988               0.000644618               0.999999996               0.000007848               0.000375930               0.999999996              -0.000004939               0.000370075               0.999999996              -0.000009093               0.000369352               0.999999996              -0.000009208               0.000373819               0.999999996              -0.000007140               0.000382621               0.999999996              -0.000003796               0.000394932               0.999999996               0.000000374               0.000410397               0.999999996               0.000005125               0.000428518               0.999999996               0.000010282               0.000448734               0.999999996               0.000015605               0.000470726               0.999999996               0.000021122               0.000494273               0.999999996               0.000026888               0.000518928               0.999999996               0.000032542               0.000544289               0.999999996               0.000037477               0.000570136               0.999999996               0.000041350               0.000596381               0.999999996               0.000044067               0.000622920               0.999999996               0.000045528               0.000649787               0.999999996               0.000005416               0.000385602               0.999999996              -0.000003704               0.000383505               0.999999996              -0.000007023               0.000384383               0.999999996              -0.000007433               0.000389318               0.999999996              -0.000006260               0.000397928               0.999999996              -0.000004240               0.000409697               0.999999996              -0.000001664               0.000424321               0.999999996               0.000001480               0.000441424               0.999999996               0.000004964               0.000460696               0.999999996               0.000008391               0.000481833               0.999999996               0.000011961               0.000504460               0.999999996               0.000015914               0.000528296               0.999999996               0.000019850               0.000553075               0.999999996               0.000023071               0.000578534               0.999999996               0.000025282               0.000604418               0.999999996               0.000026354               0.000630595               0.999999996               0.000026042               0.000657016               0.999999996               0.000002760               0.000391481               0.999999996              -0.000001964               0.000391888               0.999999996              -0.000003850               0.000393988               0.999999996              -0.000004142               0.000399407               0.999999996              -0.000003616               0.000408073               0.999999996              -0.000002716               0.000419592               0.999999996              -0.000001501               0.000433678               0.999999996               0.000000118               0.000450187               0.999999996               0.000001847               0.000468887               0.999999996               0.000003506               0.000489474               0.999999996               0.000005318               0.000511561               0.999999996               0.000007335               0.000534930               0.999999996               0.000009345               0.000559408               0.999999996               0.000010987               0.000584744               0.999999996               0.000011954               0.000610642               0.999999996               0.000012112               0.000636852               0.999999996               0.000011471               0.000663176               0.999999996               0.000000000               0.000393412               0.999999996              -0.000000000               0.000394725               0.999999996              -0.000000000               0.000397285               0.999999996               0.000000000               0.000402846               0.999999996               0.000000000               0.000411579               0.999999996              -0.000000000               0.000423081               0.999999996              -0.000000000               0.000436963               0.999999996              -0.000000000               0.000453275               0.999999996              -0.000000000               0.000471770               0.999999996               0.000000000               0.000492149               0.999999996              -0.000000000               0.000514159               0.999999996               0.000000000               0.000537439               0.999999996               0.000000000               0.000561828               0.999999996              -0.000000000               0.000587124               0.999999996              -0.000000000               0.000613079               0.999999996               0.000000000               0.000639378               0.999999996               0.000000000               0.000665706               0.999999996 </DataArray>
<DataArray type="Float64"                                    Name="defo"                                                      NumberOfComponents=" 3" format="ascii">
             -0.000024169              -0.000000000               0.999999996              -0.000040158              -0.000000000               0.999999996              -0.000048137              -0.000000000               0.999999996              -0.000053020               0.000000000               0.999999996              -0.000056824               0.000000000               0.999999996              -0.000060468               0.000000000               0.999999996              -0.000064375               0.000000000               0.999999996              -0.000068780               0.000000000               0.999999996              -0.000073778               0.000000000               0.999999996              -0.000079366              -0.000000000               0.999999996              -0.000085634              -0.000000000               0.999999996              -0.000092529               0.000000000               0.999999996              -0.000100106               0.000000000               0.999999996              -0.000108328               0.000000000               0.999999996              -0.000117134               0.000000000               0.999999996              -0.000126527               0.000000000               0.999999996              -0.000136402              -0.000000000               0.999999996              -0.000024007               0.000039308               0.999999996              -0.000039308               0.000034896               0.999999996              -0.000046884               0.000033802               0.999999996              -0.000051562               0.000034543               0.999999996              -0.000055323               0.000036397               0.999999996              -0.000059024               0.000038951               0.999999996              -0.000063066               0.000041984               0.999999996              -0.000067581               0.000045467               0.999999996              -0.000072661               0.000049140               0.999999996              -0.000078375               0.000052982               0.999999996              -0.000084719               0.000057068               0.999999996              -0.000091715               0.000061280               0.999999996              -0.000099392               0.000065634               0.999999996              -0.000107713               0.000070010               0.999999996              -0.000116617               0.000074410               0.999999996              -0.000126063               0.000078672               0.999999996              -0.000135983               0.000082676               0.999999996              -0.000023601               0.000078117               0.999999996              -0.000036887               0.000069314               0.999999996              -0.000043347               0.000067332               0.999999996              -0.000047553               0.000069016               0.999999996              -0.000051251               0.000072874               0.999999996              -0.000055076               0.000078036               0.999999996              -0.000059359               0.000084159               0.999999996              -0.000064223               0.000091059               0.999999996              -0.000069654               0.000098383               0.999999996              -0.000075700               0.000106086               0.999999996              -0.000082383               0.000114185               0.999999996              -0.000089719               0.000122680               0.999999996              -0.000097720               0.000131401               0.999999996              -0.000106322               0.000140250               0.999999996              -0.000115447               0.000149058               0.999999996              -0.000125067               0.000157806               0.999999996              -0.000135171               0.000166219               0.999999996              -0.000022814               0.000116012               0.999999996              -0.000032977               0.000102921               0.999999996              -0.000037959               0.000100405               0.999999996              -0.000041641               0.000103243               0.999999996              -0.000045331               0.000109310               0.999999996              -0.000049433               0.000117269               0.999999996              -0.000054156               0.000126528               0.999999996              -0.000059536               0.000136875               0.999999996              -0.000065609               0.000147900               0.999999996              -0.000072364               0.000159437               0.999999996              -0.000079777               0.000171624               0.999999996              -0.000087827               0.000184377               0.999999996              -0.000096458               0.000197482               0.999999996              -0.000105625               0.000210740               0.999999996              -0.000115271               0.000224097               0.999999996              -0.000125403               0.000237590               0.999999996              -0.000136096               0.000251230               0.999999996              -0.000021705               0.000152548               0.999999996              -0.000027919               0.000135474               0.999999996              -0.000031294               0.000132804               0.999999996              -0.000034546               0.000137178               0.999999996              -0.000038456               0.000145636               0.999999996              -0.000043061               0.000156479               0.999999996              -0.000048534               0.000168972               0.999999996              -0.000054828               0.000182803               0.999999996              -0.000061890               0.000197598               0.999999996              -0.000069679               0.000213042               0.999999996              -0.000078153               0.000229241               0.999999996              -0.000087196               0.000246144               0.999999996              -0.000096754               0.000263625               0.999999996              -0.000106805               0.000281448               0.999999996              -0.000117400               0.000299648               0.999999996              -0.000128616               0.000318376               0.999999996              -0.000140529               0.000337837               0.999999996              -0.000020414               0.000187298               0.999999996              -0.000022039               0.000166783               0.999999996              -0.000023991               0.000164370               0.999999996              -0.000027173               0.000170546               0.999999996              -0.000031612               0.000181497               0.999999996              -0.000037131               0.000195259               0.999999996              -0.000043673               0.000211039               0.999999996              -0.000051103               0.000228377               0.999999996              -0.000059337               0.000247022               0.999999996              -0.000068371               0.000266552               0.999999996              -0.000078152               0.000286831               0.999999996              -0.000088544               0.000307993               0.999999996              -0.000099486               0.000329877               0.999999996              -0.000111049               0.000352415               0.999999996              -0.000123267               0.000375635               0.999999996              -0.000136157               0.000399704               0.999999996              -0.000149653               0.000424879               0.999999996              -0.000018925               0.000219968               0.999999996              -0.000015741               0.000196695               0.999999996              -0.000016681               0.000194971               0.999999996              -0.000020292               0.000203009               0.999999996              -0.000025678               0.000216493               0.999999996              -0.000032363               0.000233244               0.999999996              -0.000040113               0.000252379               0.999999996              -0.000048854               0.000273330               0.999999996              -0.000058582               0.000295904               0.999999996              -0.000069294               0.000319624               0.999999996              -0.000080727               0.000344043               0.999999996              -0.000092849               0.000369424               0.999999996              -0.000105574               0.000395709               0.999999996              -0.000118936               0.000422909               0.999999996              -0.000132851               0.000451028               0.999999996              -0.000147208               0.000479957               0.999999996              -0.000161680               0.000509606               0.999999996              -0.000017310               0.000250263               0.999999996              -0.000009517               0.000225077               0.999999996              -0.000009965               0.000224300               0.999999996              -0.000014390               0.000234321               0.999999996              -0.000020984               0.000250285               0.999999996              -0.000028936               0.000270088               0.999999996              -0.000038092               0.000292731               0.999999996              -0.000048537               0.000317507               0.999999996              -0.000060077               0.000344083               0.999999996              -0.000072531               0.000371951               0.999999996              -0.000085665               0.000400546               0.999999996              -0.000099424               0.000430120               0.999999996              -0.000113716               0.000460789               0.999999996              -0.000128437               0.000492510               0.999999996              -0.000143390               0.000525102               0.999999996              -0.000158409               0.000558343               0.999999996              -0.000173213               0.000591507               0.999999996              -0.000015806               0.000277665               0.999999996              -0.000003533               0.000252002               0.999999996              -0.000004260               0.000252194               0.999999996              -0.000009790               0.000264061               0.999999996              -0.000017627               0.000282572               0.999999996              -0.000027038               0.000305573               0.999999996              -0.000037897               0.000331832               0.999999996              -0.000050111               0.000360627               0.999999996              -0.000063402               0.000391215               0.999999996              -0.000077362               0.000423096               0.999999996              -0.000091799               0.000455851               0.999999996              -0.000106731               0.000489649               0.999999996              -0.000122031               0.000524544               0.999999996              -0.000137596               0.000560427               0.999999996              -0.000153362               0.000596990               0.999999996              -0.000169161               0.000633749               0.999999996              -0.000184805               0.000670266               0.999999996              -0.000014778               0.000303101               0.999999996               0.000000553               0.000279802               0.999999996               0.000001394               0.000277512               0.999999996              -0.000003052               0.000286379               0.999999996              -0.000009934               0.000301886               0.999999996              -0.000018393               0.000321968               0.999999996              -0.000028112               0.000345483               0.999999996              -0.000038995               0.000371672               0.999999996              -0.000050809               0.000399870               0.999999996              -0.000063180               0.000429440               0.999999996              -0.000075945               0.000459960               0.999999996              -0.000088860               0.000491196               0.999999996              -0.000101946               0.000523186               0.999999996              -0.000115163               0.000556067               0.999999996              -0.000128696               0.000589753               0.999999996              -0.000142627               0.000624075               0.999999996              -0.000156941               0.000658576               0.999999996              -0.000013430               0.000325978               0.999999996               0.000003354               0.000306226               0.999999996               0.000005747               0.000302909               0.999999996               0.000002579               0.000309404               0.999999996              -0.000003167               0.000322306               0.999999996              -0.000010485               0.000339676               0.999999996              -0.000018988               0.000360537               0.999999996              -0.000028504               0.000384220               0.999999996              -0.000038791               0.000410085               0.999999996              -0.000049600               0.000437408               0.999999996              -0.000060641               0.000465790               0.999999996              -0.000071700               0.000494856               0.999999996              -0.000082727               0.000524472               0.999999996              -0.000093588               0.000554678               0.999999996              -0.000104517               0.000585612               0.999999996              -0.000115761               0.000617214               0.999999996              -0.000127363               0.000649451               0.999999996              -0.000011831               0.000345923               0.999999996               0.000004952               0.000330636               0.999999996               0.000008568               0.000327413               0.999999996               0.000006715               0.000332417               0.999999996               0.000002304               0.000343272               0.999999996              -0.000003749               0.000358406               0.999999996              -0.000011043               0.000376959               0.999999996              -0.000019088               0.000398316               0.999999996              -0.000027688               0.000421894               0.999999996              -0.000036731               0.000447173               0.999999996              -0.000046155               0.000473560               0.999999996              -0.000055624               0.000500739               0.999999996              -0.000064678               0.000528461               0.999999996              -0.000073252               0.000556639               0.999999996              -0.000081569               0.000585267               0.999999996              -0.000089732               0.000614487               0.999999996              -0.000097826               0.000644430               0.999999996              -0.000009980               0.000362651               0.999999996               0.000005409               0.000352171               0.999999996               0.000009667               0.000349920               0.999999996               0.000008996               0.000354329               0.999999996               0.000005809               0.000363792               0.999999996               0.000001147               0.000377248               0.999999996              -0.000004698               0.000393992               0.999999996              -0.000011145               0.000413470               0.999999996              -0.000017956               0.000435137               0.999999996              -0.000025217               0.000458576               0.999999996              -0.000032831               0.000483326               0.999999996              -0.000040482               0.000509040               0.999999996              -0.000047786               0.000535304               0.999999996              -0.000054454               0.000562001               0.999999996              -0.000060393               0.000589080               0.999999996              -0.000065534               0.000616583               0.999999996              -0.000069988               0.000644618               0.999999996              -0.000007848               0.000375930               0.999999996               0.000004939               0.000370075               0.999999996               0.000009093               0.000369352               0.999999996               0.000009208               0.000373819               0.999999996               0.000007140               0.000382621               0.999999996               0.000003796               0.000394932               0.999999996              -0.000000374               0.000410397               0.999999996              -0.000005125               0.000428518               0.999999996              -0.000010282               0.000448734               0.999999996              -0.000015605               0.000470726               0.999999996              -0.000021122               0.000494273               0.999999996              -0.000026888               0.000518928               0.999999996              -0.000032542               0.000544289               0.999999996              -0.000037477               0.000570136               0.999999996              -0.000041350               0.000596381               0.999999996              -0.000044067               0.000622920               0.999999996              -0.000045528               0.000649787               0.999999996              -0.000005416               0.000385602               0.999999996               0.000003704               0.000383505               0.999999996               0.000007023               0.000384383               0.999999996               0.000007433               0.000389318               0.999999996               0.000006260               0.000397928               0.999999996               0.000004240               0.000409697               0.999999996               0.000001664               0.000424321               0.999999996              -0.000001480               0.000441424               0.999999996              -0.000004964               0.000460696               0.999999996              -0.000008391               0.000481833               0.999999996              -0.000011961               0.000504460               0.999999996              -0.000015914               0.000528296               0.999999996              -0.000019850               0.000553075               0.999999996              -0.000023071               0.000578534               0.999999996              -0.000025282               0.000604418               0.999999996              -0.000026354               0.000630595               0.999999996              -0.000026042               0.000657016               0.999999996              -0.000002760               0.000391481               0.999999996               0.000001964               0.000391888               0.999999996               0.000003850               0.000393988               0.999999996               0.000004142               0.000399407               0.999999996               0.000003616               0.000408073               0.999999996               0.000002716               0.000419592               0.999999996               0.000001501               0.000433678               0.999999996              -0.000000118               0.000450187               0.999999996              -0.000001847               0.000468887               0.999999996              -0.000003506               0.000489474               0.999999996              -0.000005318               0.000511561               0.999999996              -0.000007335               0.000534930               0.999999996              -0.000009345               0.000559408               0.999999996              -0.000010987               0.000584744               0.999999996              -0.000011954               0.000610642               0.999999996              -0.000012112               0.000636852               0.999999996              -0.000011471               0.000663176               0.999999996               0.000000000               0.000393412               0.999999996              -0.000000000               0.000394725               0.999999996              -0.000000000               0.000397285               0.999999996               0.000000000               0.000402846               0.999999996               0.000000000               0.000411579               0.999999996              -0.000000000               0.000423081               0.999999996              -0.000000000               0.000436963               0.999999996              -0.000000000               0.000453275               0.999999996              -0.000000000               0.000471770               0.999999996               0.000000000               0.000492149               0.999999996              -0.000000000               0.000514159               0.999999996               0.000000000               0.000537439               0.999999996               0.000000000               0.000561828               0.999999996              -0.000000000               0.000587124               0.999999996              -0.000000000               0.000613079               0.999999996               0.000000000               0.000639378               0.999999996               0.000000000               0.000665706               0.999999996              -0.000024169              -0.000000000               0.999999996              -0.000040158              -0.000000000               0.999999996              -0.000048137              -0.000000000               0.999999996              -0.000053020               0.000000000               0.999999996              -0.000056824               0.000000000               0.999999996              -0.000060468               0.000000000               0.999999996              -0.000064375               0.000000000               0.999999996              -0.000068780               0.000000000               0.999999996              -0.000073778               0.000000000               0.999999996              -0.000079366              -0.000000000               0.999999996              -0.000085634              -0.000000000               0.999999996              -0.000092529               0.000000000               0.999999996              -0.000100106               0.000000000               0.999999996              -0.000108328               0.000000000               0.999999996              -0.000117134               0.000000000               0.999999996              -0.000126527               0.000000000               0.999999996              -0.000136402              -0.000000000               0.999999996              -0.000024007              -0.000039308               0.999999996              -0.000039308              -0.000034896               0.999999996              -0.000046884              -0.000033802               0.999999996              -0.000051562              -0.000034543               0.999999996              -0.000055323              -0.000036397               0.999999996              -0.000059024              -0.000038951               0.999999996              -0.000063066              -0.000041984               0.999999996              -0.000067581              -0.000045467               0.999999996              -0.000072661              -0.000049140               0.999999996              -0.000078375              -0.000052982               0.999999996              -0.000084719              -0.000057068               0.999999996              -0.000091715              -0.000061280               0.999999996              -0.000099392              -0.000065634               0.999999996              -0.000107713              -0.000070010               0.999999996              -0.000116617              -0.000074410               0.999999996              -0.000126063              -0.000078672               0.999999996              -0.000135983              -0.000082676               0.999999996              -0.000023601              -0.000078117               0.999999996              -0.000036887              -0.000069314               0.999999996              -0.000043347              -0.000067332               0.999999996              -0.000047553              -0.000069016               0.999999996              -0.000051251              -0.000072874               0.999999996              -0.000055076              -0.000078036               0.999999996              -0.000059359              -0.000084159               0.999999996              -0.000064223              -0.000091059               0.999999996              -0.000069654              -0.000098383               0.999999996              -0.000075700              -0.000106086               0.999999996              -0.000082383              -0.000114185               0.999999996              -0.000089719              -0.000122680               0.999999996              -0.000097720              -0.000131401               0.999999996              -0.000106322              -0.000140250               0.999999996              -0.000115447              -0.000149058               0.999999996              -0.000125067              -0.000157806               0.999999996              -0.000135171              -0.000166219               0.999999996              -0.000022814              -0.000116012               0.999999996              -0.000032977              -0.000102921               0.999999996              -0.000037959              -0.000100405               0.999999996              -0.000041641              -0.000103243               0.999999996              -0.000045331              -0.000109310               0.999999996              -0.000049433              -0.000117269               0.999999996              -0.000054156              -0.000126528               0.999999996              -0.000059536              -0.000136875               0.999999996              -0.000065609              -0.000147900               0.999999996              -0.000072364              -0.000159437               0.999999996              -0.000079777              -0.000171624               0.999999996              -0.000087827              -0.000184377               0.999999996              -0.000096458              -0.000197482               0.999999996              -0.000105625              -0.000210740               0.999999996              -0.000115271              -0.000224097               0.999999996              -0.000125403              -0.000237590               0.999999996              -0.000136096              -0.000251230               0.999999996              -0.000021705              -0.000152548               0.999999996              -0.000027919              -0.000135474               0.999999996              -0.000031294              -0.000132804               0.999999996              -0.000034546              -0.000137178               0.999999996              -0.000038456              -0.000145636               0.999999996              -0.000043061              -0.000156479               0.999999996              -0.000048534              -0.000168972               0.999999996              -0.000054828              -0.000182803               0.999999996              -0.000061890              -0.000197598               0.999999996              -0.000069679              -0.000213042               0.999999996              -0.000078153              -0.000229241               0.999999996              -0.000087196              -0.000246144               0.999999996              -0.000096754              -0.000263625               0.999999996              -0.000106805              -0.000281448               0.999999996              -0.000117400              -0.000299648               0.999999996              -0.000128616              -0.000318376               0.999999996              -0.000140529              -0.000337837               0.999999996              -0.000020414              -0.000187298               0.999999996              -0.000022039              -0.000166783               0.999999996              -0.000023991              -0.000164370               0.999999996              -0.000027173              -0.000170546               0.999999996              -0.000031612              -0.000181497               0.999999996              -0.000037131              -0.000195259               0.999999996              -0.000043673              -0.000211039               0.999999996              -0.000051103              -0.000228377               0.999999996              -0.000059337              -0.000247022               0.999999996              -0.000068371              -0.000266552               0.999999996              -0.000078152              -0.000286831               0.999999996              -0.000088544              -0.000307993               0.999999996              -0.000099486              -0.000329877               0.999999996              -0.000111049              -0.000352415               0.999999996              -0.000123267              -0.000375635               0.999999996              -0.000136157              -0.000399704               0.999999996              -0.000149653              -0.000424879               0.999999996              -0.000018925              -0.000219968               0.999999996              -0.000015741              -0.000196695               0.999999996              -0.000016681              -0.000194971               0.999999996              -0.000020292              -0.000203009               0.999999996              -0.000025678              -0.000216493               0.999999996              -0.000032363              -0.000233244               0.999999996              -0.000040113              -0.000252379               0.999999996              -0.000048854              -0.000273330               0.999999996              -0.000058582              -0.000295904               0.999999996              -0.000069294              -0.000319624               0.999999996              -0.000080727              -0.000344043               0.999999996              -0.000092849              -0.000369424               0.999999996              -0.000105574              -0.000395709               0.999999996              -0.000118936              -0.000422909               0.999999996              -0.000132851              -0.000451028               0.999999996              -0.000147208              -0.000479957               0.999999996              -0.000161680              -0.000509606               0.999999996              -0.000017310              -0.000250263               0.999999996              -0.000009517              -0.000225077               0.999999996              -0.000009965              -0.000224300               0.999999996              -0.000014390              -0.000234321               0.999999996              -0.000020984              -0.000250285               0.999999996              -0.000028936              -0.000270088               0.999999996              -0.000038092              -0.000292731               0.999999996              -0.000048537              -0.000317507               0.999999996              -0.000060077              -0.000344083               0.999999996              -0.000072531              -0.000371951               0.999999996              -0.000085665              -0.000400546               0.999999996              -0.000099424              -0.000430120               0.999999996              -0.000113716              -0.000460789               0.999999996              -0.000128437              -0.000492510               0.999999996              -0.000143390              -0.000525102               0.999999996              -0.000158409              -0.000558343               0.999999996              -0.000173213              -0.000591507               0.999999996              -0.000015806              -0.000277665               0.999999996              -0.000003533              -0.000252002               0.999999996              -0.000004260              -0.000252194               0.999999996              -0.000009790              -0.000264061               0.999999996              -0.000017627              -0.000282572               0.999999996              -0.000027038              -0.000305573               0.999999996              -0.000037897              -0.000331832               0.999999996              -0.000050111              -0.000360627               0.999999996              -0.000063402              -0.000391215               0.999999996              -0.000077362              -0.000423096               0.999999996              -0.000091799              -0.000455851               0.999999996              -0.000106731              -0.000489649               0.999999996              -0.000122031              -0.000524544               0.999999996              -0.000137596              -0.000560427               0.999999996              -0.000153362              -0.000596990               0.999999996              -0.000169161              -0.000633749               0.999999996              -0.000184805              -0.000670266               0.999999996              -0.000014778              -0.000303101               0.999999996               0.000000553              -0.000279802               0.999999996               0.000001394              -0.000277512               0.999999996              -0.000003052              -0.000286379               0.999999996              -0.000009934              -0.000301886               0.999999996              -0.000018393              -0.000321968               0.999999996              -0.000028112              -0.000345483               0.999999996              -0.000038995              -0.000371672               0.999999996              -0.000050809              -0.000399870               0.999999996              -0.000063180              -0.000429440               0.999999996              -0.000075945              -0.000459960               0.999999996              -0.000088860              -0.000491196               0.999999996              -0.000101946              -0.000523186               0.999999996              -0.000115163              -0.000556067               0.999999996              -0.000128696              -0.000589753               0.999999996              -0.000142627              -0.000624075               0.999999996              -0.000156941              -0.000658576               0.999999996              -0.000013430              -0.000325978               0.999999996               0.000003354              -0.000306226               0.999999996               0.000005747              -0.000302909               0.999999996               0.000002579              -0.000309404               0.999999996              -0.000003167              -0.000322306               0.999999996              -0.000010485              -0.000339676               0.999999996              -0.000018988              -0.000360537               0.999999996              -0.000028504              -0.000384220               0.999999996              -0.000038791              -0.000410085               0.999999996              -0.000049600              -0.000437408               0.999999996              -0.000060641              -0.000465790               0.999999996              -0.000071700              -0.000494856               0.999999996              -0.000082727              -0.000524472               0.999999996              -0.000093588              -0.000554678               0.999999996              -0.000104517              -0.000585612               0.999999996              -0.000115761              -0.000617214               0.999999996              -0.000127363              -0.000649451               0.999999996              -0.000011831              -0.000345923               0.999999996               0.000004952              -0.000330636               0.999999996               0.000008568              -0.000327413               0.999999996               0.000006715              -0.000332417               0.999999996               0.000002304              -0.000343272               0.999999996              -0.000003749              -0.000358406               0.999999996              -0.000011043              -0.000376959               0.999999996              -0.000019088              -0.000398316               0.999999996              -0.000027688              -0.000421894               0.999999996              -0.000036731              -0.000447173               0.999999996              -0.000046155              -0.000473560               0.999999996              -0.000055624              -0.000500739               0.999999996              -0.000064678              -0.000528461               0.999999996              -0.000073252              -0.000556639               0.999999996              -0.000081569              -0.000585267               0.999999996              -0.000089732              -0.000614487               0.999999996              -0.000097826              -0.000644430               0.999999996              -0.000009980              -0.000362651               0.999999996               0.000005409              -0.000352171               0.999999996               0.000009667              -0.000349920               0.999999996               0.000008996              -0.000354329               0.999999996               0.000005809              -0.000363792               0.999999996               0.000001147              -0.000377248               0.999999996              -0.000004698              -0.000393992               0.999999996              -0.000011145              -0.000413470               0.999999996              -0.000017956              -0.000435137               0.999999996              -0.000025217              -0.000458576               0.999999996              -0.000032831              -0.000483326               0.999999996              -0.000040482              -0.000509040               0.999999996              -0.000047786              -0.000535304               0.999999996              -0.000054454              -0.000562001               0.999999996              -0.000060393              -0.000589080               0.999999996              -0.000065534              -0.000616583               0.999999996              -0.000069988              -0.000644618               0.999999996              -0.000007848              -0.000375930               0.999999996               0.000004939              -0.000370075               0.999999996               0.000009093              -0.000369352               0.999999996               0.000009208              -0.000373819               0.999999996               0.000007140              -0.000382621               0.999999996               0.000003796              -0.000394932               0.999999996              -0.000000374              -0.000410397               0.999999996              -0.000005125              -0.000428518               0.999999996              -0.000010282              -0.000448734               0.999999996              -0.000015605              -0.000470726               0.999999996              -0.000021122              -0.000494273               0.999999996              -0.000026888              -0.000518928               0.999999996              -0.000032542              -0.000544289               0.999999996              -0.000037477              -0.000570136               0.999999996              -0.000041350              -0.000596381               0.999999996              -0.000044067              -0.000622920               0.999999996              -0.000045528              -0.000649787               0.999999996              -0.000005416              -0.000385602               0.999999996               0.000003704              -0.000383505               0.999999996               0.000007023              -0.000384383               0.999999996               0.000007433              -0.000389318               0.999999996               0.000006260              -0.000397928               0.999999996               0.000004240              -0.000409697               0.999999996               0.000001664              -0.000424321               0.999999996              -0.000001480              -0.000441424               0.999999996              -0.000004964              -0.000460696               0.999999996              -0.000008391              -0.000481833               0.999999996              -0.000011961              -0.000504460               0.999999996              -0.000015914              -0.000528296               0.999999996              -0.000019850              -0.000553075               0.999999996              -0.000023071              -0.000578534               0.999999996              -0.000025282              -0.000604418               0.999999996              -0.000026354              -0.000630595               0.999999996              -0.000026042              -0.000657016               0.999999996              -0.000002760              -0.000391481               0.999999996               0.000001964              -0.000391888               0.999999996               0.000003850              -0.000393988               0.999999996               0.000004142              -0.000399407               0.999999996               0.000003616              -0.000408073               0.999999996               0.000002716              -0.000419592               0.999999996               0.000001501              -0.000433678               0.999999996              -0.000000118              -0.000450187               0.999999996              -0.000001847              -0.000468887               0.999999996              -0.000003506              -0.000489474               0.999999996              -0.000005318              -0.000511561               0.999999996              -0.000007335              -0.000534930               0.999999996              -0.000009345              -0.000559408               0.999999996              -0.000010987              -0.000584744               0.999999996              -0.000011954              -0.000610642               0.999999996              -0.000012112              -0.000636852               0.999999996              -0.000011471              -0.000663176               0.999999996              -0.000000000              -0.000393412               0.999999996               0.000000000              -0.000394725               0.999999996              -0.000000000              -0.000397285               0.999999996              -0.000000000              -0.000402846               0.999999996              -0.000000000              -0.000411579               0.999999996              -0.000000000              -0.000423081               0.999999996               0.000000000              -0.000436963               0.999999996               0.000000000              -0.000453275               0.999999996               0.000000000              -0.000471770               0.999999996               0.000000000              -0.000492149               0.999999996               0.000000000              -0.000514159               0.999999996              -0.000000000              -0.000537439               0.999999996              -0.000000000              -0.000561828               0.999999996              -0.000000000              -0.000587124               0.999999996              -0.000000000              -0.000613079               0.999999996              -0.000000000              -0.000639378               0.999999996               0.000000000              -0.000665706               0.999999996               0.000024169               0.000000000               0.999999996               0.000040158              -0.000000000               0.999999996               0.000048137              -0.000000000               0.999999996               0.000053020              -0.000000000               0.999999996               0.000056824              -0.000000000               0.999999996               0.000060468              -0.000000000               0.999999996               0.000064375              -0.000000000               0.999999996               0.000068780              -0.000000000               0.999999996               0.000073778               0.000000000               0.999999996               0.000079366               0.000000000               0.999999996               0.000085634               0.000000000               0.999999996               0.000092529               0.000000000               0.999999996               0.000100106               0.000000000               0.999999996               0.000108328               0.000000000               0.999999996               0.000117134               0.000000000               0.999999996               0.000126527               0.000000000               0.999999996               0.000136402               0.000000000               0.999999996               0.000024007              -0.000039308               0.999999996               0.000039308              -0.000034896               0.999999996               0.000046884              -0.000033802               0.999999996               0.000051562              -0.000034543               0.999999996               0.000055323              -0.000036397               0.999999996               0.000059024              -0.000038951               0.999999996               0.000063066              -0.000041984               0.999999996               0.000067581              -0.000045467               0.999999996               0.000072661              -0.000049140               0.999999996               0.000078375              -0.000052982               0.999999996               0.000084719              -0.000057068               0.999999996               0.000091715              -0.000061280               0.999999996               0.000099392              -0.000065634               0.999999996               0.000107713              -0.000070010               0.999999996               0.000116617              -0.000074410               0.999999996               0.000126063              -0.000078672               0.999999996               0.000135983              -0.000082676               0.999999996               0.000023601              -0.000078117               0.999999996               0.000036887              -0.000069314               0.999999996               0.000043347              -0.000067332               0.999999996               0.000047553              -0.000069016               0.999999996               0.000051251              -0.000072874               0.999999996               0.000055076              -0.000078036               0.999999996               0.000059359              -0.000084159               0.999999996               0.000064223              -0.000091059               0.999999996               0.000069654              -0.000098383               0.999999996               0.000075700              -0.000106086               0.999999996               0.000082383              -0.000114185               0.999999996               0.000089719              -0.000122680               0.999999996               0.000097720              -0.000131401               0.999999996               0.000106322              -0.000140250               0.999999996               0.000115447              -0.000149058               0.999999996               0.000125067              -0.000157806               0.999999996               0.000135171              -0.000166219               0.999999996               0.000022814              -0.000116012               0.999999996               0.000032977              -0.000102921               0.999999996               0.000037959              -0.000100405               0.999999996               0.000041641              -0.000103243               0.999999996               0.000045331              -0.000109310               0.999999996               0.000049433              -0.000117269               0.999999996               0.000054156              -0.000126528               0.999999996               0.000059536              -0.000136875               0.999999996               0.000065609              -0.000147900               0.999999996               0.000072364              -0.000159437               0.999999996               0.000079777              -0.000171624               0.999999996               0.000087827              -0.000184377               0.999999996               0.000096458              -0.000197482               0.999999996               0.000105625              -0.000210740               0.999999996               0.000115271              -0.000224097               0.999999996               0.000125403              -0.000237590               0.999999996               0.000136096              -0.000251230               0.999999996               0.000021705              -0.000152548               0.999999996               0.000027919              -0.000135474               0.999999996               0.000031294              -0.000132804               0.999999996               0.000034546              -0.000137178               0.999999996               0.000038456              -0.000145636               0.999999996               0.000043061              -0.000156479               0.999999996               0.000048534              -0.000168972               0.999999996               0.000054828              -0.000182803               0.999999996               0.000061890              -0.000197598               0.999999996               0.000069679              -0.000213042               0.999999996               0.000078153              -0.000229241               0.999999996               0.000087196              -0.000246144               0.999999996               0.000096754              -0.000263625               0.999999996               0.000106805              -0.000281448               0.999999996               0.000117400              -0.000299648               0.999999996               0.000128616              -0.000318376               0.999999996               0.000140529              -0.000337837               0.999999996               0.000020414              -0.000187298               0.999999996               0.000022039              -0.000166783               0.999999996               0.000023991              -0.000164370               0.999999996               0.000027173              -0.000170546               0.999999996               0.000031612              -0.000181497               0.999999996               0.000037131              -0.000195259               0.999999996               0.000043673              -0.000211039               0.999999996               0.000051103              -0.000228377               0.999999996               0.000059337              -0.000247022               0.999999996               0.000068371              -0.000266552               0.999999996               0.000078152              -0.000286831               0.999999996               0.000088544              -0.000307993               0.999999996               0.000099486              -0.000329877               0.999999996               0.000111049              -0.000352415               0.999999996               0.000123267              -0.000375635               0.999999996               0.000136157              -0.000399704               0.999999996               0.000149653              -0.000424879               0.999999996               0.000018925              -0.000219968               0.999999996               0.000015741              -0.000196695               0.999999996               0.000016681              -0.000194971               0.999999996               0.000020292              -0.000203009               0.999999996               0.000025678              -0.000216493               0.999999996               0.000032363              -0.000233244               0.999999996               0.000040113              -0.000252379               0.999999996               0.000048854              -0.000273330               0.999999996               0.000058582              -0.000295904               0.999999996               0.000069294              -0.000319624               0.999999996               0.000080727              -0.000344043               0.999999996               0.000092849              -0.000369424               0.999999996               0.000105574              -0.000395709               0.999999996               0.000118936              -0.000422909               0.999999996               0.000132851              -0.000451028               0.999999996               0.000147208              -0.000479957               0.999999996               0.000161680              -0.000509606               0.999999996               0.000017310              -0.000250263               0.999999996               0.000009517              -0.000225077               0.999999996               0.000009965              -0.000224300               0.999999996               0.000014390              -0.000234321               0.999999996               0.000020984              -0.000250285               0.999999996               0.000028936              -0.000270088               0.999999996               0.000038092              -0.000292731               0.999999996               0.000048537              -0.000317507               0.999999996               0.000060077              -0.000344083               0.999999996               0.000072531              -0.000371951               0.999999996               0.000085665              -0.000400546               0.999999996               0.000099424              -0.000430120               0.999999996               0.000113716              -0.000460789               0.999999996               0.000128437              -0.000492510               0.999999996               0.000143390              -0.000525102               0.999999996               0.000158409              -0.000558343               0.999999996               0.000173213              -0.000591507               0.999999996               0.000015806              -0.000277665               0.999999996               0.000003533              -0.000252002               0.999999996               0.000004260              -0.000252194               0.999999996               0.000009790              -0.000264061               0.999999996               0.000017627              -0.000282572               0.999999996               0.000027038              -0.000305573               0.999999996               0.000037897              -0.000331832               0.999999996               0.000050111              -0.000360627               0.999999996               0.000063402              -0.000391215               0.999999996               0.000077362              -0.000423096               0.999999996               0.000091799              -0.000455851               0.999999996               0.000106731              -0.000489649               0.999999996               0.000122031              -0.000524544               0.999999996               0.000137596              -0.000560427               0.999999996               0.000153362              -0.000596990               0.999999996               0.000169161              -0.000633749               0.999999996               0.000184805              -0.000670266               0.999999996               0.000014778              -0.000303101               0.999999996              -0.000000553              -0.000279802               0.999999996              -0.000001394              -0.000277512               0.999999996               0.000003052              -0.000286379               0.999999996               0.000009934              -0.000301886               0.999999996               0.000018393              -0.000321968               0.999999996               0.000028112              -0.000345483               0.999999996               0.000038995              -0.000371672               0.999999996               0.000050809              -0.000399870               0.999999996               0.000063180              -0.000429440               0.999999996               0.000075945              -0.000459960               0.999999996               0.000088860              -0.000491196               0.999999996               0.000101946              -0.000523186               0.999999996               0.000115163              -0.000556067               0.999999996               0.000128696              -0.000589753               0.999999996               0.000142627              -0.000624075               0.999999996               0.000156941              -0.000658576               0.999999996               0.000013430              -0.000325978               0.999999996              -0.000003354              -0.000306226               0.999999996              -0.000005747              -0.000302909               0.999999996              -0.000002579              -0.000309404               0.999999996               0.000003167              -0.000322306               0.999999996               0.000010485              -0.000339676               0.999999996               0.000018988              -0.000360537               0.999999996               0.000028504              -0.000384220               0.999999996               0.000038791              -0.000410085               0.999999996               0.000049600              -0.000437408               0.999999996               0.000060641              -0.000465790               0.999999996               0.000071700              -0.000494856               0.999999996               0.000082727              -0.000524472               0.999999996               0.000093588              -0.000554678               0.999999996               0.000104517              -0.000585612               0.999999996               0.000115761              -0.000617214               0.999999996               0.000127363              -0.000649451               0.999999996               0.000011831              -0.000345923               0.999999996              -0.000004952              -0.000330636               0.999999996              -0.000008568              -0.000327413               0.999999996              -0.000006715              -0.000332417               0.999999996              -0.000002304              -0.000343272               0.999999996               0.000003749              -0.000358406               0.999999996               0.000011043              -0.000376959               0.999999996               0.000019088              -0.000398316               0.999999996               0.000027688              -0.000421894               0.999999996               0.000036731              -0.000447173               0.999999996               0.000046155              -0.000473560               0.999999996               0.000055624              -0.000500739               0.999999996               0.000064678              -0.000528461               0.999999996               0.000073252              -0.000556639               0.999999996               0.000081569              -0.000585267               0.999999996               0.000089732              -0.000614487               0.999999996               0.000097826              -0.000644430               0.999999996               0.000009980              -0.000362651               0.999999996              -0.000005409              -0.000352171               0.999999996              -0.000009667              -0.000349920               0.999999996              -0.000008996              -0.000354329               0.999999996              -0.000005809              -0.000363792               0.999999996              -0.000001147              -0.000377248               0.999999996               0.000004698              -0.000393992               0.999999996               0.000011145              -0.000413470               0.999999996               0.000017956              -0.000435137               0.999999996               0.000025217              -0.000458576               0.999999996               0.000032831              -0.000483326               0.999999996               0.000040482              -0.000509040               0.999999996               0.000047786              -0.000535304               0.999999996               0.000054454              -0.000562001               0.999999996               0.000060393              -0.000589080               0.999999996               0.000065534              -0.000616583               0.999999996               0.000069988              -0.000644618               0.999999996               0.000007848              -0.000375930               0.999999996              -0.000004939              -0.000370075               0.999999996              -0.000009093              -0.000369352               0.999999996              -0.000009208              -0.000373819               0.999999996              -0.000007140              -0.000382621               0.999999996              -0.000003796              -0.000394932               0.999999996               0.000000374              -0.000410397               0.999999996               0.000005125              -0.000428518               0.999999996               0.000010282              -0.000448734               0.999999996               0.000015605              -0.000470726               0.999999996               0.000021122              -0.000494273               0.999999996               0.000026888              -0.000518928               0.999999996               0.000032542              -0.000544289               0.999999996               0.000037477              -0.000570136               0.999999996               0.000041350              -0.000596381               0.999999996               0.000044067              -0.000622920               0.999999996               0.000045528              -0.000649787               0.999999996               0.000005416              -0.000385602               0.999999996              -0.000003704              -0.000383505               0.999999996              -0.000007023              -0.000384383               0.999999996              -0.000007433              -0.000389318               0.999999996              -0.000006260              -0.000397928               0.999999996              -0.000004240              -0.000409697               0.999999996              -0.000001664              -0.000424321               0.999999996               0.000001480              -0.000441424               0.999999996               0.000004964              -0.000460696               0.999999996               0.000008391              -0.000481833               0.999999996               0.000011961              -0.000504460               0.999999996               0.000015914              -0.000528296               0.999999996               0.000019850              -0.000553075               0.999999996               0.000023071              -0.000578534               0.999999996               0.000025282              -0.000604418               0.999999996               0.000026354              -0.000630595               0.999999996               0.000026042              -0.000657016               0.999999996               0.000002760              -0.000391481               0.999999996              -0.000001964              -0.000391888               0.999999996              -0.000003850              -0.000393988               0.999999996              -0.000004142              -0.000399407               0.999999996              -0.000003616              -0.000408073               0.999999996              -0.000002716              -0.000419592               0.999999996              -0.000001501              -0.000433678               0.999999996               0.000000118              -0.000450187               0.999999996               0.000001847              -0.000468887               0.999999996               0.000003506              -0.000489474               0.999999996               0.000005318              -0.000511561               0.999999996               0.000007335              -0.000534930               0.999999996               0.000009345              -0.000559408               0.999999996               0.000010987              -0.000584744               0.999999996               0.000011954              -0.000610642               0.999999996               0.000012112              -0.000636852               0.999999996               0.000011471              -0.000663176               0.999999996              -0.000000000              -0.000393412               0.999999996               0.000000000              -0.000394725               0.999999996              -0.000000000              -0.000397285               0.999999996              -0.000000000              -0.000402846               0.999999996              -0.000000000              -0.000411579               0.999999996              -0.000000000              -0.000423081               0.999999996               0.000000000              -0.000436963               0.999999996               0.000000000              -0.000453275               0.999999996               0.000000000              -0.000471770               0.999999996               0.000000000              -0.000492149               0.999999996               0.000000000              -0.000514159               0.999999996              -0.000000000              -0.000537439               0.999999996              -0.000000000              -0.000561828               0.999999996              -0.000000000              -0.000587124               0.999999996              -0.000000000              -0.000613079               0.999999996              -0.000000000              -0.000639378               0.999999996               0.000000000              -0.000665706               0.999999996               0.000024169               0.000000000               0.999999996               0.000040158              -0.000000000               0.999999996               0.000048137              -0.000000000               0.999999996               0.000053020              -0.000000000               0.999999996               0.000056824              -0.000000000               0.999999996               0.000060468              -0.000000000               0.999999996               0.000064375              -0.000000000               0.999999996               0.000068780              -0.000000000               0.999999996               0.000073778               0.000000000               0.999999996               0.000079366               0.000000000               0.999999996               0.000085634               0.000000000               0.999999996               0.000092529               0.000000000               0.999999996               0.000100106               0.000000000               0.999999996               0.000108328               0.000000000               0.999999996               0.000117134               0.000000000               0.999999996               0.000126527               0.000000000               0.999999996               0.000136402               0.000000000               0.999999996               0.000024007               0.000039308               0.999999996               0.000039308               0.000034896               0.999999996               0.000046884               0.000033802               0.999999996               0.000051562               0.000034543               0.999999996               0.000055323               0.000036397               0.999999996               0.000059024               0.000038951               0.999999996               0.000063066               0.000041984               0.999999996               0.000067581               0.000045467               0.999999996               0.000072661               0.000049140               0.999999996               0.000078375               0.000052982               0.999999996               0.000084719               0.000057068               0.999999996               0.000091715               0.000061280               0.999999996               0.000099392               0.000065634               0.999999996               0.000107713               0.000070010               0.999999996               0.000116617               0.000074410               0.999999996               0.000126063               0.000078672               0.999999996               0.000135983               0.000082676               0.999999996               0.000023601               0.000078117               0.999999996               0.000036887               0.000069314               0.999999996               0.000043347               0.000067332               0.999999996               0.000047553               0.000069016               0.999999996               0.000051251               0.000072874               0.999999996               0.000055076               0.000078036               0.999999996               0.000059359               0.000084159               0.999999996               0.000064223               0.000091059               0.999999996               0.000069654               0.000098383               0.999999996               0.000075700               0.000106086               0.999999996               0.000082383               0.000114185               0.999999996               0.000089719               0.000122680               0.999999996               0.000097720               0.000131401               0.999999996               0.000106322               0.000140250               0.999999996               0.000115447               0.000149058               0.999999996               0.000125067               0.000157806               0.999999996               0.000135171               0.000166219               0.999999996               0.000022814               0.000116012               0.999999996               0.000032977               0.000102921               0.999999996               0.000037959               0.000100405               0.999999996               0.000041641               0.000103243               0.999999996               0.000045331               0.000109310               0.999999996               0.000049433               0.000117269               0.999999996               0.000054156               0.000126528               0.999999996               0.000059536               0.000136875               0.999999996               0.000065609               0.000147900               0.999999996               0.000072364               0.000159437               0.999999996               0.000079777               0.000171624               0.999999996               0.000087827               0.000184377               0.999999996               0.000096458               0.000197482               0.999999996               0.000105625               0.000210740               0.999999996               0.000115271               0.000224097               0.999999996               0.000125403               0.000237590               0.999999996               0.000136096               0.000251230               0.999999996               0.000021705               0.000152548               0.999999996               0.000027919               0.000135474               0.999999996               0.000031294               0.000132804               0.999999996               0.000034546               0.000137178               0.999999996               0.000038456               0.000145636               0.999999996               0.000043061               0.000156479               0.999999996               0.000048534               0.000168972               0.999999996               0.000054828               0.000182803               0.999999996               0.000061890               0.000197598               0.999999996               0.000069679               0.000213042               0.999999996               0.000078153               0.000229241               0.999999996               0.000087196               0.000246144               0.999999996               0.000096754               0.000263625               0.999999996               0.000106805               0.000281448               0.999999996               0.000117400               0.000299648               0.999999996               0.000128616               0.000318376               0.999999996               0.000140529               0.000337837               0.999999996               0.000020414               0.000187298               0.999999996               0.000022039               0.000166783               0.999999996               0.000023991               0.000164370               0.999999996               0.000027173               0.000170546               0.999999996               0.000031612               0.000181497               0.999999996               0.000037131               0.000195259               0.999999996               0.000043673               0.000211039               0.999999996               0.000051103               0.000228377               0.999999996               0.000059337               0.000247022               0.999999996               0.000068371               0.000266552               0.999999996               0.000078152               0.000286831               0.999999996               0.000088544               0.000307993               0.999999996               0.000099486               0.000329877               0.999999996               0.000111049               0.000352415               0.999999996               0.000123267               0.000375635               0.999999996               0.000136157               0.000399704               0.999999996               0.000149653               0.000424879               0.999999996               0.000018925               0.000219968               0.999999996               0.000015741               0.000196695               0.999999996               0.000016681               0.000194971               0.999999996               0.000020292               0.000203009               0.999999996               0.000025678               0.000216493               0.999999996               0.000032363               0.000233244               0.999999996               0.000040113               0.000252379               0.999999996               0.000048854               0.000273330               0.999999996               0.000058582               0.000295904               0.999999996               0.000069294               0.000319624               0.999999996               0.000080727               0.000344043               0.999999996               0.000092849               0.000369424               0.999999996               0.000105574               0.000395709               0.999999996               0.000118936               0.000422909               0.999999996               0.000132851               0.000451028               0.999999996               0.000147208               0.000479957               0.999999996               0.000161680               0.000509606               0.999999996               0.000017310               0.000250263               0.999999996               0.000009517               0.000225077               0.999999996               0.000009965               0.000224300               0.999999996               0.000014390               0.000234321               0.999999996               0.000020984               0.000250285               0.999999996               0.000028936               0.000270088               0.999999996               0.000038092               0.000292731               0.999999996               0.000048537               0.000317507               0.999999996               0.000060077               0.000344083               0.999999996               0.000072531               0.000371951               0.999999996               0.000085665               0.000400546               0.999999996               0.000099424               0.000430120               0.999999996               0.000113716               0.000460789               0.999999996               0.000128437               0.000492510               0.999999996               0.000143390               0.000525102               0.999999996               0.000158409               0.000558343               0.999999996               0.000173213               0.000591507               0.999999996               0.000015806               0.000277665               0.999999996               0.000003533               0.000252002               0.999999996               0.000004260               0.000252194               0.999999996               0.000009790               0.000264061               0.999999996               0.000017627               0.000282572               0.999999996               0.000027038               0.000305573               0.999999996               0.000037897               0.000331832               0.999999996               0.000050111               0.000360627               0.999999996               0.000063402               0.000391215               0.999999996               0.000077362               0.000423096               0.999999996               0.000091799               0.000455851               0.999999996               0.000106731               0.000489649               0.999999996               0.000122031               0.000524544               0.999999996               0.000137596               0.000560427               0.999999996               0.000153362               0.000596990               0.999999996               0.000169161               0.000633749               0.999999996               0.000184805               0.000670266               0.999999996               0.000014778               0.000303101               0.999999996              -0.000000553               0.000279802               0.999999996              -0.000001394               0.000277512               0.999999996               0.000003052               0.000286379               0.999999996               0.000009934               0.000301886               0.999999996               0.000018393               0.000321968               0.999999996               0.000028112               0.000345483               0.999999996               0.000038995               0.000371672               0.999999996               0.000050809               0.000399870               0.999999996               0.000063180               0.000429440               0.999999996               0.000075945               0.000459960               0.999999996               0.000088860               0.000491196               0.999999996               0.000101946               0.000523186               0.999999996               0.000115163               0.000556067               0.999999996               0.000128696               0.000589753               0.999999996               0.000142627               0.000624075               0.999999996               0.000156941               0.000658576               0.999999996               0.000013430               0.000325978               0.999999996              -0.000003354               0.000306226               0.999999996              -0.000005747               0.000302909               0.999999996              -0.000002579               0.000309404               0.999999996               0.000003167               0.000322306               0.999999996               0.000010485               0.000339676               0.999999996               0.000018988               0.000360537               0.999999996               0.000028504               0.000384220               0.999999996               0.000038791               0.000410085               0.999999996               0.000049600               0.000437408               0.999999996               0.000060641               0.000465790               0.999999996               0.000071700               0.000494856               0.999999996               0.000082727               0.000524472               0.999999996               0.000093588               0.000554678               0.999999996               0.000104517               0.000585612               0.999999996               0.000115761               0.000617214               0.999999996               0.000127363               0.000649451               0.999999996               0.000011831               0.000345923               0.999999996              -0.000004952               0.000330636               0.999999996              -0.000008568               0.000327413               0.999999996              -0.000006715               0.000332417               0.999999996              -0.000002304               0.000343272               0.999999996               0.000003749               0.000358406               0.999999996               0.000011043               0.000376959               0.999999996               0.000019088               0.000398316               0.999999996               0.000027688               0.000421894               0.999999996               0.000036731               0.000447173               0.999999996               0.000046155               0.000473560               0.999999996               0.000055624               0.000500739               0.999999996               0.000064678               0.000528461               0.999999996               0.000073252               0.000556639               0.999999996               0.000081569               0.000585267               0.999999996               0.000089732               0.000614487               0.999999996               0.000097826               0.000644430               0.999999996               0.000009980               0.000362651               0.999999996              -0.000005409               0.000352171               0.999999996              -0.000009667               0.000349920               0.999999996              -0.000008996               0.000354329               0.999999996              -0.000005809               0.000363792               0.999999996              -0.000001147               0.000377248               0.999999996               0.000004698               0.000393992               0.999999996               0.000011145               0.000413470               0.999999996               0.000017956               0.000435137               0.999999996               0.000025217               0.000458576               0.999999996               0.000032831               0.000483326               0.999999996               0.000040482               0.000509040               0.999999996               0.000047786               0.000535304               0.999999996               0.000054454               0.000562001               0.999999996               0.000060393               0.000589080               0.999999996               0.000065534               0.000616583               0.999999996               0.000069988               0.000644618               0.999999996               0.000007848               0.000375930               0.999999996              -0.000004939               0.000370075               0.999999996              -0.000009093               0.000369352               0.999999996              -0.000009208               0.000373819               0.999999996              -0.000007140               0.000382621               0.999999996              -0.000003796               0.000394932               0.999999996               0.000000374               0.000410397               0.999999996               0.000005125               0.000428518               0.999999996               0.000010282               0.000448734               0.999999996               0.000015605               0.000470726               0.999999996               0.000021122               0.000494273               0.999999996               0.000026888               0.000518928               0.999999996               0.000032542               0.000544289               0.999999996               0.000037477               0.000570136               0.999999996               0.000041350               0.000596381               0.999999996               0.000044067               0.000622920               0.999999996               0.000045528               0.000649787               0.999999996               0.000005416               0.000385602               0.999999996              -0.000003704               0.000383505               0.999999996              -0.000007023               0.000384383               0.999999996              -0.000007433               0.000389318               0.999999996              -0.000006260               0.000397928               0.999999996              -0.000004240               0.000409697               0.999999996              -0.000001664               0.000424321               0.999999996               0.000001480               0.000441424               0.999999996               0.000004964               0.000460696               0.999999996               0.000008391               0.000481833               0.999999996               0.000011961               0.000504460               0.999999996               0.000015914               0.000528296               0.999999996               0.000019850               0.000553075               0.999999996               0.000023071               0.000578534               0.999999996               0.000025282               0.000604418               0.999999996               0.000026354               0.000630595               0.999999996               0.000026042               0.000657016               0.999999996               0.000002760               0.000391481               0.999999996              -0.000001964               0.000391888               0.999999996              -0.000003850               0.000393988               0.999999996              -0.000004142               0.000399407               0.999999996              -0.000003616               0.000408073               0.999999996              -0.000002716               0.000419592               0.999999996              -0.000001501               0.000433678               0.999999996               0.000000118               0.000450187               0.999999996               0.000001847               0.000468887               0.999999996               0.000003506               0.000489474               0.999999996               0.000005318               0.000511561               0.999999996               0.000007335               0.000534930               0.999999996               0.000009345               0.000559408               0.999999996               0.000010987               0.000584744               0.999999996               0.000011954               0.000610642               0.999999996               0.000012112               0.000636852               0.999999996               0.000011471               0.000663176               0.999999996               0.000000000               0.000393412               0.999999996              -0.000000000               0.000394725               0.999999996              -0.000000000               0.000397285               0.999999996               0.000000000               0.000402846               0.999999996               0.000000000               0.000411579               0.999999996              -0.000000000               0.000423081               0.999999996              -0.000000000               0.000436963               0.999999996              -0.000000000               0.000453275               0.999999996              -0.000000000               0.000471770               0.999999996               0.000000000               0.000492149               0.999999996              -0.000000000               0.000514159               0.999999996               0.000000000               0.000537439               0.999999996               0.000000000               0.000561828               0.999999996              -0.000000000               0.000587124               0.999999996              -0.000000000               0.000613079               0.999999996               0.000000000               0.000639378               0.999999996               0.000000000               0.000665706               0.999999996 </DataArray>
<DataArray type="Float64"                                    Name="stress"                                                      NumberOfComponents="10" format="ascii">
              0.000622027               0.007358321              -0.000000000              -0.000686528               0.002681592               0.001995064               0.000000000               0.000000000               0.000000000               0.000000000               0.000679014               0.006073935              -0.000000000              -0.000504610               0.002192828               0.001688218               0.000000000               0.000000000               0.000000000               0.000000000               0.000948052               0.005042132               0.000000000              -0.000274746               0.001772276               0.001497530               0.000000000               0.000000000               0.000000000               0.000000000               0.000988086               0.004477113               0.000000000              -0.000189107               0.001555392               0.001366285               0.000000000               0.000000000               0.000000000               0.000000000               0.000942626               0.004145716               0.000000000              -0.000164729               0.001436801               0.001272072               0.000000000               0.000000000               0.000000000               0.000000000               0.000864700               0.003940206               0.000000000              -0.000168263               0.001369477               0.001201214               0.000000000               0.000000000               0.000000000               0.000000000               0.000776552               0.003809424               0.000000000              -0.000184971               0.001331452               0.001146482               0.000000000               0.000000000               0.000000000               0.000000000               0.000687794               0.003727990              -0.000000000              -0.000208076               0.001312010               0.001103934               0.000000000               0.000000000               0.000000000               0.000000000               0.000600647               0.003671754              -0.000000000              -0.000233726               0.001301814               0.001068088               0.000000000               0.000000000               0.000000000               0.000000000               0.000514221               0.003631902               0.000000000              -0.000261154               0.001297673               0.001036519               0.000000000               0.000000000               0.000000000               0.000000000               0.000431232               0.003607588               0.000000000              -0.000289236               0.001298929               0.001009694               0.000000000               0.000000000               0.000000000               0.000000000               0.000349871               0.003591766               0.000000000              -0.000317768               0.001303166               0.000985398               0.000000000               0.000000000               0.000000000               0.000000000               0.000269688               0.003581277               0.000000000              -0.000346526               0.001309256               0.000962730               0.000000000               0.000000000               0.000000000               0.000000000               0.000196030               0.003573192              -0.000000000              -0.000373137               0.001315431               0.000942294               0.000000000               0.000000000               0.000000000               0.000000000               0.000126334               0.003564450              -0.000000000              -0.000398180               0.001320865               0.000922685               0.000000000               0.000000000               0.000000000               0.000000000               0.000060581               0.003549630              -0.000000000              -0.000420985               0.001323527               0.000902542               0.000000000               0.000000000               0.000000000               0.000000000               0.000029585               0.003538624              -0.000000000              -0.000431232               0.001323274               0.000892041               0.000000000               0.000000000               0.000000000               0.000000000               0.000662418               0.007226917              -0.000549305              -0.000654956               0.002627267               0.001972311               0.000000000               0.000000000               0.000000000               0.000000000               0.000690246               0.005980691              -0.000344875              -0.000488743               0.002156458               0.001667715               0.000000000               0.000000000               0.000000000               0.000000000               0.000928011               0.004992357              -0.000134769              -0.000276040               0.001756116               0.001480076               0.000000000               0.000000000               0.000000000               0.000000000               0.000953432               0.004451643              -0.000038244              -0.000198918               0.001550172               0.001351254               0.000000000               0.000000000               0.000000000               0.000000000               0.000902262               0.004133022               0.000006031              -0.000178279               0.001437086               0.001258807               0.000000000               0.000000000               0.000000000               0.000000000               0.000822847               0.003932952               0.000026125              -0.000183051               0.001371988               0.001188937               0.000000000               0.000000000               0.000000000               0.000000000               0.000737072               0.003805301               0.000036490              -0.000199260               0.001334841               0.001135581               0.000000000               0.000000000               0.000000000               0.000000000               0.000653610               0.003724048               0.000039702              -0.000220402               0.001314804               0.001094402               0.000000000               0.000000000               0.000000000               0.000000000               0.000570201               0.003667815               0.000038443              -0.000244651               0.001304143               0.001059492               0.000000000               0.000000000               0.000000000               0.000000000               0.000487758               0.003628782               0.000038680              -0.000270688               0.001299811               0.001029123               0.000000000               0.000000000               0.000000000               0.000000000               0.000408129               0.003604122               0.000039241              -0.000297466               0.001300517               0.001003051               0.000000000               0.000000000               0.000000000               0.000000000               0.000329243               0.003589733               0.000038184              -0.000325250               0.001304982               0.000979732               0.000000000               0.000000000               0.000000000               0.000000000               0.000252310               0.003580731               0.000035432              -0.000352974               0.001311223               0.000958249               0.000000000               0.000000000               0.000000000               0.000000000               0.000182106               0.003574891               0.000031117              -0.000378570               0.001317808               0.000939238               0.000000000               0.000000000               0.000000000               0.000000000               0.000116705               0.003568326               0.000025000              -0.000402275               0.001323522               0.000921246               0.000000000               0.000000000               0.000000000               0.000000000               0.000055639               0.003559309               0.000014872              -0.000424048               0.001327774               0.000903726               0.000000000               0.000000000               0.000000000               0.000000000               0.000027144               0.003553789               0.000008451              -0.000434043               0.001329266               0.000895222               0.000000000               0.000000000               0.000000000               0.000000000               0.000770285               0.006855332              -0.001036958              -0.000568059               0.002474441               0.001906382               0.000000000               0.000000000               0.000000000               0.000000000               0.000718253               0.005720711              -0.000653831              -0.000445743               0.002055466               0.001609723               0.000000000               0.000000000               0.000000000               0.000000000               0.000869232               0.004853817              -0.000263444              -0.000280764               0.001711511               0.001430747               0.000000000               0.000000000               0.000000000               0.000000000               0.000856272               0.004374841              -0.000087437              -0.000225753               0.001533517               0.001307764               0.000000000               0.000000000               0.000000000               0.000000000               0.000794653               0.004091515              -0.000006481              -0.000213444               0.001434973               0.001221529               0.000000000               0.000000000               0.000000000               0.000000000               0.000717811               0.003911555               0.000031410              -0.000219765               0.001377093               0.001157329               0.000000000               0.000000000               0.000000000               0.000000000               0.000636908               0.003792578               0.000051887              -0.000235231               0.001342591               0.001107359               0.000000000               0.000000000               0.000000000               0.000000000               0.000561176               0.003713905               0.000059264              -0.000253796               0.001322555               0.001068758               0.000000000               0.000000000               0.000000000               0.000000000               0.000489148               0.003660773               0.000057943              -0.000274166               0.001311634               0.001037469               0.000000000               0.000000000               0.000000000               0.000000000               0.000417691               0.003624039               0.000057430              -0.000296370               0.001306791               0.001010421               0.000000000               0.000000000               0.000000000               0.000000000               0.000347941               0.003601488               0.000058300              -0.000319708               0.001307053               0.000987346               0.000000000               0.000000000               0.000000000               0.000000000               0.000279158               0.003589851               0.000056673              -0.000344046               0.001311287               0.000967241               0.000000000               0.000000000               0.000000000               0.000000000               0.000213132               0.003583562               0.000051627              -0.000368020               0.001317182               0.000949162               0.000000000               0.000000000               0.000000000               0.000000000               0.000153899               0.003580853               0.000043728              -0.000389893               0.001323570               0.000933677               0.000000000               0.000000000               0.000000000               0.000000000               0.000099588               0.003580627               0.000034274              -0.000410232               0.001330274               0.000920042               0.000000000               0.000000000               0.000000000               0.000000000               0.000047812               0.003585286               0.000020329              -0.000430230               0.001338493               0.000908263               0.000000000               0.000000000               0.000000000               0.000000000               0.000025801               0.003595455               0.000009786              -0.000439755               0.001345058               0.000905303               0.000000000               0.000000000               0.000000000               0.000000000               0.000909795               0.006289850              -0.001416002              -0.000445058               0.002244948               0.001799890               0.000000000               0.000000000               0.000000000               0.000000000               0.000746592               0.005333035              -0.000901168              -0.000386657               0.001906546               0.001519889               0.000000000               0.000000000               0.000000000               0.000000000               0.000776831               0.004648423              -0.000380200              -0.000289741               0.001646039               0.001356298               0.000000000               0.000000000               0.000000000               0.000000000               0.000720228               0.004261347              -0.000149868              -0.000262582               0.001507962               0.001245380               0.000000000               0.000000000               0.000000000               0.000000000               0.000650242               0.004026892              -0.000042675              -0.000259520               0.001428791               0.001169270               0.000000000               0.000000000               0.000000000               0.000000000               0.000579029               0.003873905               0.000007225              -0.000267102               0.001380323               0.001113221               0.000000000               0.000000000               0.000000000               0.000000000               0.000509070               0.003769837               0.000033679              -0.000280328               0.001350042               0.001069715               0.000000000               0.000000000               0.000000000               0.000000000               0.000444451               0.003699368               0.000044949              -0.000295751               0.001331694               0.001035943               0.000000000               0.000000000               0.000000000               0.000000000               0.000383888               0.003652465               0.000044077              -0.000312599               0.001321676               0.001009077               0.000000000               0.000000000               0.000000000               0.000000000               0.000325740               0.003619975               0.000043529              -0.000330344               0.001316761               0.000986417               0.000000000               0.000000000               0.000000000               0.000000000               0.000270640               0.003599760               0.000045909              -0.000348479               0.001316068               0.000967589               0.000000000               0.000000000               0.000000000               0.000000000               0.000218583               0.003588875               0.000045560              -0.000366640               0.001318493               0.000951853               0.000000000               0.000000000               0.000000000               0.000000000               0.000169948               0.003585976               0.000039916              -0.000384516               0.001323485               0.000938970               0.000000000               0.000000000               0.000000000               0.000000000               0.000125336               0.003589184               0.000031117              -0.000401646               0.001330265               0.000928619               0.000000000               0.000000000               0.000000000               0.000000000               0.000083892               0.003601101               0.000022287              -0.000418677               0.001339914               0.000921237               0.000000000               0.000000000               0.000000000               0.000000000               0.000041740               0.003624395               0.000012809              -0.000437396               0.001353918               0.000916523               0.000000000               0.000000000               0.000000000               0.000000000               0.000027187               0.003652736               0.000003840              -0.000446396               0.001366365               0.000919969               0.000000000               0.000000000               0.000000000               0.000000000               0.001048254               0.005590514              -0.001665861              -0.000305720               0.001965392               0.001659672               0.000000000               0.000000000               0.000000000               0.000000000               0.000765565               0.004862978              -0.001077333              -0.000320785               0.001727905               0.001407119               0.000000000               0.000000000               0.000000000               0.000000000               0.000667340               0.004402138              -0.000482974              -0.000300014               0.001567369               0.001267355               0.000000000               0.000000000               0.000000000               0.000000000               0.000574295               0.004123311              -0.000226050              -0.000300053               0.001474441               0.001174388               0.000000000               0.000000000               0.000000000               0.000000000               0.000501115               0.003940505              -0.000105735              -0.000304644               0.001415037               0.001110392               0.000000000               0.000000000               0.000000000               0.000000000               0.000439007               0.003814098              -0.000048471              -0.000312134               0.001375398               0.001063264               0.000000000               0.000000000               0.000000000               0.000000000               0.000380916               0.003727305              -0.000017544              -0.000323069               0.001350112               0.001027043               0.000000000               0.000000000               0.000000000               0.000000000               0.000329880               0.003668286              -0.000000947              -0.000334830               0.001334360               0.000999530               0.000000000               0.000000000               0.000000000               0.000000000               0.000283164               0.003631976               0.000002509              -0.000347809               0.001326583               0.000978773               0.000000000               0.000000000               0.000000000               0.000000000               0.000238888               0.003609128               0.000002879              -0.000361557               0.001323550               0.000961993               0.000000000               0.000000000               0.000000000               0.000000000               0.000199775               0.003593491               0.000006973              -0.000374270               0.001322575               0.000948305               0.000000000               0.000000000               0.000000000               0.000000000               0.000167315               0.003587151               0.000009921              -0.000385650               0.001324255               0.000938605               0.000000000               0.000000000               0.000000000               0.000000000               0.000137100               0.003589762               0.000007015              -0.000397307               0.001329011               0.000931704               0.000000000               0.000000000               0.000000000               0.000000000               0.000106722               0.003602353               0.000000045              -0.000410272               0.001337530               0.000927257               0.000000000               0.000000000               0.000000000               0.000000000               0.000073957               0.003625298              -0.000005116              -0.000425427               0.001350230               0.000924802               0.000000000               0.000000000               0.000000000               0.000000000               0.000037792               0.003659667              -0.000005385              -0.000443285               0.001367638               0.000924353               0.000000000               0.000000000               0.000000000               0.000000000               0.000027501               0.003694146              -0.000008827              -0.000451454               0.001381854               0.000930400               0.000000000               0.000000000               0.000000000               0.000000000               0.001160075               0.004831437              -0.001779988              -0.000168903               0.001666763               0.001497860               0.000000000               0.000000000               0.000000000               0.000000000               0.000769666               0.004358517              -0.001180954              -0.000256190               0.001538221               0.001282031               0.000000000               0.000000000               0.000000000               0.000000000               0.000554330               0.004137542              -0.000574907              -0.000309318               0.001482273               0.001172955               0.000000000               0.000000000               0.000000000               0.000000000               0.000441079               0.003961774              -0.000315241              -0.000329816               0.001430517               0.001100701               0.000000000               0.000000000               0.000000000               0.000000000               0.000372934               0.003829011              -0.000190825              -0.000338776               0.001389249               0.001050474               0.000000000               0.000000000               0.000000000               0.000000000               0.000323970               0.003732787              -0.000126937              -0.000345109               0.001359286               0.001014177               0.000000000               0.000000000               0.000000000               0.000000000               0.000281043               0.003667080              -0.000088421              -0.000352993               0.001340012               0.000987019               0.000000000               0.000000000               0.000000000               0.000000000               0.000243885               0.003623890              -0.000063160              -0.000361528               0.001328461               0.000966932               0.000000000               0.000000000               0.000000000               0.000000000               0.000210186               0.003600923              -0.000052362              -0.000371295               0.001324061               0.000952766               0.000000000               0.000000000               0.000000000               0.000000000               0.000180056               0.003590187              -0.000052351              -0.000381251               0.001323801               0.000942549               0.000000000               0.000000000               0.000000000               0.000000000               0.000154403               0.003581987              -0.000048628              -0.000389846               0.001323933               0.000934086               0.000000000               0.000000000               0.000000000               0.000000000               0.000135335               0.003580560              -0.000043160              -0.000396819               0.001325781               0.000928962               0.000000000               0.000000000               0.000000000               0.000000000               0.000114932               0.003585732              -0.000041573              -0.000405116               0.001330271               0.000925155               0.000000000               0.000000000               0.000000000               0.000000000               0.000090419               0.003600112              -0.000041804              -0.000416106               0.001338727               0.000922621               0.000000000               0.000000000               0.000000000               0.000000000               0.000062259               0.003621870              -0.000038401              -0.000429386               0.001350406               0.000921021               0.000000000               0.000000000               0.000000000               0.000000000               0.000031701               0.003644934              -0.000024830              -0.000443728               0.001362875               0.000919147               0.000000000               0.000000000               0.000000000               0.000000000               0.000019959               0.003661386              -0.000016794              -0.000450188               0.001370512               0.000920325               0.000000000               0.000000000               0.000000000               0.000000000               0.001220238               0.004072134              -0.001775558              -0.000051430               0.001374507               0.001323077               0.000000000               0.000000000               0.000000000               0.000000000               0.000758977               0.003857120              -0.001223897              -0.000197524               0.001351535               0.001154011               0.000000000               0.000000000               0.000000000               0.000000000               0.000453249               0.003866649              -0.000658483              -0.000313362               0.001393324               0.001079962               0.000000000               0.000000000               0.000000000               0.000000000               0.000333779               0.003786136              -0.000410658              -0.000348099               0.001378066               0.001029966               0.000000000               0.000000000               0.000000000               0.000000000               0.000280200               0.003702355              -0.000282098              -0.000357719               0.001353346               0.000995627               0.000000000               0.000000000               0.000000000               0.000000000               0.000247841               0.003640839              -0.000208010              -0.000362163               0.001334322               0.000972158               0.000000000               0.000000000               0.000000000               0.000000000               0.000219804               0.003602440              -0.000161713              -0.000367878               0.001323427               0.000955550               0.000000000               0.000000000               0.000000000               0.000000000               0.000194652               0.003580805              -0.000131989              -0.000374605               0.001318458               0.000943853               0.000000000               0.000000000               0.000000000               0.000000000               0.000169067               0.003569778              -0.000115752              -0.000382821               0.001317521               0.000934700               0.000000000               0.000000000               0.000000000               0.000000000               0.000148565               0.003564924              -0.000113567              -0.000389903               0.001318264               0.000928361               0.000000000               0.000000000               0.000000000               0.000000000               0.000131021               0.003560108              -0.000108665              -0.000395880               0.001318651               0.000922771               0.000000000               0.000000000               0.000000000               0.000000000               0.000112754               0.003557164              -0.000096322              -0.000402362               0.001319830               0.000917468               0.000000000               0.000000000               0.000000000               0.000000000               0.000092068               0.003559770              -0.000083258              -0.000410445               0.001323393               0.000912948               0.000000000               0.000000000               0.000000000               0.000000000               0.000067117               0.003567093              -0.000068050              -0.000420717               0.001329258               0.000908541               0.000000000               0.000000000               0.000000000               0.000000000               0.000039968               0.003574166              -0.000049294              -0.000431782               0.001335304               0.000903522               0.000000000               0.000000000               0.000000000               0.000000000               0.000017238               0.003572981              -0.000025682              -0.000440157               0.001337701               0.000897543               0.000000000               0.000000000               0.000000000               0.000000000               0.000004044               0.003561432              -0.000009642              -0.000443662               0.001335019               0.000891358               0.000000000               0.000000000               0.000000000               0.000000000               0.001224940               0.003352375              -0.001675975               0.000040303               0.001104012               0.001144315               0.000000000               0.000000000               0.000000000               0.000000000               0.000732265               0.003390149              -0.001219864              -0.000149170               0.001179761               0.001030591               0.000000000               0.000000000               0.000000000               0.000000000               0.000378218               0.003601658              -0.000733214              -0.000308375               0.001303332               0.000994957               0.000000000               0.000000000               0.000000000               0.000000000               0.000265794               0.003602798              -0.000500338              -0.000350676               0.001317813               0.000967136               0.000000000               0.000000000               0.000000000               0.000000000               0.000227297               0.003568750              -0.000364757              -0.000360857               0.001309857               0.000949000               0.000000000               0.000000000               0.000000000               0.000000000               0.000210981               0.003546870              -0.000280633              -0.000364240               0.001303692               0.000939451               0.000000000               0.000000000               0.000000000               0.000000000               0.000192088               0.003537284              -0.000229103              -0.000370127               0.001302458               0.000932332               0.000000000               0.000000000               0.000000000               0.000000000               0.000172492               0.003536684              -0.000196944              -0.000377400               0.001304683               0.000927283               0.000000000               0.000000000               0.000000000               0.000000000               0.000153941               0.003533852              -0.000174165              -0.000384003               0.001305940               0.000921937               0.000000000               0.000000000               0.000000000               0.000000000               0.000134349               0.003526455              -0.000161175              -0.000390425               0.001305615               0.000915190               0.000000000               0.000000000               0.000000000               0.000000000               0.000111798               0.003519075              -0.000146644              -0.000397959               0.001305666               0.000907707               0.000000000               0.000000000               0.000000000               0.000000000               0.000084301               0.003512146              -0.000121295              -0.000407404               0.001306505               0.000899101               0.000000000               0.000000000               0.000000000               0.000000000               0.000055522               0.003506416              -0.000091109              -0.000417480               0.001307954               0.000890473               0.000000000               0.000000000               0.000000000               0.000000000               0.000027749               0.003499142              -0.000059854              -0.000426986               0.001308698               0.000881712               0.000000000               0.000000000               0.000000000               0.000000000               0.000005137               0.003485284              -0.000030076              -0.000433733               0.001306328               0.000872594               0.000000000               0.000000000               0.000000000               0.000000000              -0.000005917               0.003460581              -0.000008464              -0.000434790               0.001298445               0.000863655               0.000000000               0.000000000               0.000000000               0.000000000              -0.000011860               0.003435682               0.000002210              -0.000433907               0.001289851               0.000855945               0.000000000               0.000000000               0.000000000               0.000000000               0.001202510               0.002724559              -0.001510657               0.000110369               0.000871387               0.000981756               0.000000000               0.000000000               0.000000000               0.000000000               0.000717684               0.002974899              -0.001192032              -0.000102732               0.001025867               0.000923135               0.000000000               0.000000000               0.000000000               0.000000000               0.000347235               0.003358930              -0.000816946              -0.000289653               0.001216183               0.000926530               0.000000000               0.000000000               0.000000000               0.000000000               0.000246687               0.003440835              -0.000594341              -0.000337596               0.001259465               0.000921869               0.000000000               0.000000000               0.000000000               0.000000000               0.000217211               0.003460201              -0.000450115              -0.000351070               0.001270412               0.000919342               0.000000000               0.000000000               0.000000000               0.000000000               0.000206717               0.003473686              -0.000356711              -0.000356691               0.001276781               0.000920090               0.000000000               0.000000000               0.000000000               0.000000000               0.000193987               0.003489124              -0.000296815              -0.000363395               0.001284161               0.000920767               0.000000000               0.000000000               0.000000000               0.000000000               0.000177005               0.003502624              -0.000256713              -0.000371450               0.001291346               0.000919896               0.000000000               0.000000000               0.000000000               0.000000000               0.000159769               0.003504478              -0.000225006              -0.000378145               0.001294196               0.000916051               0.000000000               0.000000000               0.000000000               0.000000000               0.000139016               0.003493190              -0.000197374              -0.000384517               0.001292557               0.000908041               0.000000000               0.000000000               0.000000000               0.000000000               0.000112009               0.003481106              -0.000169716              -0.000393134               0.001291402               0.000898268               0.000000000               0.000000000               0.000000000               0.000000000               0.000076187               0.003469377              -0.000133703              -0.000405101               0.001291481               0.000886380               0.000000000               0.000000000               0.000000000               0.000000000               0.000036226               0.003454623              -0.000092044              -0.000418242               0.001290944               0.000872701               0.000000000               0.000000000               0.000000000               0.000000000              -0.000004866               0.003433441              -0.000052037              -0.000431004               0.001288137               0.000857133               0.000000000               0.000000000               0.000000000               0.000000000              -0.000038902               0.003401467              -0.000020444              -0.000439770               0.001280401               0.000840631               0.000000000               0.000000000               0.000000000               0.000000000              -0.000057635               0.003357446              -0.000001267              -0.000441293               0.001266235               0.000824943               0.000000000               0.000000000               0.000000000               0.000000000              -0.000061636               0.003328298               0.000005666              -0.000439150               0.001255805               0.000816655               0.000000000               0.000000000               0.000000000               0.000000000               0.001136393               0.002122821              -0.001315371               0.000160792               0.000654002               0.000814794               0.000000000               0.000000000               0.000000000               0.000000000               0.000725710               0.002497431              -0.001153845              -0.000040039               0.000845815               0.000805775               0.000000000               0.000000000               0.000000000               0.000000000               0.000372236               0.003007669              -0.000914435              -0.000236370               0.001081336               0.000844966               0.000000000               0.000000000               0.000000000               0.000000000               0.000271555               0.003189522              -0.000710479              -0.000296857               0.001162115               0.000865259               0.000000000               0.000000000               0.000000000               0.000000000               0.000242406               0.003274296              -0.000561443              -0.000318384               0.001197549               0.000879165               0.000000000               0.000000000               0.000000000               0.000000000               0.000232563               0.003330959              -0.000455474              -0.000329158               0.001220028               0.000890870               0.000000000               0.000000000               0.000000000               0.000000000               0.000223934               0.003380621              -0.000381246              -0.000338602               0.001239730               0.000901128               0.000000000               0.000000000               0.000000000               0.000000000               0.000210233               0.003420446              -0.000327670              -0.000348718               0.001256377               0.000907659               0.000000000               0.000000000               0.000000000               0.000000000               0.000190168               0.003439586              -0.000283703              -0.000358635               0.001266062               0.000907427               0.000000000               0.000000000               0.000000000               0.000000000               0.000164289               0.003435164              -0.000243874              -0.000367786               0.001267639               0.000899852               0.000000000               0.000000000               0.000000000               0.000000000               0.000131882               0.003417935              -0.000204732              -0.000377785               0.001265229               0.000887443               0.000000000               0.000000000               0.000000000               0.000000000               0.000089986               0.003394302              -0.000161601              -0.000390542               0.001261603               0.000871061               0.000000000               0.000000000               0.000000000               0.000000000               0.000042557               0.003373771              -0.000114635              -0.000405761               0.001259833               0.000854072               0.000000000               0.000000000               0.000000000               0.000000000              -0.000009100               0.003355010              -0.000069402              -0.000422788               0.001259255               0.000836467               0.000000000               0.000000000               0.000000000               0.000000000              -0.000059974               0.003332573              -0.000034129              -0.000439061               0.001257200               0.000818139               0.000000000               0.000000000               0.000000000               0.000000000              -0.000104292               0.003298913              -0.000010661              -0.000451473               0.001250118               0.000798645               0.000000000               0.000000000               0.000000000               0.000000000              -0.000128211               0.003272353               0.000000418              -0.000457122               0.001243147               0.000786025               0.000000000               0.000000000               0.000000000               0.000000000               0.000996730               0.001568196              -0.001094270               0.000177747               0.000463477               0.000641224               0.000000000               0.000000000               0.000000000               0.000000000               0.000723705               0.002023705              -0.001083741               0.000018424               0.000668419               0.000686844               0.000000000               0.000000000               0.000000000               0.000000000               0.000430191               0.002613954              -0.000985320              -0.000165423               0.000926450               0.000761027               0.000000000               0.000000000               0.000000000               0.000000000               0.000331065               0.002890148              -0.000820114              -0.000237119               0.001042413               0.000805293               0.000000000               0.000000000               0.000000000               0.000000000               0.000293059               0.003044498              -0.000675448              -0.000270665               0.001105044               0.000834379               0.000000000               0.000000000               0.000000000               0.000000000               0.000277359               0.003151925              -0.000563403              -0.000289981               0.001147291               0.000857311               0.000000000               0.000000000               0.000000000               0.000000000               0.000271136               0.003244548              -0.000478253              -0.000303892               0.001182802               0.000878910               0.000000000               0.000000000               0.000000000               0.000000000               0.000257828               0.003318591              -0.000410381              -0.000318138               0.001212232               0.000894094               0.000000000               0.000000000               0.000000000               0.000000000               0.000232640               0.003360777              -0.000353444              -0.000332856               0.001231200               0.000898343               0.000000000               0.000000000               0.000000000               0.000000000               0.000202374               0.003374608              -0.000304329              -0.000345935               0.001240170               0.000894235               0.000000000               0.000000000               0.000000000               0.000000000               0.000170878               0.003368246              -0.000258028              -0.000356951               0.001241721               0.000884770               0.000000000               0.000000000               0.000000000               0.000000000               0.000135205               0.003349299              -0.000211509              -0.000367960               0.001239075               0.000871115               0.000000000               0.000000000               0.000000000               0.000000000               0.000089040               0.003327760              -0.000160674              -0.000382579               0.001236769               0.000854189               0.000000000               0.000000000               0.000000000               0.000000000               0.000033172               0.003310090              -0.000109708              -0.000401321               0.001237126               0.000835805               0.000000000               0.000000000               0.000000000               0.000000000              -0.000031169               0.003293702              -0.000065892              -0.000423400               0.001239023               0.000815623               0.000000000               0.000000000               0.000000000               0.000000000              -0.000102037               0.003276221              -0.000028855              -0.000447790               0.001241326               0.000793536               0.000000000               0.000000000               0.000000000               0.000000000              -0.000153457               0.003256616              -0.000005644              -0.000464622               0.001240402               0.000775780               0.000000000               0.000000000               0.000000000               0.000000000               0.000793039               0.001083475              -0.000853598               0.000161953               0.000307170               0.000469123               0.000000000               0.000000000               0.000000000               0.000000000               0.000688609               0.001568503              -0.000964560               0.000062164               0.000502107               0.000564271               0.000000000               0.000000000               0.000000000               0.000000000               0.000499751               0.002181540              -0.000989937              -0.000085287               0.000755601               0.000670314               0.000000000               0.000000000               0.000000000               0.000000000               0.000418952               0.002531423              -0.000877891              -0.000159321               0.000896906               0.000737585               0.000000000               0.000000000               0.000000000               0.000000000               0.000379307               0.002754714              -0.000753021              -0.000202099               0.000985595               0.000783496               0.000000000               0.000000000               0.000000000               0.000000000               0.000355373               0.002919322              -0.000648161              -0.000231650               0.001050314               0.000818664               0.000000000               0.000000000               0.000000000               0.000000000               0.000342396               0.003058211              -0.000560191              -0.000253878               0.001104019               0.000850142               0.000000000               0.000000000               0.000000000               0.000000000               0.000322610               0.003167927              -0.000481830              -0.000275012               0.001147636               0.000872624               0.000000000               0.000000000               0.000000000               0.000000000               0.000290790               0.003243540              -0.000415183              -0.000296396               0.001179968               0.000883572               0.000000000               0.000000000               0.000000000               0.000000000               0.000254815               0.003286500              -0.000362101              -0.000315256               0.001200574               0.000885318               0.000000000               0.000000000               0.000000000               0.000000000               0.000220912               0.003303674              -0.000315320              -0.000330116               0.001211252               0.000881136               0.000000000               0.000000000               0.000000000               0.000000000               0.000187663               0.003304247              -0.000264657              -0.000342657               0.001215624               0.000872967               0.000000000               0.000000000               0.000000000               0.000000000               0.000147494               0.003293179              -0.000207952              -0.000356336               0.001216494               0.000860158               0.000000000               0.000000000               0.000000000               0.000000000               0.000097261               0.003279227              -0.000152514              -0.000373430               0.001217541               0.000844112               0.000000000               0.000000000               0.000000000               0.000000000               0.000032988               0.003267389              -0.000099740              -0.000396052               0.001221136               0.000825084               0.000000000               0.000000000               0.000000000               0.000000000              -0.000046698               0.003262986              -0.000047487              -0.000425384               0.001229446               0.000804062               0.000000000               0.000000000               0.000000000               0.000000000              -0.000111023               0.003248726              -0.000013774              -0.000447723               0.001232139               0.000784416               0.000000000               0.000000000               0.000000000               0.000000000               0.000542578               0.000691831              -0.000615953               0.000116986               0.000191612               0.000308598               0.000000000               0.000000000               0.000000000               0.000000000               0.000622922               0.001156850              -0.000805912               0.000088988               0.000355950               0.000444938               0.000000000               0.000000000               0.000000000               0.000000000               0.000574518               0.001748482              -0.000922323              -0.000003117               0.000583860               0.000580743               0.000000000               0.000000000               0.000000000               0.000000000               0.000531955               0.002144366              -0.000866459              -0.000068564               0.000737636               0.000669072               0.000000000               0.000000000               0.000000000               0.000000000               0.000499746               0.002424609              -0.000772476              -0.000115672               0.000846752               0.000731080               0.000000000               0.000000000               0.000000000               0.000000000               0.000468882               0.002642825              -0.000680755              -0.000154523               0.000932440               0.000777918               0.000000000               0.000000000               0.000000000               0.000000000               0.000437652               0.002825606              -0.000596924              -0.000189081               0.001004886               0.000815805               0.000000000               0.000000000               0.000000000               0.000000000               0.000407527               0.002973437              -0.000519321              -0.000218857               0.001064088               0.000845231               0.000000000               0.000000000               0.000000000               0.000000000               0.000373836               0.003086451              -0.000453395              -0.000245617               0.001110679               0.000865062               0.000000000               0.000000000               0.000000000               0.000000000               0.000332914               0.003167417              -0.000400034              -0.000271084               0.001146156               0.000875073               0.000000000               0.000000000               0.000000000               0.000000000               0.000289274               0.003221051              -0.000354105              -0.000294153               0.001171724               0.000877571               0.000000000               0.000000000               0.000000000               0.000000000               0.000250313               0.003248037              -0.000306702              -0.000312137               0.001186714               0.000874577               0.000000000               0.000000000               0.000000000               0.000000000               0.000216882               0.003256725              -0.000252931              -0.000325759               0.001194151               0.000868392               0.000000000               0.000000000               0.000000000               0.000000000               0.000179065               0.003259030              -0.000194205              -0.000340228               0.001199742               0.000859513               0.000000000               0.000000000               0.000000000               0.000000000               0.000125987               0.003258167              -0.000131874              -0.000360025               0.001206053               0.000846028               0.000000000               0.000000000               0.000000000               0.000000000               0.000055525               0.003259074              -0.000066511              -0.000386561               0.001215201               0.000828640               0.000000000               0.000000000               0.000000000               0.000000000              -0.000004285               0.003248218              -0.000026882              -0.000407633               0.001218606               0.000810973               0.000000000               0.000000000               0.000000000               0.000000000               0.000275746               0.000404377              -0.000403983               0.000052857               0.000117172               0.000170028               0.000000000               0.000000000               0.000000000               0.000000000               0.000537930               0.000814403              -0.000619231               0.000099922               0.000238157               0.000338079               0.000000000               0.000000000               0.000000000               0.000000000               0.000642036               0.001349701              -0.000779652               0.000072049               0.000425879               0.000497929               0.000000000               0.000000000               0.000000000               0.000000000               0.000653663               0.001766465              -0.000768832               0.000024314               0.000580711               0.000605025               0.000000000               0.000000000               0.000000000               0.000000000               0.000631295               0.002083341              -0.000707692              -0.000023683               0.000702334               0.000678651               0.000000000               0.000000000               0.000000000               0.000000000               0.000595306               0.002342755              -0.000634300              -0.000069605               0.000804112               0.000734507               0.000000000               0.000000000               0.000000000               0.000000000               0.000552929               0.002565729              -0.000562798              -0.000113368               0.000893024               0.000779656               0.000000000               0.000000000               0.000000000               0.000000000               0.000514978               0.002748367              -0.000498334              -0.000150429               0.000966256               0.000815827               0.000000000               0.000000000               0.000000000               0.000000000               0.000479555               0.002897314              -0.000440047              -0.000182331               0.001026539               0.000844208               0.000000000               0.000000000               0.000000000               0.000000000               0.000436599               0.003020363              -0.000389326              -0.000213821               0.001078051               0.000864231               0.000000000               0.000000000               0.000000000               0.000000000               0.000390314               0.003113464              -0.000350418              -0.000242815               0.001118749               0.000875934               0.000000000               0.000000000               0.000000000               0.000000000               0.000350543               0.003173083              -0.000314981              -0.000265181               0.001146077               0.000880896               0.000000000               0.000000000               0.000000000               0.000000000               0.000318262               0.003209540              -0.000269065              -0.000281844               0.001163784               0.000881940               0.000000000               0.000000000               0.000000000               0.000000000               0.000285833               0.003233026              -0.000210302              -0.000296940               0.001176645               0.000879704               0.000000000               0.000000000               0.000000000               0.000000000               0.000247495               0.003245982              -0.000145151              -0.000312936               0.001186295               0.000873359               0.000000000               0.000000000               0.000000000               0.000000000               0.000202239               0.003254210              -0.000075561              -0.000330936               0.001195038               0.000864102               0.000000000               0.000000000               0.000000000               0.000000000               0.000164661               0.003251191              -0.000035799              -0.000344650               0.001198603               0.000853953               0.000000000               0.000000000               0.000000000               0.000000000               0.000034394               0.000210624              -0.000234464              -0.000013430               0.000074684               0.000061253               0.000000000               0.000000000               0.000000000               0.000000000               0.000453305               0.000556473              -0.000417712               0.000100429               0.000152013               0.000252442               0.000000000               0.000000000               0.000000000               0.000000000               0.000694369               0.001024931              -0.000567198               0.000132270               0.000297550               0.000429820               0.000000000               0.000000000               0.000000000               0.000000000               0.000759979               0.001441603              -0.000580789               0.000104790               0.000445599               0.000550390               0.000000000               0.000000000               0.000000000               0.000000000               0.000752786               0.001778463              -0.000545623               0.000059986               0.000572820               0.000632805               0.000000000               0.000000000               0.000000000               0.000000000               0.000716077               0.002061887              -0.000494465               0.000010792               0.000683691               0.000694484               0.000000000               0.000000000               0.000000000               0.000000000               0.000672808               0.002309919              -0.000444326              -0.000036437               0.000782111               0.000745674               0.000000000               0.000000000               0.000000000               0.000000000               0.000632411               0.002525580              -0.000399205              -0.000078543               0.000868033               0.000789489               0.000000000               0.000000000               0.000000000               0.000000000               0.000592576               0.002712088              -0.000353205              -0.000116795               0.000942952               0.000826157               0.000000000               0.000000000               0.000000000               0.000000000               0.000550661               0.002866230              -0.000313164              -0.000151781               0.001005994               0.000854213               0.000000000               0.000000000               0.000000000               0.000000000               0.000507895               0.002986841              -0.000287392              -0.000182894               0.001056569               0.000873674               0.000000000               0.000000000               0.000000000               0.000000000               0.000466404               0.003079476              -0.000264618              -0.000210033               0.001096493               0.000886460               0.000000000               0.000000000               0.000000000               0.000000000               0.000429891               0.003148424              -0.000228365              -0.000232343               0.001126912               0.000894568               0.000000000               0.000000000               0.000000000               0.000000000               0.000401161               0.003195718              -0.000178744              -0.000249029               0.001148238               0.000899210               0.000000000               0.000000000               0.000000000               0.000000000               0.000379892               0.003225616              -0.000123949              -0.000260742               0.001162108               0.000901367               0.000000000               0.000000000               0.000000000               0.000000000               0.000366741               0.003246993              -0.000064449              -0.000268345               0.001171769               0.000903423               0.000000000               0.000000000               0.000000000               0.000000000               0.000361420               0.003255190              -0.000032008              -0.000271366               0.001175508               0.000904142               0.000000000               0.000000000               0.000000000               0.000000000              -0.000132950               0.000103929              -0.000104463              -0.000062848               0.000055592              -0.000007256               0.000000000               0.000000000               0.000000000               0.000000000               0.000389778               0.000398537              -0.000209596               0.000096348               0.000100728               0.000197077               0.000000000               0.000000000               0.000000000               0.000000000               0.000729770               0.000812671              -0.000299471               0.000172078               0.000213528               0.000385606               0.000000000               0.000000000               0.000000000               0.000000000               0.000831735               0.001218974              -0.000313568               0.000159527               0.000353145               0.000512672               0.000000000               0.000000000               0.000000000               0.000000000               0.000837013               0.001562881              -0.000297672               0.000118519               0.000481449               0.000599967               0.000000000               0.000000000               0.000000000               0.000000000               0.000807005               0.001854503              -0.000271778               0.000070813               0.000594557               0.000665370               0.000000000               0.000000000               0.000000000               0.000000000               0.000767072               0.002117656              -0.000246920               0.000022945               0.000698230               0.000721175               0.000000000               0.000000000               0.000000000               0.000000000               0.000722399               0.002358169              -0.000223322              -0.000023871               0.000794006               0.000770134               0.000000000               0.000000000               0.000000000               0.000000000               0.000677792               0.002569035              -0.000196326              -0.000066957               0.000878655               0.000811698               0.000000000               0.000000000               0.000000000               0.000000000               0.000637409               0.002744577              -0.000174679              -0.000104043               0.000949531               0.000845487               0.000000000               0.000000000               0.000000000               0.000000000               0.000594621               0.002885471              -0.000163245              -0.000137701               0.001007714               0.000870014               0.000000000               0.000000000               0.000000000               0.000000000               0.000547426               0.003000925              -0.000152118              -0.000169831               0.001056909               0.000887078               0.000000000               0.000000000               0.000000000               0.000000000               0.000505514               0.003094522              -0.000132441              -0.000197247               0.001097246               0.000899999               0.000000000               0.000000000               0.000000000               0.000000000               0.000480565               0.003164624              -0.000103853              -0.000215366               0.001126653               0.000911287               0.000000000               0.000000000               0.000000000               0.000000000               0.000476612               0.003212457              -0.000071137              -0.000222827               0.001145084               0.000922257               0.000000000               0.000000000               0.000000000               0.000000000               0.000494623               0.003242702              -0.000037198              -0.000219853               0.001154174               0.000934321               0.000000000               0.000000000               0.000000000               0.000000000               0.000518465               0.003256846              -0.000020022              -0.000212681               0.001156498               0.000943817               0.000000000               0.000000000               0.000000000               0.000000000              -0.000191988               0.000072214              -0.000000000              -0.000081022               0.000051078              -0.000029944               0.000000000               0.000000000               0.000000000               0.000000000               0.000366264               0.000345954               0.000000000               0.000094104               0.000083949               0.000178053               0.000000000               0.000000000               0.000000000               0.000000000               0.000743707               0.000737292               0.000000000               0.000186727               0.000183519               0.000370246               0.000000000               0.000000000               0.000000000               0.000000000               0.000857656               0.001138368               0.000000000               0.000179323               0.000319678               0.000499001               0.000000000               0.000000000               0.000000000               0.000000000               0.000867465               0.001485777              -0.000000000               0.000139576               0.000448729               0.000588305               0.000000000               0.000000000               0.000000000               0.000000000               0.000841131               0.001777960              -0.000000000               0.000093178               0.000561588               0.000654766               0.000000000               0.000000000               0.000000000               0.000000000               0.000802081               0.002045338               0.000000000               0.000045113               0.000666735               0.000711848               0.000000000               0.000000000               0.000000000               0.000000000               0.000753709               0.002294641               0.000000000              -0.000004189               0.000766269               0.000762080               0.000000000               0.000000000               0.000000000               0.000000000               0.000707752               0.002513599               0.000000000              -0.000048793               0.000854122               0.000805330               0.000000000               0.000000000               0.000000000               0.000000000               0.000669362               0.002700733               0.000000000              -0.000086581               0.000929096               0.000842515               0.000000000               0.000000000               0.000000000               0.000000000               0.000625263               0.002850941               0.000000000              -0.000121893               0.000990935               0.000869042               0.000000000               0.000000000               0.000000000               0.000000000               0.000574573               0.002971608               0.000000000              -0.000155986               0.001042521               0.000886536               0.000000000               0.000000000               0.000000000               0.000000000               0.000530088               0.003072111              -0.000000000              -0.000185230               0.001085770               0.000900540               0.000000000               0.000000000               0.000000000               0.000000000               0.000505592               0.003151463              -0.000000000              -0.000204335               0.001118589               0.000914254               0.000000000               0.000000000               0.000000000               0.000000000               0.000509768               0.003208217              -0.000000000              -0.000209863               0.001139349               0.000929486               0.000000000               0.000000000               0.000000000               0.000000000               0.000542851               0.003241556               0.000000000              -0.000201625               0.001147716               0.000946091               0.000000000               0.000000000               0.000000000               0.000000000               0.000578648               0.003256642               0.000000000              -0.000190087               0.001148899               0.000958812               0.000000000               0.000000000               0.000000000               0.000000000               0.000000000               0.000000000               0.000000000               0.000000000               0.000000000               0.000000000               0.000000000               0.000000000               0.000000000               0.000000000               0.000000000               0.000000000               0.000000000               0.000000000               0.000000000               0.000000000               0.000000000               0.000000000               0.000000000               0.000000000               0.000000000               0.000000000               0.000000000               0.000000000               0.000000000               0.000000000               0.000000000               0.000000000               0.000000000               0.000000000               0.000000000               0.000000000               0.000000000               0.000000000               0.000000000               0.000000000               0.000000000               0.000000000               0.000000000               0.000000000               0.000000000               0.000000000               0.000000000               0.000000000               0.000000000               0.000000000               0.000000000               0.000000000               0.000000000               0.000000000               0.000000000               0.000000000               0.000000000               0.000000000               0.000000000               0.000000000               0.000000000               0.000000000               0.000000000               0.000000000               0.000000000               0.000000000               0.000000000               0.000000000               0.000000000               0.000000000               0.000000000               0.000000000               0.000000000               0.000000000               0.000000000               0.000000000               0.000000000               0.000000000               0.000000000               0.000000000               0.000000000               0.000000000               0.000000000               0.000000000               0.000000000               0.000000000               0.000000000               0.000000000               0.000000000               0.000000000               0.000000000               0.000000000               0.000000000               0.000000000               0.000000000               0.000000000               0.000000000               0.000000000               0.000000000               0.000000000               0.000000000               0.000000000               0.000000000               0.000000000               0.000000000               0.000000000               0.000000000               0.000000000               0.000000000               0.000000000               0.000000000               0.000000000               0.000000000               0.000000000               0.000000000               0.000000000               0.000000000               0.000000000               0.000000000               0.000000000               0.000000000               0.000000000               0.000000000               0.000000000               0.000000000               0.000000000               0.000000000               0.000000000               0.000000000               0.000000000               0.000000000               0.000000000               0.000000000               0.000000000               0.000000000               0.000000000               0.000000000               0.000000000               0.000000000               0.000000000               0.000000000               0.000000000               0.000000000               0.000000000               0.000000000               0.000000000               0.000000000               0.000000000               0.000000000               0.000000000               0.000000000               0.000000000               0.000000000               0.000000000               0.000000000               0.000000000               0.000000000               0.000000000               0.000000000               0.000000000               0.000000000               0.000000000               0.000000000               0.000000000               0.000000000               0.000000000               0.000000000               0.000000000               0.000000000               0.000000000               0.000000000               0.000000000               0.000000000               0.000000000               0.000662418               0.007226917               0.000549305              -0.000654956               0.002627267               0.001972311               0.000000000               0.000000000               0.000000000               0.000000000               0.000690246               0.005980691               0.000344875              -0.000488743               0.002156458               0.001667715               0.000000000               0.000000000               0.000000000               0.000000000               0.000928011               0.004992357               0.000134769              -0.000276040               0.001756116               0.001480076               0.000000000               0.000000000               0.000000000               0.000000000               0.000953432               0.004451643               0.000038244              -0.000198918               0.001550172               0.001351254               0.000000000               0.000000000               0.000000000               0.000000000               0.000902262               0.004133022              -0.000006031              -0.000178279               0.001437086               0.001258807               0.000000000               0.000000000               0.000000000               0.000000000               0.000822847               0.003932952              -0.000026125              -0.000183051               0.001371988               0.001188937               0.000000000               0.000000000               0.000000000               0.000000000               0.000737072               0.003805301              -0.000036490              -0.000199260               0.001334841               0.001135581               0.000000000               0.000000000               0.000000000               0.000000000               0.000653610               0.003724048              -0.000039702              -0.000220402               0.001314804               0.001094402               0.000000000               0.000000000               0.000000000               0.000000000               0.000570201               0.003667815              -0.000038443              -0.000244651               0.001304143               0.001059492               0.000000000               0.000000000               0.000000000               0.000000000               0.000487758               0.003628782              -0.000038680              -0.000270688               0.001299811               0.001029123               0.000000000               0.000000000               0.000000000               0.000000000               0.000408129               0.003604122              -0.000039241              -0.000297466               0.001300517               0.001003051               0.000000000               0.000000000               0.000000000               0.000000000               0.000329243               0.003589733              -0.000038184              -0.000325250               0.001304982               0.000979732               0.000000000               0.000000000               0.000000000               0.000000000               0.000252310               0.003580731              -0.000035432              -0.000352974               0.001311223               0.000958249               0.000000000               0.000000000               0.000000000               0.000000000               0.000182106               0.003574891              -0.000031117              -0.000378570               0.001317808               0.000939238               0.000000000               0.000000000               0.000000000               0.000000000               0.000116705               0.003568326              -0.000025000              -0.000402275               0.001323522               0.000921246               0.000000000               0.000000000               0.000000000               0.000000000               0.000055639               0.003559309              -0.000014872              -0.000424048               0.001327774               0.000903726               0.000000000               0.000000000               0.000000000               0.000000000               0.000027144               0.003553789              -0.000008451              -0.000434043               0.001329266               0.000895222               0.000000000               0.000000000               0.000000000               0.000000000               0.000770285               0.006855332               0.001036958              -0.000568059               0.002474441               0.001906382               0.000000000               0.000000000               0.000000000               0.000000000               0.000718253               0.005720711               0.000653831              -0.000445743               0.002055466               0.001609723               0.000000000               0.000000000               0.000000000               0.000000000               0.000869232               0.004853817               0.000263444              -0.000280764               0.001711511               0.001430747               0.000000000               0.000000000               0.000000000               0.000000000               0.000856272               0.004374841               0.000087437              -0.000225753               0.001533517               0.001307764               0.000000000               0.000000000               0.000000000               0.000000000               0.000794653               0.004091515               0.000006481              -0.000213444               0.001434973               0.001221529               0.000000000               0.000000000               0.000000000               0.000000000               0.000717811               0.003911555              -0.000031410              -0.000219765               0.001377093               0.001157329               0.000000000               0.000000000               0.000000000               0.000000000               0.000636908               0.003792578              -0.000051887              -0.000235231               0.001342591               0.001107359               0.000000000               0.000000000               0.000000000               0.000000000               0.000561176               0.003713905              -0.000059264              -0.000253796               0.001322555               0.001068758               0.000000000               0.000000000               0.000000000               0.000000000               0.000489148               0.003660773              -0.000057943              -0.000274166               0.001311634               0.001037469               0.000000000               0.000000000               0.000000000               0.000000000               0.000417691               0.003624039              -0.000057430              -0.000296370               0.001306791               0.001010421               0.000000000               0.000000000               0.000000000               0.000000000               0.000347941               0.003601488              -0.000058300              -0.000319708               0.001307053               0.000987346               0.000000000               0.000000000               0.000000000               0.000000000               0.000279158               0.003589851              -0.000056673              -0.000344046               0.001311287               0.000967241               0.000000000               0.000000000               0.000000000               0.000000000               0.000213132               0.003583562              -0.000051627              -0.000368020               0.001317182               0.000949162               0.000000000               0.000000000               0.000000000               0.000000000               0.000153899               0.003580853              -0.000043728              -0.000389893               0.001323570               0.000933677               0.000000000               0.000000000               0.000000000               0.000000000               0.000099588               0.003580627              -0.000034274              -0.000410232               0.001330274               0.000920042               0.000000000               0.000000000               0.000000000               0.000000000               0.000047812               0.003585286              -0.000020329              -0.000430230               0.001338493               0.000908263               0.000000000               0.000000000               0.000000000               0.000000000               0.000025801               0.003595455              -0.000009786              -0.000439755               0.001345058               0.000905303               0.000000000               0.000000000               0.000000000               0.000000000               0.000909795               0.006289850               0.001416002              -0.000445058               0.002244948               0.001799890               0.000000000               0.000000000               0.000000000               0.000000000               0.000746592               0.005333035               0.000901168              -0.000386657               0.001906546               0.001519889               0.000000000               0.000000000               0.000000000               0.000000000               0.000776831               0.004648423               0.000380200              -0.000289741               0.001646039               0.001356298               0.000000000               0.000000000               0.000000000               0.000000000               0.000720228               0.004261347               0.000149868              -0.000262582               0.001507962               0.001245380               0.000000000               0.000000000               0.000000000               0.000000000               0.000650242               0.004026892               0.000042675              -0.000259520               0.001428791               0.001169270               0.000000000               0.000000000               0.000000000               0.000000000               0.000579029               0.003873905              -0.000007225              -0.000267102               0.001380323               0.001113221               0.000000000               0.000000000               0.000000000               0.000000000               0.000509070               0.003769837              -0.000033679              -0.000280328               0.001350042               0.001069715               0.000000000               0.000000000               0.000000000               0.000000000               0.000444451               0.003699368              -0.000044949              -0.000295751               0.001331694               0.001035943               0.000000000               0.000000000               0.000000000               0.000000000               0.000383888               0.003652465              -0.000044077              -0.000312599               0.001321676               0.001009077               0.000000000               0.000000000               0.000000000               0.000000000               0.000325740               0.003619975              -0.000043529              -0.000330344               0.001316761               0.000986417               0.000000000               0.000000000               0.000000000               0.000000000               0.000270640               0.003599760              -0.000045909              -0.000348479               0.001316068               0.000967589               0.000000000               0.000000000               0.000000000               0.000000000               0.000218583               0.003588875              -0.000045560              -0.000366640               0.001318493               0.000951853               0.000000000               0.000000000               0.000000000               0.000000000               0.000169948               0.003585976              -0.000039916              -0.000384516               0.001323485               0.000938970               0.000000000               0.000000000               0.000000000               0.000000000               0.000125336               0.003589184              -0.000031117              -0.000401646               0.001330265               0.000928619               0.000000000               0.000000000               0.000000000               0.000000000               0.000083892               0.003601101              -0.000022287              -0.000418677               0.001339914               0.000921237               0.000000000               0.000000000               0.000000000               0.000000000               0.000041740               0.003624395              -0.000012809              -0.000437396               0.001353918               0.000916523               0.000000000               0.000000000               0.000000000               0.000000000               0.000027187               0.003652736              -0.000003840              -0.000446396               0.001366365               0.000919969               0.000000000               0.000000000               0.000000000               0.000000000               0.001048254               0.005590514               0.001665861              -0.000305720               0.001965392               0.001659672               0.000000000               0.000000000               0.000000000               0.000000000               0.000765565               0.004862978               0.001077333              -0.000320785               0.001727905               0.001407119               0.000000000               0.000000000               0.000000000               0.000000000               0.000667340               0.004402138               0.000482974              -0.000300014               0.001567369               0.001267355               0.000000000               0.000000000               0.000000000               0.000000000               0.000574295               0.004123311               0.000226050              -0.000300053               0.001474441               0.001174388               0.000000000               0.000000000               0.000000000               0.000000000               0.000501115               0.003940505               0.000105735              -0.000304644               0.001415037               0.001110392               0.000000000               0.000000000               0.000000000               0.000000000               0.000439007               0.003814098               0.000048471              -0.000312134               0.001375398               0.001063264               0.000000000               0.000000000               0.000000000               0.000000000               0.000380916               0.003727305               0.000017544              -0.000323069               0.001350112               0.001027043               0.000000000               0.000000000               0.000000000               0.000000000               0.000329880               0.003668286               0.000000947              -0.000334830               0.001334360               0.000999530               0.000000000               0.000000000               0.000000000               0.000000000               0.000283164               0.003631976              -0.000002509              -0.000347809               0.001326583               0.000978773               0.000000000               0.000000000               0.000000000               0.000000000               0.000238888               0.003609128              -0.000002879              -0.000361557               0.001323550               0.000961993               0.000000000               0.000000000               0.000000000               0.000000000               0.000199775               0.003593491              -0.000006973              -0.000374270               0.001322575               0.000948305               0.000000000               0.000000000               0.000000000               0.000000000               0.000167315               0.003587151              -0.000009921              -0.000385650               0.001324255               0.000938605               0.000000000               0.000000000               0.000000000               0.000000000               0.000137100               0.003589762              -0.000007015              -0.000397307               0.001329011               0.000931704               0.000000000               0.000000000               0.000000000               0.000000000               0.000106722               0.003602353              -0.000000045              -0.000410272               0.001337530               0.000927257               0.000000000               0.000000000               0.000000000               0.000000000               0.000073957               0.003625298               0.000005116              -0.000425427               0.001350230               0.000924802               0.000000000               0.000000000               0.000000000               0.000000000               0.000037792               0.003659667               0.000005385              -0.000443285               0.001367638               0.000924353               0.000000000               0.000000000               0.000000000               0.000000000               0.000027501               0.003694146               0.000008827              -0.000451454               0.001381854               0.000930400               0.000000000               0.000000000               0.000000000               0.000000000               0.001160075               0.004831437               0.001779988              -0.000168903               0.001666763               0.001497860               0.000000000               0.000000000               0.000000000               0.000000000               0.000769666               0.004358517               0.001180954              -0.000256190               0.001538221               0.001282031               0.000000000               0.000000000               0.000000000               0.000000000               0.000554330               0.004137542               0.000574907              -0.000309318               0.001482273               0.001172955               0.000000000               0.000000000               0.000000000               0.000000000               0.000441079               0.003961774               0.000315241              -0.000329816               0.001430517               0.001100701               0.000000000               0.000000000               0.000000000               0.000000000               0.000372934               0.003829011               0.000190825              -0.000338776               0.001389249               0.001050474               0.000000000               0.000000000               0.000000000               0.000000000               0.000323970               0.003732787               0.000126937              -0.000345109               0.001359286               0.001014177               0.000000000               0.000000000               0.000000000               0.000000000               0.000281043               0.003667080               0.000088421              -0.000352993               0.001340012               0.000987019               0.000000000               0.000000000               0.000000000               0.000000000               0.000243885               0.003623890               0.000063160              -0.000361528               0.001328461               0.000966932               0.000000000               0.000000000               0.000000000               0.000000000               0.000210186               0.003600923               0.000052362              -0.000371295               0.001324061               0.000952766               0.000000000               0.000000000               0.000000000               0.000000000               0.000180056               0.003590187               0.000052351              -0.000381251               0.001323801               0.000942549               0.000000000               0.000000000               0.000000000               0.000000000               0.000154403               0.003581987               0.000048628              -0.000389846               0.001323933               0.000934086               0.000000000               0.000000000               0.000000000               0.000000000               0.000135335               0.003580560               0.000043160              -0.000396819               0.001325781               0.000928962               0.000000000               0.000000000               0.000000000               0.000000000               0.000114932               0.003585732               0.000041573              -0.000405116               0.001330271               0.000925155               0.000000000               0.000000000               0.000000000               0.000000000               0.000090419               0.003600112               0.000041804              -0.000416106               0.001338727               0.000922621               0.000000000               0.000000000               0.000000000               0.000000000               0.000062259               0.003621870               0.000038401              -0.000429386               0.001350406               0.000921021               0.000000000               0.000000000               0.000000000               0.000000000               0.000031701               0.003644934               0.000024830              -0.000443728               0.001362875               0.000919147               0.000000000               0.000000000               0.000000000               0.000000000               0.000019959               0.003661386               0.000016794              -0.000450188               0.001370512               0.000920325               0.000000000               0.000000000               0.000000000               0.000000000               0.001220238               0.004072134               0.001775558              -0.000051430               0.001374507               0.001323077               0.000000000               0.000000000               0.000000000               0.000000000               0.000758977               0.003857120               0.001223897              -0.000197524               0.001351535               0.001154011               0.000000000               0.000000000               0.000000000               0.000000000               0.000453249               0.003866649               0.000658483              -0.000313362               0.001393324               0.001079962               0.000000000               0.000000000               0.000000000               0.000000000               0.000333779               0.003786136               0.000410658              -0.000348099               0.001378066               0.001029966               0.000000000               0.000000000               0.000000000               0.000000000               0.000280200               0.003702355               0.000282098              -0.000357719               0.001353346               0.000995627               0.000000000               0.000000000               0.000000000               0.000000000               0.000247841               0.003640839               0.000208010              -0.000362163               0.001334322               0.000972158               0.000000000               0.000000000               0.000000000               0.000000000               0.000219804               0.003602440               0.000161713              -0.000367878               0.001323427               0.000955550               0.000000000               0.000000000               0.000000000               0.000000000               0.000194652               0.003580805               0.000131989              -0.000374605               0.001318458               0.000943853               0.000000000               0.000000000               0.000000000               0.000000000               0.000169067               0.003569778               0.000115752              -0.000382821               0.001317521               0.000934700               0.000000000               0.000000000               0.000000000               0.000000000               0.000148565               0.003564924               0.000113567              -0.000389903               0.001318264               0.000928361               0.000000000               0.000000000               0.000000000               0.000000000               0.000131021               0.003560108               0.000108665              -0.000395880               0.001318651               0.000922771               0.000000000               0.000000000               0.000000000               0.000000000               0.000112754               0.003557164               0.000096322              -0.000402362               0.001319830               0.000917468               0.000000000               0.000000000               0.000000000               0.000000000               0.000092068               0.003559770               0.000083258              -0.000410445               0.001323393               0.000912948               0.000000000               0.000000000               0.000000000               0.000000000               0.000067117               0.003567093               0.000068050              -0.000420717               0.001329258               0.000908541               0.000000000               0.000000000               0.000000000               0.000000000               0.000039968               0.003574166               0.000049294              -0.000431782               0.001335304               0.000903522               0.000000000               0.000000000               0.000000000               0.000000000               0.000017238               0.003572981               0.000025682              -0.000440157               0.001337701               0.000897543               0.000000000               0.000000000               0.000000000               0.000000000               0.000004044               0.003561432               0.000009642              -0.000443662               0.001335019               0.000891358               0.000000000               0.000000000               0.000000000               0.000000000               0.001224940               0.003352375               0.001675975               0.000040303               0.001104012               0.001144315               0.000000000               0.000000000               0.000000000               0.000000000               0.000732265               0.003390149               0.001219864              -0.000149170               0.001179761               0.001030591               0.000000000               0.000000000               0.000000000               0.000000000               0.000378218               0.003601658               0.000733214              -0.000308375               0.001303332               0.000994957               0.000000000               0.000000000               0.000000000               0.000000000               0.000265794               0.003602798               0.000500338              -0.000350676               0.001317813               0.000967136               0.000000000               0.000000000               0.000000000               0.000000000               0.000227297               0.003568750               0.000364757              -0.000360857               0.001309857               0.000949000               0.000000000               0.000000000               0.000000000               0.000000000               0.000210981               0.003546870               0.000280633              -0.000364240               0.001303692               0.000939451               0.000000000               0.000000000               0.000000000               0.000000000               0.000192088               0.003537284               0.000229103              -0.000370127               0.001302458               0.000932332               0.000000000               0.000000000               0.000000000               0.000000000               0.000172492               0.003536684               0.000196944              -0.000377400               0.001304683               0.000927283               0.000000000               0.000000000               0.000000000               0.000000000               0.000153941               0.003533852               0.000174165              -0.000384003               0.001305940               0.000921937               0.000000000               0.000000000               0.000000000               0.000000000               0.000134349               0.003526455               0.000161175              -0.000390425               0.001305615               0.000915190               0.000000000               0.000000000               0.000000000               0.000000000               0.000111798               0.003519075               0.000146644              -0.000397959               0.001305666               0.000907707               0.000000000               0.000000000               0.000000000               0.000000000               0.000084301               0.003512146               0.000121295              -0.000407404               0.001306505               0.000899101               0.000000000               0.000000000               0.000000000               0.000000000               0.000055522               0.003506416               0.000091109              -0.000417480               0.001307954               0.000890473               0.000000000               0.000000000               0.000000000               0.000000000               0.000027749               0.003499142               0.000059854              -0.000426986               0.001308698               0.000881712               0.000000000               0.000000000               0.000000000               0.000000000               0.000005137               0.003485284               0.000030076              -0.000433733               0.001306328               0.000872594               0.000000000               0.000000000               0.000000000               0.000000000              -0.000005917               0.003460581               0.000008464              -0.000434790               0.001298445               0.000863655               0.000000000               0.000000000               0.000000000               0.000000000              -0.000011860               0.003435682              -0.000002210              -0.000433907               0.001289851               0.000855945               0.000000000               0.000000000               0.000000000               0.000000000               0.001202510               0.002724559               0.001510657               0.000110369               0.000871387               0.000981756               0.000000000               0.000000000               0.000000000               0.000000000               0.000717684               0.002974899               0.001192032              -0.000102732               0.001025867               0.000923135               0.000000000               0.000000000               0.000000000               0.000000000               0.000347235               0.003358930               0.000816946              -0.000289653               0.001216183               0.000926530               0.000000000               0.000000000               0.000000000               0.000000000               0.000246687               0.003440835               0.000594341              -0.000337596               0.001259465               0.000921869               0.000000000               0.000000000               0.000000000               0.000000000               0.000217211               0.003460201               0.000450115              -0.000351070               0.001270412               0.000919342               0.000000000               0.000000000               0.000000000               0.000000000               0.000206717               0.003473686               0.000356711              -0.000356691               0.001276781               0.000920090               0.000000000               0.000000000               0.000000000               0.000000000               0.000193987               0.003489124               0.000296815              -0.000363395               0.001284161               0.000920767               0.000000000               0.000000000               0.000000000               0.000000000               0.000177005               0.003502624               0.000256713              -0.000371450               0.001291346               0.000919896               0.000000000               0.000000000               0.000000000               0.000000000               0.000159769               0.003504478               0.000225006              -0.000378145               0.001294196               0.000916051               0.000000000               0.000000000               0.000000000               0.000000000               0.000139016               0.003493190               0.000197374              -0.000384517               0.001292557               0.000908041               0.000000000               0.000000000               0.000000000               0.000000000               0.000112009               0.003481106               0.000169716              -0.000393134               0.001291402               0.000898268               0.000000000               0.000000000               0.000000000               0.000000000               0.000076187               0.003469377               0.000133703              -0.000405101               0.001291481               0.000886380               0.000000000               0.000000000               0.000000000               0.000000000               0.000036226               0.003454623               0.000092044              -0.000418242               0.001290944               0.000872701               0.000000000               0.000000000               0.000000000               0.000000000              -0.000004866               0.003433441               0.000052037              -0.000431004               0.001288137               0.000857133               0.000000000               0.000000000               0.000000000               0.000000000              -0.000038902               0.003401467               0.000020444              -0.000439770               0.001280401               0.000840631               0.000000000               0.000000000               0.000000000               0.000000000              -0.000057635               0.003357446               0.000001267              -0.000441293               0.001266235               0.000824943               0.000000000               0.000000000               0.000000000               0.000000000              -0.000061636               0.003328298              -0.000005666              -0.000439150               0.001255805               0.000816655               0.000000000               0.000000000               0.000000000               0.000000000               0.001136393               0.002122821               0.001315371               0.000160792               0.000654002               0.000814794               0.000000000               0.000000000               0.000000000               0.000000000               0.000725710               0.002497431               0.001153845              -0.000040039               0.000845815               0.000805775               0.000000000               0.000000000               0.000000000               0.000000000               0.000372236               0.003007669               0.000914435              -0.000236370               0.001081336               0.000844966               0.000000000               0.000000000               0.000000000               0.000000000               0.000271555               0.003189522               0.000710479              -0.000296857               0.001162115               0.000865259               0.000000000               0.000000000               0.000000000               0.000000000               0.000242406               0.003274296               0.000561443              -0.000318384               0.001197549               0.000879165               0.000000000               0.000000000               0.000000000               0.000000000               0.000232563               0.003330959               0.000455474              -0.000329158               0.001220028               0.000890870               0.000000000               0.000000000               0.000000000               0.000000000               0.000223934               0.003380621               0.000381246              -0.000338602               0.001239730               0.000901128               0.000000000               0.000000000               0.000000000               0.000000000               0.000210233               0.003420446               0.000327670              -0.000348718               0.001256377               0.000907659               0.000000000               0.000000000               0.000000000               0.000000000               0.000190168               0.003439586               0.000283703              -0.000358635               0.001266062               0.000907427               0.000000000               0.000000000               0.000000000               0.000000000               0.000164289               0.003435164               0.000243874              -0.000367786               0.001267639               0.000899852               0.000000000               0.000000000               0.000000000               0.000000000               0.000131882               0.003417935               0.000204732              -0.000377785               0.001265229               0.000887443               0.000000000               0.000000000               0.000000000               0.000000000               0.000089986               0.003394302               0.000161601              -0.000390542               0.001261603               0.000871061               0.000000000               0.000000000               0.000000000               0.000000000               0.000042557               0.003373771               0.000114635              -0.000405761               0.001259833               0.000854072               0.000000000               0.000000000               0.000000000               0.000000000              -0.000009100               0.003355010               0.000069402              -0.000422788               0.001259255               0.000836467               0.000000000               0.000000000               0.000000000               0.000000000              -0.000059974               0.003332573               0.000034129              -0.000439061               0.001257200               0.000818139               0.000000000               0.000000000               0.000000000               0.000000000              -0.000104292               0.003298913               0.000010661              -0.000451473               0.001250118               0.000798645               0.000000000               0.000000000               0.000000000               0.000000000              -0.000128211               0.003272353              -0.000000418              -0.000457122               0.001243147               0.000786025               0.000000000               0.000000000               0.000000000               0.000000000               0.000996730               0.001568196               0.001094270               0.000177747               0.000463477               0.000641224               0.000000000               0.000000000               0.000000000               0.000000000               0.000723705               0.002023705               0.001083741               0.000018424               0.000668419               0.000686844               0.000000000               0.000000000               0.000000000               0.000000000               0.000430191               0.002613954               0.000985320              -0.000165423               0.000926450               0.000761027               0.000000000               0.000000000               0.000000000               0.000000000               0.000331065               0.002890148               0.000820114              -0.000237119               0.001042413               0.000805293               0.000000000               0.000000000               0.000000000               0.000000000               0.000293059               0.003044498               0.000675448              -0.000270665               0.001105044               0.000834379               0.000000000               0.000000000               0.000000000               0.000000000               0.000277359               0.003151925               0.000563403              -0.000289981               0.001147291               0.000857311               0.000000000               0.000000000               0.000000000               0.000000000               0.000271136               0.003244548               0.000478253              -0.000303892               0.001182802               0.000878910               0.000000000               0.000000000               0.000000000               0.000000000               0.000257828               0.003318591               0.000410381              -0.000318138               0.001212232               0.000894094               0.000000000               0.000000000               0.000000000               0.000000000               0.000232640               0.003360777               0.000353444              -0.000332856               0.001231200               0.000898343               0.000000000               0.000000000               0.000000000               0.000000000               0.000202374               0.003374608               0.000304329              -0.000345935               0.001240170               0.000894235               0.000000000               0.000000000               0.000000000               0.000000000               0.000170878               0.003368246               0.000258028              -0.000356951               0.001241721               0.000884770               0.000000000               0.000000000               0.000000000               0.000000000               0.000135205               0.003349299               0.000211509              -0.000367960               0.001239075               0.000871115               0.000000000               0.000000000               0.000000000               0.000000000               0.000089040               0.003327760               0.000160674              -0.000382579               0.001236769               0.000854189               0.000000000               0.000000000               0.000000000               0.000000000               0.000033172               0.003310090               0.000109708              -0.000401321               0.001237126               0.000835805               0.000000000               0.000000000               0.000000000               0.000000000              -0.000031169               0.003293702               0.000065892              -0.000423400               0.001239023               0.000815623               0.000000000               0.000000000               0.000000000               0.000000000              -0.000102037               0.003276221               0.000028855              -0.000447790               0.001241326               0.000793536               0.000000000               0.000000000               0.000000000               0.000000000              -0.000153457               0.003256616               0.000005644              -0.000464622               0.001240402               0.000775780               0.000000000               0.000000000               0.000000000               0.000000000               0.000793039               0.001083475               0.000853598               0.000161953               0.000307170               0.000469123               0.000000000               0.000000000               0.000000000               0.000000000               0.000688609               0.001568503               0.000964560               0.000062164               0.000502107               0.000564271               0.000000000               0.000000000               0.000000000               0.000000000               0.000499751               0.002181540               0.000989937              -0.000085287               0.000755601               0.000670314               0.000000000               0.000000000               0.000000000               0.000000000               0.000418952               0.002531423               0.000877891              -0.000159321               0.000896906               0.000737585               0.000000000               0.000000000               0.000000000               0.000000000               0.000379307               0.002754714               0.000753021              -0.000202099               0.000985595               0.000783496               0.000000000               0.000000000               0.000000000               0.000000000               0.000355373               0.002919322               0.000648161              -0.000231650               0.001050314               0.000818664               0.000000000               0.000000000               0.000000000               0.000000000               0.000342396               0.003058211               0.000560191              -0.000253878               0.001104019               0.000850142               0.000000000               0.000000000               0.000000000               0.000000000               0.000322610               0.003167927               0.000481830              -0.000275012               0.001147636               0.000872624               0.000000000               0.000000000               0.000000000               0.000000000               0.000290790               0.003243540               0.000415183              -0.000296396               0.001179968               0.000883572               0.000000000               0.000000000               0.000000000               0.000000000               0.000254815               0.003286500               0.000362101              -0.000315256               0.001200574               0.000885318               0.000000000               0.000000000               0.000000000               0.000000000               0.000220912               0.003303674               0.000315320              -0.000330116               0.001211252               0.000881136               0.000000000               0.000000000               0.000000000               0.000000000               0.000187663               0.003304247               0.000264657              -0.000342657               0.001215624               0.000872967               0.000000000               0.000000000               0.000000000               0.000000000               0.000147494               0.003293179               0.000207952              -0.000356336               0.001216494               0.000860158               0.000000000               0.000000000               0.000000000               0.000000000               0.000097261               0.003279227               0.000152514              -0.000373430               0.001217541               0.000844112               0.000000000               0.000000000               0.000000000               0.000000000               0.000032988               0.003267389               0.000099740              -0.000396052               0.001221136               0.000825084               0.000000000               0.000000000               0.000000000               0.000000000              -0.000046698               0.003262986               0.000047487              -0.000425384               0.001229446               0.000804062               0.000000000               0.000000000               0.000000000               0.000000000              -0.000111023               0.003248726               0.000013774              -0.000447723               0.001232139               0.000784416               0.000000000               0.000000000               0.000000000               0.000000000               0.000542578               0.000691831               0.000615953               0.000116986               0.000191612               0.000308598               0.000000000               0.000000000               0.000000000               0.000000000               0.000622922               0.001156850               0.000805912               0.000088988               0.000355950               0.000444938               0.000000000               0.000000000               0.000000000               0.000000000               0.000574518               0.001748482               0.000922323              -0.000003117               0.000583860               0.000580743               0.000000000               0.000000000               0.000000000               0.000000000               0.000531955               0.002144366               0.000866459              -0.000068564               0.000737636               0.000669072               0.000000000               0.000000000               0.000000000               0.000000000               0.000499746               0.002424609               0.000772476              -0.000115672               0.000846752               0.000731080               0.000000000               0.000000000               0.000000000               0.000000000               0.000468882               0.002642825               0.000680755              -0.000154523               0.000932440               0.000777918               0.000000000               0.000000000               0.000000000               0.000000000               0.000437652               0.002825606               0.000596924              -0.000189081               0.001004886               0.000815805               0.000000000               0.000000000               0.000000000               0.000000000               0.000407527               0.002973437               0.000519321              -0.000218857               0.001064088               0.000845231               0.000000000               0.000000000               0.000000000               0.000000000               0.000373836               0.003086451               0.000453395              -0.000245617               0.001110679               0.000865062               0.000000000               0.000000000               0.000000000               0.000000000               0.000332914               0.003167417               0.000400034              -0.000271084               0.001146156               0.000875073               0.000000000               0.000000000               0.000000000               0.000000000               0.000289274               0.003221051               0.000354105              -0.000294153               0.001171724               0.000877571               0.000000000               0.000000000               0.000000000               0.000000000               0.000250313               0.003248037               0.000306702              -0.000312137               0.001186714               0.000874577               0.000000000               0.000000000               0.000000000               0.000000000               0.000216882               0.003256725               0.000252931              -0.000325759               0.001194151               0.000868392               0.000000000               0.000000000               0.000000000               0.000000000               0.000179065               0.003259030               0.000194205              -0.000340228               0.001199742               0.000859513               0.000000000               0.000000000               0.000000000               0.000000000               0.000125987               0.003258167               0.000131874              -0.000360025               0.001206053               0.000846028               0.000000000               0.000000000               0.000000000               0.000000000               0.000055525               0.003259074               0.000066511              -0.000386561               0.001215201               0.000828640               0.000000000               0.000000000               0.000000000               0.000000000              -0.000004285               0.003248218               0.000026882              -0.000407633               0.001218606               0.000810973               0.000000000               0.000000000               0.000000000               0.000000000               0.000275746               0.000404377               0.000403983               0.000052857               0.000117172               0.000170028               0.000000000               0.000000000               0.000000000               0.000000000               0.000537930               0.000814403               0.000619231               0.000099922               0.000238157               0.000338079               0.000000000               0.000000000               0.000000000               0.000000000               0.000642036               0.001349701               0.000779652               0.000072049               0.000425879               0.000497929               0.000000000               0.000000000               0.000000000               0.000000000               0.000653663               0.001766465               0.000768832               0.000024314               0.000580711               0.000605025               0.000000000               0.000000000               0.000000000               0.000000000               0.000631295               0.002083341               0.000707692              -0.000023683               0.000702334               0.000678651               0.000000000               0.000000000               0.000000000               0.000000000               0.000595306               0.002342755               0.000634300              -0.000069605               0.000804112               0.000734507               0.000000000               0.000000000               0.000000000               0.000000000               0.000552929               0.002565729               0.000562798              -0.000113368               0.000893024               0.000779656               0.000000000               0.000000000               0.000000000               0.000000000               0.000514978               0.002748367               0.000498334              -0.000150429               0.000966256               0.000815827               0.000000000               0.000000000               0.000000000               0.000000000               0.000479555               0.002897314               0.000440047              -0.000182331               0.001026539               0.000844208               0.000000000               0.000000000               0.000000000               0.000000000               0.000436599               0.003020363               0.000389326              -0.000213821               0.001078051               0.000864231               0.000000000               0.000000000               0.000000000               0.000000000               0.000390314               0.003113464               0.000350418              -0.000242815               0.001118749               0.000875934               0.000000000               0.000000000               0.000000000               0.000000000               0.000350543               0.003173083               0.000314981              -0.000265181               0.001146077               0.000880896               0.000000000               0.000000000               0.000000000               0.000000000               0.000318262               0.003209540               0.000269065              -0.000281844               0.001163784               0.000881940               0.000000000               0.000000000               0.000000000               0.000000000               0.000285833               0.003233026               0.000210302              -0.000296940               0.001176645               0.000879704               0.000000000               0.000000000               0.000000000               0.000000000               0.000247495               0.003245982               0.000145151              -0.000312936               0.001186295               0.000873359               0.000000000               0.000000000               0.000000000               0.000000000               0.000202239               0.003254210               0.000075561              -0.000330936               0.001195038               0.000864102               0.000000000               0.000000000               0.000000000               0.000000000               0.000164661               0.003251191               0.000035799              -0.000344650               0.001198603               0.000853953               0.000000000               0.000000000               0.000000000               0.000000000               0.000034394               0.000210624               0.000234464              -0.000013430               0.000074684               0.000061253               0.000000000               0.000000000               0.000000000               0.000000000               0.000453305               0.000556473               0.000417712               0.000100429               0.000152013               0.000252442               0.000000000               0.000000000               0.000000000               0.000000000               0.000694369               0.001024931               0.000567198               0.000132270               0.000297550               0.000429820               0.000000000               0.000000000               0.000000000               0.000000000               0.000759979               0.001441603               0.000580789               0.000104790               0.000445599               0.000550390               0.000000000               0.000000000               0.000000000               0.000000000               0.000752786               0.001778463               0.000545623               0.000059986               0.000572820               0.000632805               0.000000000               0.000000000               0.000000000               0.000000000               0.000716077               0.002061887               0.000494465               0.000010792               0.000683691               0.000694484               0.000000000               0.000000000               0.000000000               0.000000000               0.000672808               0.002309919               0.000444326              -0.000036437               0.000782111               0.000745674               0.000000000               0.000000000               0.000000000               0.000000000               0.000632411               0.002525580               0.000399205              -0.000078543               0.000868033               0.000789489               0.000000000               0.000000000               0.000000000               0.000000000               0.000592576               0.002712088               0.000353205              -0.000116795               0.000942952               0.000826157               0.000000000               0.000000000               0.000000000               0.000000000               0.000550661               0.002866230               0.000313164              -0.000151781               0.001005994               0.000854213               0.000000000               0.000000000               0.000000000               0.000000000               0.000507895               0.002986841               0.000287392              -0.000182894               0.001056569               0.000873674               0.000000000               0.000000000               0.000000000               0.000000000               0.000466404               0.003079476               0.000264618              -0.000210033               0.001096493               0.000886460               0.000000000               0.000000000               0.000000000               0.000000000               0.000429891               0.003148424               0.000228365              -0.000232343               0.001126912               0.000894568               0.000000000               0.000000000               0.000000000               0.000000000               0.000401161               0.003195718               0.000178744              -0.000249029               0.001148238               0.000899210               0.000000000               0.000000000               0.000000000               0.000000000               0.000379892               0.003225616               0.000123949              -0.000260742               0.001162108               0.000901367               0.000000000               0.000000000               0.000000000               0.000000000               0.000366741               0.003246993               0.000064449              -0.000268345               0.001171769               0.000903423               0.000000000               0.000000000               0.000000000               0.000000000               0.000361420               0.003255190               0.000032008              -0.000271366               0.001175508               0.000904142               0.000000000               0.000000000               0.000000000               0.000000000              -0.000132950               0.000103929               0.000104463              -0.000062848               0.000055592              -0.000007256               0.000000000               0.000000000               0.000000000               0.000000000               0.000389778               0.000398537               0.000209596               0.000096348               0.000100728               0.000197077               0.000000000               0.000000000               0.000000000               0.000000000               0.000729770               0.000812671               0.000299471               0.000172078               0.000213528               0.000385606               0.000000000               0.000000000               0.000000000               0.000000000               0.000831735               0.001218974               0.000313568               0.000159527               0.000353145               0.000512672               0.000000000               0.000000000               0.000000000               0.000000000               0.000837013               0.001562881               0.000297672               0.000118519               0.000481449               0.000599967               0.000000000               0.000000000               0.000000000               0.000000000               0.000807005               0.001854503               0.000271778               0.000070813               0.000594557               0.000665370               0.000000000               0.000000000               0.000000000               0.000000000               0.000767072               0.002117656               0.000246920               0.000022945               0.000698230               0.000721175               0.000000000               0.000000000               0.000000000               0.000000000               0.000722399               0.002358169               0.000223322              -0.000023871               0.000794006               0.000770134               0.000000000               0.000000000               0.000000000               0.000000000               0.000677792               0.002569035               0.000196326              -0.000066957               0.000878655               0.000811698               0.000000000               0.000000000               0.000000000               0.000000000               0.000637409               0.002744577               0.000174679              -0.000104043               0.000949531               0.000845487               0.000000000               0.000000000               0.000000000               0.000000000               0.000594621               0.002885471               0.000163245              -0.000137701               0.001007714               0.000870014               0.000000000               0.000000000               0.000000000               0.000000000               0.000547426               0.003000925               0.000152118              -0.000169831               0.001056909               0.000887078               0.000000000               0.000000000               0.000000000               0.000000000               0.000505514               0.003094522               0.000132441              -0.000197247               0.001097246               0.000899999               0.000000000               0.000000000               0.000000000               0.000000000               0.000480565               0.003164624               0.000103853              -0.000215366               0.001126653               0.000911287               0.000000000               0.000000000               0.000000000               0.000000000               0.000476612               0.003212457               0.000071137              -0.000222827               0.001145084               0.000922257               0.000000000               0.000000000               0.000000000               0.000000000               0.000494623               0.003242702               0.000037198              -0.000219853               0.001154174               0.000934321               0.000000000               0.000000000               0.000000000               0.000000000               0.000518465               0.003256846               0.000020022              -0.000212681               0.001156498               0.000943817               0.000000000               0.000000000               0.000000000               0.000000000              -0.000191988               0.000072214              -0.000000000              -0.000081022               0.000051078              -0.000029944               0.000000000               0.000000000               0.000000000               0.000000000               0.000366264               0.000345954              -0.000000000               0.000094104               0.000083949               0.000178053               0.000000000               0.000000000               0.000000000               0.000000000               0.000743707               0.000737292               0.000000000               0.000186727               0.000183519               0.000370246               0.000000000               0.000000000               0.000000000               0.000000000               0.000857656               0.001138368              -0.000000000               0.000179323               0.000319678               0.000499001               0.000000000               0.000000000               0.000000000               0.000000000               0.000867465               0.001485777               0.000000000               0.000139576               0.000448729               0.000588305               0.000000000               0.000000000               0.000000000               0.000000000               0.000841131               0.001777960               0.000000000               0.000093178               0.000561588               0.000654766               0.000000000               0.000000000               0.000000000               0.000000000               0.000802081               0.002045338               0.000000000               0.000045113               0.000666735               0.000711848               0.000000000               0.000000000               0.000000000               0.000000000               0.000753709               0.002294641              -0.000000000              -0.000004189               0.000766269               0.000762080               0.000000000               0.000000000               0.000000000               0.000000000               0.000707752               0.002513599              -0.000000000              -0.000048793               0.000854122               0.000805330               0.000000000               0.000000000               0.000000000               0.000000000               0.000669362               0.002700733              -0.000000000              -0.000086581               0.000929096               0.000842515               0.000000000               0.000000000               0.000000000               0.000000000               0.000625263               0.002850941              -0.000000000              -0.000121893               0.000990935               0.000869042               0.000000000               0.000000000               0.000000000               0.000000000               0.000574573               0.002971608              -0.000000000              -0.000155986               0.001042521               0.000886536               0.000000000               0.000000000               0.000000000               0.000000000               0.000530088               0.003072111              -0.000000000              -0.000185230               0.001085770               0.000900540               0.000000000               0.000000000               0.000000000               0.000000000               0.000505592               0.003151463               0.000000000              -0.000204335               0.001118589               0.000914254               0.000000000               0.000000000               0.000000000               0.000000000               0.000509768               0.003208217               0.000000000              -0.000209863               0.001139349               0.000929486               0.000000000               0.000000000               0.000000000               0.000000000               0.000542851               0.003241556              -0.000000000              -0.000201625               0.001147716               0.000946091               0.000000000               0.000000000               0.000000000               0.000000000               0.000578648               0.003256642               0.000000000              -0.000190087               0.001148899               0.000958812               0.000000000               0.000000000               0.000000000               0.000000000               0.000622027               0.007358321              -0.000000000              -0.000686528               0.002681592               0.001995064               0.000000000               0.000000000               0.000000000               0.000000000               0.000679014               0.006073935               0.000000000              -0.000504610               0.002192828               0.001688218               0.000000000               0.000000000               0.000000000               0.000000000               0.000948052               0.005042132               0.000000000              -0.000274746               0.001772276               0.001497530               0.000000000               0.000000000               0.000000000               0.000000000               0.000988086               0.004477113               0.000000000              -0.000189107               0.001555392               0.001366285               0.000000000               0.000000000               0.000000000               0.000000000               0.000942626               0.004145716               0.000000000              -0.000164729               0.001436801               0.001272072               0.000000000               0.000000000               0.000000000               0.000000000               0.000864700               0.003940206              -0.000000000              -0.000168263               0.001369477               0.001201214               0.000000000               0.000000000               0.000000000               0.000000000               0.000776552               0.003809424              -0.000000000              -0.000184971               0.001331452               0.001146482               0.000000000               0.000000000               0.000000000               0.000000000               0.000687794               0.003727990              -0.000000000              -0.000208076               0.001312010               0.001103934               0.000000000               0.000000000               0.000000000               0.000000000               0.000600647               0.003671754              -0.000000000              -0.000233726               0.001301814               0.001068088               0.000000000               0.000000000               0.000000000               0.000000000               0.000514221               0.003631902              -0.000000000              -0.000261154               0.001297673               0.001036519               0.000000000               0.000000000               0.000000000               0.000000000               0.000431232               0.003607588              -0.000000000              -0.000289236               0.001298929               0.001009694               0.000000000               0.000000000               0.000000000               0.000000000               0.000349871               0.003591766              -0.000000000              -0.000317768               0.001303166               0.000985398               0.000000000               0.000000000               0.000000000               0.000000000               0.000269688               0.003581277              -0.000000000              -0.000346526               0.001309256               0.000962730               0.000000000               0.000000000               0.000000000               0.000000000               0.000196030               0.003573192              -0.000000000              -0.000373137               0.001315431               0.000942294               0.000000000               0.000000000               0.000000000               0.000000000               0.000126334               0.003564450              -0.000000000              -0.000398180               0.001320865               0.000922685               0.000000000               0.000000000               0.000000000               0.000000000               0.000060581               0.003549630               0.000000000              -0.000420985               0.001323527               0.000902542               0.000000000               0.000000000               0.000000000               0.000000000               0.000029585               0.003538624               0.000000000              -0.000431232               0.001323274               0.000892041               0.000000000               0.000000000               0.000000000               0.000000000               0.000662418               0.007226917              -0.000549305              -0.000654956               0.002627267               0.001972311               0.000000000               0.000000000               0.000000000               0.000000000               0.000690246               0.005980691              -0.000344875              -0.000488743               0.002156458               0.001667715               0.000000000               0.000000000               0.000000000               0.000000000               0.000928011               0.004992357              -0.000134769              -0.000276040               0.001756116               0.001480076               0.000000000               0.000000000               0.000000000               0.000000000               0.000953432               0.004451643              -0.000038244              -0.000198918               0.001550172               0.001351254               0.000000000               0.000000000               0.000000000               0.000000000               0.000902262               0.004133022               0.000006031              -0.000178279               0.001437086               0.001258807               0.000000000               0.000000000               0.000000000               0.000000000               0.000822847               0.003932952               0.000026125              -0.000183051               0.001371988               0.001188937               0.000000000               0.000000000               0.000000000               0.000000000               0.000737072               0.003805301               0.000036490              -0.000199260               0.001334841               0.001135581               0.000000000               0.000000000               0.000000000               0.000000000               0.000653610               0.003724048               0.000039702              -0.000220402               0.001314804               0.001094402               0.000000000               0.000000000               0.000000000               0.000000000               0.000570201               0.003667815               0.000038443              -0.000244651               0.001304143               0.001059492               0.000000000               0.000000000               0.000000000               0.000000000               0.000487758               0.003628782               0.000038680              -0.000270688               0.001299811               0.001029123               0.000000000               0.000000000               0.000000000               0.000000000               0.000408129               0.003604122               0.000039241              -0.000297466               0.001300517               0.001003051               0.000000000               0.000000000               0.000000000               0.000000000               0.000329243               0.003589733               0.000038184              -0.000325250               0.001304982               0.000979732               0.000000000               0.000000000               0.000000000               0.000000000               0.000252310               0.003580731               0.000035432              -0.000352974               0.001311223               0.000958249               0.000000000               0.000000000               0.000000000               0.000000000               0.000182106               0.003574891               0.000031117              -0.000378570               0.001317808               0.000939238               0.000000000               0.000000000               0.000000000               0.000000000               0.000116705               0.003568326               0.000025000              -0.000402275               0.001323522               0.000921246               0.000000000               0.000000000               0.000000000               0.000000000               0.000055639               0.003559309               0.000014872              -0.000424048               0.001327774               0.000903726               0.000000000               0.000000000               0.000000000               0.000000000               0.000027144               0.003553789               0.000008451              -0.000434043               0.001329266               0.000895222               0.000000000               0.000000000               0.000000000               0.000000000               0.000770285               0.006855332              -0.001036958              -0.000568059               0.002474441               0.001906382               0.000000000               0.000000000               0.000000000               0.000000000               0.000718253               0.005720711              -0.000653831              -0.000445743               0.002055466               0.001609723               0.000000000               0.000000000               0.000000000               0.000000000               0.000869232               0.004853817              -0.000263444              -0.000280764               0.001711511               0.001430747               0.000000000               0.000000000               0.000000000               0.000000000               0.000856272               0.004374841              -0.000087437              -0.000225753               0.001533517               0.001307764               0.000000000               0.000000000               0.000000000               0.000000000               0.000794653               0.004091515              -0.000006481              -0.000213444               0.001434973               0.001221529               0.000000000               0.000000000               0.000000000               0.000000000               0.000717811               0.003911555               0.000031410              -0.000219765               0.001377093               0.001157329               0.000000000               0.000000000               0.000000000               0.000000000               0.000636908               0.003792578               0.000051887              -0.000235231               0.001342591               0.001107359               0.000000000               0.000000000               0.000000000               0.000000000               0.000561176               0.003713905               0.000059264              -0.000253796               0.001322555               0.001068758               0.000000000               0.000000000               0.000000000               0.000000000               0.000489148               0.003660773               0.000057943              -0.000274166               0.001311634               0.001037469               0.000000000               0.000000000               0.000000000               0.000000000               0.000417691               0.003624039               0.000057430              -0.000296370               0.001306791               0.001010421               0.000000000               0.000000000               0.000000000               0.000000000               0.000347941               0.003601488               0.000058300              -0.000319708               0.001307053               0.000987346               0.000000000               0.000000000               0.000000000               0.000000000               0.000279158               0.003589851               0.000056673              -0.000344046               0.001311287               0.000967241               0.000000000               0.000000000               0.000000000               0.000000000               0.000213132               0.003583562               0.000051627              -0.000368020               0.001317182               0.000949162               0.000000000               0.000000000               0.000000000               0.000000000               0.000153899               0.003580853               0.000043728              -0.000389893               0.001323570               0.000933677               0.000000000               0.000000000               0.000000000               0.000000000               0.000099588               0.003580627               0.000034274              -0.000410232               0.001330274               0.000920042               0.000000000               0.000000000               0.000000000               0.000000000               0.000047812               0.003585286               0.000020329              -0.000430230               0.001338493               0.000908263               0.000000000               0.000000000               0.000000000               0.000000000               0.000025801               0.003595455               0.000009786              -0.000439755               0.001345058               0.000905303               0.000000000               0.000000000               0.000000000               0.000000000               0.000909795               0.006289850              -0.001416002              -0.000445058               0.002244948               0.001799890               0.000000000               0.000000000               0.000000000               0.000000000               0.000746592               0.005333035              -0.000901168              -0.000386657               0.001906546               0.001519889               0.000000000               0.000000000               0.000000000               0.000000000               0.000776831               0.004648423              -0.000380200              -0.000289741               0.001646039               0.001356298               0.000000000               0.000000000               0.000000000               0.000000000               0.000720228               0.004261347              -0.000149868              -0.000262582               0.001507962               0.001245380               0.000000000               0.000000000               0.000000000               0.000000000               0.000650242               0.004026892              -0.000042675              -0.000259520               0.001428791               0.001169270               0.000000000               0.000000000               0.000000000               0.000000000               0.000579029               0.003873905               0.000007225              -0.000267102               0.001380323               0.001113221               0.000000000               0.000000000               0.000000000               0.000000000               0.000509070               0.003769837               0.000033679              -0.000280328               0.001350042               0.001069715               0.000000000               0.000000000               0.000000000               0.000000000               0.000444451               0.003699368               0.000044949              -0.000295751               0.001331694               0.001035943               0.000000000               0.000000000               0.000000000               0.000000000               0.000383888               0.003652465               0.000044077              -0.000312599               0.001321676               0.001009077               0.000000000               0.000000000               0.000000000               0.000000000               0.000325740               0.003619975               0.000043529              -0.000330344               0.001316761               0.000986417               0.000000000               0.000000000               0.000000000               0.000000000               0.000270640               0.003599760               0.000045909              -0.000348479               0.001316068               0.000967589               0.000000000               0.000000000               0.000000000               0.000000000               0.000218583               0.003588875               0.000045560              -0.000366640               0.001318493               0.000951853               0.000000000               0.000000000               0.000000000               0.000000000               0.000169948               0.003585976               0.000039916              -0.000384516               0.001323485               0.000938970               0.000000000               0.000000000               0.000000000               0.000000000               0.000125336               0.003589184               0.000031117              -0.000401646               0.001330265               0.000928619               0.000000000               0.000000000               0.000000000               0.000000000               0.000083892               0.003601101               0.000022287              -0.000418677               0.001339914               0.000921237               0.000000000               0.000000000               0.000000000               0.000000000               0.000041740               0.003624395               0.000012809              -0.000437396               0.001353918               0.000916523               0.000000000               0.000000000               0.000000000               0.000000000               0.000027187               0.003652736               0.000003840              -0.000446396               0.001366365               0.000919969               0.000000000               0.000000000               0.000000000               0.000000000               0.001048254               0.005590514              -0.001665861              -0.000305720               0.001965392               0.001659672               0.000000000               0.000000000               0.000000000               0.000000000               0.000765565               0.004862978              -0.001077333              -0.000320785               0.001727905               0.001407119               0.000000000               0.000000000               0.000000000               0.000000000               0.000667340               0.004402138              -0.000482974              -0.000300014               0.001567369               0.001267355               0.000000000               0.000000000               0.000000000               0.000000000               0.000574295               0.004123311              -0.000226050              -0.000300053               0.001474441               0.001174388               0.000000000               0.000000000               0.000000000               0.000000000               0.000501115               0.003940505              -0.000105735              -0.000304644               0.001415037               0.001110392               0.000000000               0.000000000               0.000000000               0.000000000               0.000439007               0.003814098              -0.000048471              -0.000312134               0.001375398               0.001063264               0.000000000               0.000000000               0.000000000               0.000000000               0.000380916               0.003727305              -0.000017544              -0.000323069               0.001350112               0.001027043               0.000000000               0.000000000               0.000000000               0.000000000               0.000329880               0.003668286              -0.000000947              -0.000334830               0.001334360               0.000999530               0.000000000               0.000000000               0.000000000               0.000000000               0.000283164               0.003631976               0.000002509              -0.000347809               0.001326583               0.000978773               0.000000000               0.000000000               0.000000000               0.000000000               0.000238888               0.003609128               0.000002879              -0.000361557               0.001323550               0.000961993               0.000000000               0.000000000               0.000000000               0.000000000               0.000199775               0.003593491               0.000006973              -0.000374270               0.001322575               0.000948305               0.000000000               0.000000000               0.000000000               0.000000000               0.000167315               0.003587151               0.000009921              -0.000385650               0.001324255               0.000938605               0.000000000               0.000000000               0.000000000               0.000000000               0.000137100               0.003589762               0.000007015              -0.000397307               0.001329011               0.000931704               0.000000000               0.000000000               0.000000000               0.000000000               0.000106722               0.003602353               0.000000045              -0.000410272               0.001337530               0.000927257               0.000000000               0.000000000               0.000000000               0.000000000               0.000073957               0.003625298              -0.000005116              -0.000425427               0.001350230               0.000924802               0.000000000               0.000000000               0.000000000               0.000000000               0.000037792               0.003659667              -0.000005385              -0.000443285               0.001367638               0.000924353               0.000000000               0.000000000               0.000000000               0.000000000               0.000027501               0.003694146              -0.000008827              -0.000451454               0.001381854               0.000930400               0.000000000               0.000000000               0.000000000               0.000000000               0.001160075               0.004831437              -0.001779988              -0.000168903               0.001666763               0.001497860               0.000000000               0.000000000               0.000000000               0.000000000               0.000769666               0.004358517              -0.001180954              -0.000256190               0.001538221               0.001282031               0.000000000               0.000000000               0.000000000               0.000000000               0.000554330               0.004137542              -0.000574907              -0.000309318               0.001482273               0.001172955               0.000000000               0.000000000               0.000000000               0.000000000               0.000441079               0.003961774              -0.000315241              -0.000329816               0.001430517               0.001100701               0.000000000               0.000000000               0.000000000               0.000000000               0.000372934               0.003829011              -0.000190825              -0.000338776               0.001389249               0.001050474               0.000000000               0.000000000               0.000000000               0.000000000               0.000323970               0.003732787              -0.000126937              -0.000345109               0.001359286               0.001014177               0.000000000               0.000000000               0.000000000               0.000000000               0.000281043               0.003667080              -0.000088421              -0.000352993               0.001340012               0.000987019               0.000000000               0.000000000               0.000000000               0.000000000               0.000243885               0.003623890              -0.000063160              -0.000361528               0.001328461               0.000966932               0.000000000               0.000000000               0.000000000               0.000000000               0.000210186               0.003600923              -0.000052362              -0.000371295               0.001324061               0.000952766               0.000000000               0.000000000               0.000000000               0.000000000               0.000180056               0.003590187              -0.000052351              -0.000381251               0.001323801               0.000942549               0.000000000               0.000000000               0.000000000               0.000000000               0.000154403               0.003581987              -0.000048628              -0.000389846               0.001323933               0.000934086               0.000000000               0.000000000               0.000000000               0.000000000               0.000135335               0.003580560              -0.000043160              -0.000396819               0.001325781               0.000928962               0.000000000               0.000000000               0.000000000               0.000000000               0.000114932               0.003585732              -0.000041573              -0.000405116               0.001330271               0.000925155               0.000000000               0.000000000               0.000000000               0.000000000               0.000090419               0.003600112              -0.000041804              -0.000416106               0.001338727               0.000922621               0.000000000               0.000000000               0.000000000               0.000000000               0.000062259               0.003621870              -0.000038401              -0.000429386               0.001350406               0.000921021               0.000000000               0.000000000               0.000000000               0.000000000               0.000031701               0.003644934              -0.000024830              -0.000443728               0.001362875               0.000919147               0.000000000               0.000000000               0.000000000               0.000000000               0.000019959               0.003661386              -0.000016794              -0.000450188               0.001370512               0.000920325               0.000000000               0.000000000               0.000000000               0.000000000               0.001220238               0.004072134              -0.001775558              -0.000051430               0.001374507               0.001323077               0.000000000               0.000000000               0.000000000               0.000000000               0.000758977               0.003857120              -0.001223897              -0.000197524               0.001351535               0.001154011               0.000000000               0.000000000               0.000000000               0.000000000               0.000453249               0.003866649              -0.000658483              -0.000313362               0.001393324               0.001079962               0.000000000               0.000000000               0.000000000               0.000000000               0.000333779               0.003786136              -0.000410658              -0.000348099               0.001378066               0.001029966               0.000000000               0.000000000               0.000000000               0.000000000               0.000280200               0.003702355              -0.000282098              -0.000357719               0.001353346               0.000995627               0.000000000               0.000000000               0.000000000               0.000000000               0.000247841               0.003640839              -0.000208010              -0.000362163               0.001334322               0.000972158               0.000000000               0.000000000               0.000000000               0.000000000               0.000219804               0.003602440              -0.000161713              -0.000367878               0.001323427               0.000955550               0.000000000               0.000000000               0.000000000               0.000000000               0.000194652               0.003580805              -0.000131989              -0.000374605               0.001318458               0.000943853               0.000000000               0.000000000               0.000000000               0.000000000               0.000169067               0.003569778              -0.000115752              -0.000382821               0.001317521               0.000934700               0.000000000               0.000000000               0.000000000               0.000000000               0.000148565               0.003564924              -0.000113567              -0.000389903               0.001318264               0.000928361               0.000000000               0.000000000               0.000000000               0.000000000               0.000131021               0.003560108              -0.000108665              -0.000395880               0.001318651               0.000922771               0.000000000               0.000000000               0.000000000               0.000000000               0.000112754               0.003557164              -0.000096322              -0.000402362               0.001319830               0.000917468               0.000000000               0.000000000               0.000000000               0.000000000               0.000092068               0.003559770              -0.000083258              -0.000410445               0.001323393               0.000912948               0.000000000               0.000000000               0.000000000               0.000000000               0.000067117               0.003567093              -0.000068050              -0.000420717               0.001329258               0.000908541               0.000000000               0.000000000               0.000000000               0.000000000               0.000039968               0.003574166              -0.000049294              -0.000431782               0.001335304               0.000903522               0.000000000               0.000000000               0.000000000               0.000000000               0.000017238               0.003572981              -0.000025682              -0.000440157               0.001337701               0.000897543               0.000000000               0.000000000               0.000000000               0.000000000               0.000004044               0.003561432              -0.000009642              -0.000443662               0.001335019               0.000891358               0.000000000               0.000000000               0.000000000               0.000000000               0.001224940               0.003352375              -0.001675975               0.000040303               0.001104012               0.001144315               0.000000000               0.000000000               0.000000000               0.000000000               0.000732265               0.003390149              -0.001219864              -0.000149170               0.001179761               0.001030591               0.000000000               0.000000000               0.000000000               0.000000000               0.000378218               0.003601658              -0.000733214              -0.000308375               0.001303332               0.000994957               0.000000000               0.000000000               0.000000000               0.000000000               0.000265794               0.003602798              -0.000500338              -0.000350676               0.001317813               0.000967136               0.000000000               0.000000000               0.000000000               0.000000000               0.000227297               0.003568750              -0.000364757              -0.000360857               0.001309857               0.000949000               0.000000000               0.000000000               0.000000000               0.000000000               0.000210981               0.003546870              -0.000280633              -0.000364240               0.001303692               0.000939451               0.000000000               0.000000000               0.000000000               0.000000000               0.000192088               0.003537284              -0.000229103              -0.000370127               0.001302458               0.000932332               0.000000000               0.000000000               0.000000000               0.000000000               0.000172492               0.003536684              -0.000196944              -0.000377400               0.001304683               0.000927283               0.000000000               0.000000000               0.000000000               0.000000000               0.000153941               0.003533852              -0.000174165              -0.000384003               0.001305940               0.000921937               0.000000000               0.000000000               0.000000000               0.000000000               0.000134349               0.003526455              -0.000161175              -0.000390425               0.001305615               0.000915190               0.000000000               0.000000000               0.000000000               0.000000000               0.000111798               0.003519075              -0.000146644              -0.000397959               0.001305666               0.000907707               0.000000000               0.000000000               0.000000000               0.000000000               0.000084301               0.003512146              -0.000121295              -0.000407404               0.001306505               0.000899101               0.000000000               0.000000000               0.000000000               0.000000000               0.000055522               0.003506416              -0.000091109              -0.000417480               0.001307954               0.000890473               0.000000000               0.000000000               0.000000000               0.000000000               0.000027749               0.003499142              -0.000059854              -0.000426986               0.001308698               0.000881712               0.000000000               0.000000000               0.000000000               0.000000000               0.000005137               0.003485284              -0.000030076              -0.000433733               0.001306328               0.000872594               0.000000000               0.000000000               0.000000000               0.000000000              -0.000005917               0.003460581              -0.000008464              -0.000434790               0.001298445               0.000863655               0.000000000               0.000000000               0.000000000               0.000000000              -0.000011860               0.003435682               0.000002210              -0.000433907               0.001289851               0.000855945               0.000000000               0.000000000               0.000000000               0.000000000               0.001202510               0.002724559              -0.001510657               0.000110369               0.000871387               0.000981756               0.000000000               0.000000000               0.000000000               0.000000000               0.000717684               0.002974899              -0.001192032              -0.000102732               0.001025867               0.000923135               0.000000000               0.000000000               0.000000000               0.000000000               0.000347235               0.003358930              -0.000816946              -0.000289653               0.001216183               0.000926530               0.000000000               0.000000000               0.000000000               0.000000000               0.000246687               0.003440835              -0.000594341              -0.000337596               0.001259465               0.000921869               0.000000000               0.000000000               0.000000000               0.000000000               0.000217211               0.003460201              -0.000450115              -0.000351070               0.001270412               0.000919342               0.000000000               0.000000000               0.000000000               0.000000000               0.000206717               0.003473686              -0.000356711              -0.000356691               0.001276781               0.000920090               0.000000000               0.000000000               0.000000000               0.000000000               0.000193987               0.003489124              -0.000296815              -0.000363395               0.001284161               0.000920767               0.000000000               0.000000000               0.000000000               0.000000000               0.000177005               0.003502624              -0.000256713              -0.000371450               0.001291346               0.000919896               0.000000000               0.000000000               0.000000000               0.000000000               0.000159769               0.003504478              -0.000225006              -0.000378145               0.001294196               0.000916051               0.000000000               0.000000000               0.000000000               0.000000000               0.000139016               0.003493190              -0.000197374              -0.000384517               0.001292557               0.000908041               0.000000000               0.000000000               0.000000000               0.000000000               0.000112009               0.003481106              -0.000169716              -0.000393134               0.001291402               0.000898268               0.000000000               0.000000000               0.000000000               0.000000000               0.000076187               0.003469377              -0.000133703              -0.000405101               0.001291481               0.000886380               0.000000000               0.000000000               0.000000000               0.000000000               0.000036226               0.003454623              -0.000092044              -0.000418242               0.001290944               0.000872701               0.000000000               0.000000000               0.000000000               0.000000000              -0.000004866               0.003433441              -0.000052037              -0.000431004               0.001288137               0.000857133               0.000000000               0.000000000               0.000000000               0.000000000              -0.000038902               0.003401467              -0.000020444              -0.000439770               0.001280401               0.000840631               0.000000000               0.000000000               0.000000000               0.000000000              -0.000057635               0.003357446              -0.000001267              -0.000441293               0.001266235               0.000824943               0.000000000               0.000000000               0.000000000               0.000000000              -0.000061636               0.003328298               0.000005666              -0.000439150               0.001255805               0.000816655               0.000000000               0.000000000               0.000000000               0.000000000               0.001136393               0.002122821              -0.001315371               0.000160792               0.000654002               0.000814794               0.000000000               0.000000000               0.000000000               0.000000000               0.000725710               0.002497431              -0.001153845              -0.000040039               0.000845815               0.000805775               0.000000000               0.000000000               0.000000000               0.000000000               0.000372236               0.003007669              -0.000914435              -0.000236370               0.001081336               0.000844966               0.000000000               0.000000000               0.000000000               0.000000000               0.000271555               0.003189522              -0.000710479              -0.000296857               0.001162115               0.000865259               0.000000000               0.000000000               0.000000000               0.000000000               0.000242406               0.003274296              -0.000561443              -0.000318384               0.001197549               0.000879165               0.000000000               0.000000000               0.000000000               0.000000000               0.000232563               0.003330959              -0.000455474              -0.000329158               0.001220028               0.000890870               0.000000000               0.000000000               0.000000000               0.000000000               0.000223934               0.003380621              -0.000381246              -0.000338602               0.001239730               0.000901128               0.000000000               0.000000000               0.000000000               0.000000000               0.000210233               0.003420446              -0.000327670              -0.000348718               0.001256377               0.000907659               0.000000000               0.000000000               0.000000000               0.000000000               0.000190168               0.003439586              -0.000283703              -0.000358635               0.001266062               0.000907427               0.000000000               0.000000000               0.000000000               0.000000000               0.000164289               0.003435164              -0.000243874              -0.000367786               0.001267639               0.000899852               0.000000000               0.000000000               0.000000000               0.000000000               0.000131882               0.003417935              -0.000204732              -0.000377785               0.001265229               0.000887443               0.000000000               0.000000000               0.000000000               0.000000000               0.000089986               0.003394302              -0.000161601              -0.000390542               0.001261603               0.000871061               0.000000000               0.000000000               0.000000000               0.000000000               0.000042557               0.003373771              -0.000114635              -0.000405761               0.001259833               0.000854072               0.000000000               0.000000000               0.000000000               0.000000000              -0.000009100               0.003355010              -0.000069402              -0.000422788               0.001259255               0.000836467               0.000000000               0.000000000               0.000000000               0.000000000              -0.000059974               0.003332573              -0.000034129              -0.000439061               0.001257200               0.000818139               0.000000000               0.000000000               0.000000000               0.000000000              -0.000104292               0.003298913              -0.000010661              -0.000451473               0.001250118               0.000798645               0.000000000               0.000000000               0.000000000               0.000000000              -0.000128211               0.003272353               0.000000418              -0.000457122               0.001243147               0.000786025               0.000000000               0.000000000               0.000000000               0.000000000               0.000996730               0.001568196              -0.001094270               0.000177747               0.000463477               0.000641224               0.000000000               0.000000000               0.000000000               0.000000000               0.000723705               0.002023705              -0.001083741               0.000018424               0.000668419               0.000686844               0.000000000               0.000000000               0.000000000               0.000000000               0.000430191               0.002613954              -0.000985320              -0.000165423               0.000926450               0.000761027               0.000000000               0.000000000               0.000000000               0.000000000               0.000331065               0.002890148              -0.000820114              -0.000237119               0.001042413               0.000805293               0.000000000               0.000000000               0.000000000               0.000000000               0.000293059               0.003044498              -0.000675448              -0.000270665               0.001105044               0.000834379               0.000000000               0.000000000               0.000000000               0.000000000               0.000277359               0.003151925              -0.000563403              -0.000289981               0.001147291               0.000857311               0.000000000               0.000000000               0.000000000               0.000000000               0.000271136               0.003244548              -0.000478253              -0.000303892               0.001182802               0.000878910               0.000000000               0.000000000               0.000000000               0.000000000               0.000257828               0.003318591              -0.000410381              -0.000318138               0.001212232               0.000894094               0.000000000               0.000000000               0.000000000               0.000000000               0.000232640               0.003360777              -0.000353444              -0.000332856               0.001231200               0.000898343               0.000000000               0.000000000               0.000000000               0.000000000               0.000202374               0.003374608              -0.000304329              -0.000345935               0.001240170               0.000894235               0.000000000               0.000000000               0.000000000               0.000000000               0.000170878               0.003368246              -0.000258028              -0.000356951               0.001241721               0.000884770               0.000000000               0.000000000               0.000000000               0.000000000               0.000135205               0.003349299              -0.000211509              -0.000367960               0.001239075               0.000871115               0.000000000               0.000000000               0.000000000               0.000000000               0.000089040               0.003327760              -0.000160674              -0.000382579               0.001236769               0.000854189               0.000000000               0.000000000               0.000000000               0.000000000               0.000033172               0.003310090              -0.000109708              -0.000401321               0.001237126               0.000835805               0.000000000               0.000000000               0.000000000               0.000000000              -0.000031169               0.003293702              -0.000065892              -0.000423400               0.001239023               0.000815623               0.000000000               0.000000000               0.000000000               0.000000000              -0.000102037               0.003276221              -0.000028855              -0.000447790               0.001241326               0.000793536               0.000000000               0.000000000               0.000000000               0.000000000              -0.000153457               0.003256616              -0.000005644              -0.000464622               0.001240402               0.000775780               0.000000000               0.000000000               0.000000000               0.000000000               0.000793039               0.001083475              -0.000853598               0.000161953               0.000307170               0.000469123               0.000000000               0.000000000               0.000000000               0.000000000               0.000688609               0.001568503              -0.000964560               0.000062164               0.000502107               0.000564271               0.000000000               0.000000000               0.000000000               0.000000000               0.000499751               0.002181540              -0.000989937              -0.000085287               0.000755601               0.000670314               0.000000000               0.000000000               0.000000000               0.000000000               0.000418952               0.002531423              -0.000877891              -0.000159321               0.000896906               0.000737585               0.000000000               0.000000000               0.000000000               0.000000000               0.000379307               0.002754714              -0.000753021              -0.000202099               0.000985595               0.000783496               0.000000000               0.000000000               0.000000000               0.000000000               0.000355373               0.002919322              -0.000648161              -0.000231650               0.001050314               0.000818664               0.000000000               0.000000000               0.000000000               0.000000000               0.000342396               0.003058211              -0.000560191              -0.000253878               0.001104019               0.000850142               0.000000000               0.000000000               0.000000000               0.000000000               0.000322610               0.003167927              -0.000481830              -0.000275012               0.001147636               0.000872624               0.000000000               0.000000000               0.000000000               0.000000000               0.000290790               0.003243540              -0.000415183              -0.000296396               0.001179968               0.000883572               0.000000000               0.000000000               0.000000000               0.000000000               0.000254815               0.003286500              -0.000362101              -0.000315256               0.001200574               0.000885318               0.000000000               0.000000000               0.000000000               0.000000000               0.000220912               0.003303674              -0.000315320              -0.000330116               0.001211252               0.000881136               0.000000000               0.000000000               0.000000000               0.000000000               0.000187663               0.003304247              -0.000264657              -0.000342657               0.001215624               0.000872967               0.000000000               0.000000000               0.000000000               0.000000000               0.000147494               0.003293179              -0.000207952              -0.000356336               0.001216494               0.000860158               0.000000000               0.000000000               0.000000000               0.000000000               0.000097261               0.003279227              -0.000152514              -0.000373430               0.001217541               0.000844112               0.000000000               0.000000000               0.000000000               0.000000000               0.000032988               0.003267389              -0.000099740              -0.000396052               0.001221136               0.000825084               0.000000000               0.000000000               0.000000000               0.000000000              -0.000046698               0.003262986              -0.000047487              -0.000425384               0.001229446               0.000804062               0.000000000               0.000000000               0.000000000               0.000000000              -0.000111023               0.003248726              -0.000013774              -0.000447723               0.001232139               0.000784416               0.000000000               0.000000000               0.000000000               0.000000000               0.000542578               0.000691831              -0.000615953               0.000116986               0.000191612               0.000308598               0.000000000               0.000000000               0.000000000               0.000000000               0.000622922               0.001156850              -0.000805912               0.000088988               0.000355950               0.000444938               0.000000000               0.000000000               0.000000000               0.000000000               0.000574518               0.001748482              -0.000922323              -0.000003117               0.000583860               0.000580743               0.000000000               0.000000000               0.000000000               0.000000000               0.000531955               0.002144366              -0.000866459              -0.000068564               0.000737636               0.000669072               0.000000000               0.000000000               0.000000000               0.000000000               0.000499746               0.002424609              -0.000772476              -0.000115672               0.000846752               0.000731080               0.000000000               0.000000000               0.000000000               0.000000000               0.000468882               0.002642825              -0.000680755              -0.000154523               0.000932440               0.000777918               0.000000000               0.000000000               0.000000000               0.000000000               0.000437652               0.002825606              -0.000596924              -0.000189081               0.001004886               0.000815805               0.000000000               0.000000000               0.000000000               0.000000000               0.000407527               0.002973437              -0.000519321              -0.000218857               0.001064088               0.000845231               0.000000000               0.000000000               0.000000000               0.000000000               0.000373836               0.003086451              -0.000453395              -0.000245617               0.001110679               0.000865062               0.000000000               0.000000000               0.000000000               0.000000000               0.000332914               0.003167417              -0.000400034              -0.000271084               0.001146156               0.000875073               0.000000000               0.000000000               0.000000000               0.000000000               0.000289274               0.003221051              -0.000354105              -0.000294153               0.001171724               0.000877571               0.000000000               0.000000000               0.000000000               0.000000000               0.000250313               0.003248037              -0.000306702              -0.000312137               0.001186714               0.000874577               0.000000000               0.000000000               0.000000000               0.000000000               0.000216882               0.003256725              -0.000252931              -0.000325759               0.001194151               0.000868392               0.000000000               0.000000000               0.000000000               0.000000000               0.000179065               0.003259030              -0.000194205              -0.000340228               0.001199742               0.000859513               0.000000000               0.000000000               0.000000000               0.000000000               0.000125987               0.003258167              -0.000131874              -0.000360025               0.001206053               0.000846028               0.000000000               0.000000000               0.000000000               0.000000000               0.000055525               0.003259074              -0.000066511              -0.000386561               0.001215201               0.000828640               0.000000000               0.000000000               0.000000000               0.000000000              -0.000004285               0.003248218              -0.000026882              -0.000407633               0.001218606               0.000810973               0.000000000               0.000000000               0.000000000               0.000000000               0.000275746               0.000404377              -0.000403983               0.000052857               0.000117172               0.000170028               0.000000000               0.000000000               0.000000000               0.000000000               0.000537930               0.000814403              -0.000619231               0.000099922               0.000238157               0.000338079               0.000000000               0.000000000               0.000000000               0.000000000               0.000642036               0.001349701              -0.000779652               0.000072049               0.000425879               0.000497929               0.000000000               0.000000000               0.000000000               0.000000000               0.000653663               0.001766465              -0.000768832               0.000024314               0.000580711               0.000605025               0.000000000               0.000000000               0.000000000               0.000000000               0.000631295               0.002083341              -0.000707692              -0.000023683               0.000702334               0.000678651               0.000000000               0.000000000               0.000000000               0.000000000               0.000595306               0.002342755              -0.000634300              -0.000069605               0.000804112               0.000734507               0.000000000               0.000000000               0.000000000               0.000000000               0.000552929               0.002565729              -0.000562798              -0.000113368               0.000893024               0.000779656               0.000000000               0.000000000               0.000000000               0.000000000               0.000514978               0.002748367              -0.000498334              -0.000150429               0.000966256               0.000815827               0.000000000               0.000000000               0.000000000               0.000000000               0.000479555               0.002897314              -0.000440047              -0.000182331               0.001026539               0.000844208               0.000000000               0.000000000               0.000000000               0.000000000               0.000436599               0.003020363              -0.000389326              -0.000213821               0.001078051               0.000864231               0.000000000               0.000000000               0.000000000               0.000000000               0.000390314               0.003113464              -0.000350418              -0.000242815               0.001118749               0.000875934               0.000000000               0.000000000               0.000000000               0.000000000               0.000350543               0.003173083              -0.000314981              -0.000265181               0.001146077               0.000880896               0.000000000               0.000000000               0.000000000               0.000000000               0.000318262               0.003209540              -0.000269065              -0.000281844               0.001163784               0.000881940               0.000000000               0.000000000               0.000000000               0.000000000               0.000285833               0.003233026              -0.000210302              -0.000296940               0.001176645               0.000879704               0.000000000               0.000000000               0.000000000               0.000000000               0.000247495               0.003245982              -0.000145151              -0.000312936               0.001186295               0.000873359               0.000000000               0.000000000               0.000000000               0.000000000               0.000202239               0.003254210              -0.000075561              -0.000330936               0.001195038               0.000864102               0.000000000               0.000000000               0.000000000               0.000000000               0.000164661               0.003251191              -0.000035799              -0.000344650               0.001198603               0.000853953               0.000000000               0.000000000               0.000000000               0.000000000               0.000034394               0.000210624              -0.000234464              -0.000013430               0.000074684               0.000061253               0.000000000               0.000000000               0.000000000               0.000000000               0.000453305               0.000556473              -0.000417712               0.000100429               0.000152013               0.000252442               0.000000000               0.000000000               0.000000000               0.000000000               0.000694369               0.001024931              -0.000567198               0.000132270               0.000297550               0.000429820               0.000000000               0.000000000               0.000000000               0.000000000               0.000759979               0.001441603              -0.000580789               0.000104790               0.000445599               0.000550390               0.000000000               0.000000000               0.000000000               0.000000000               0.000752786               0.001778463              -0.000545623               0.000059986               0.000572820               0.000632805               0.000000000               0.000000000               0.000000000               0.000000000               0.000716077               0.002061887              -0.000494465               0.000010792               0.000683691               0.000694484               0.000000000               0.000000000               0.000000000               0.000000000               0.000672808               0.002309919              -0.000444326              -0.000036437               0.000782111               0.000745674               0.000000000               0.000000000               0.000000000               0.000000000               0.000632411               0.002525580              -0.000399205              -0.000078543               0.000868033               0.000789489               0.000000000               0.000000000               0.000000000               0.000000000               0.000592576               0.002712088              -0.000353205              -0.000116795               0.000942952               0.000826157               0.000000000               0.000000000               0.000000000               0.000000000               0.000550661               0.002866230              -0.000313164              -0.000151781               0.001005994               0.000854213               0.000000000               0.000000000               0.000000000               0.000000000               0.000507895               0.002986841              -0.000287392              -0.000182894               0.001056569               0.000873674               0.000000000               0.000000000               0.000000000               0.000000000               0.000466404               0.003079476              -0.000264618              -0.000210033               0.001096493               0.000886460               0.000000000               0.000000000               0.000000000               0.000000000               0.000429891               0.003148424              -0.000228365              -0.000232343               0.001126912               0.000894568               0.000000000               0.000000000               0.000000000               0.000000000               0.000401161               0.003195718              -0.000178744              -0.000249029               0.001148238               0.000899210               0.000000000               0.000000000               0.000000000               0.000000000               0.000379892               0.003225616              -0.000123949              -0.000260742               0.001162108               0.000901367               0.000000000               0.000000000               0.000000000               0.000000000               0.000366741               0.003246993              -0.000064449              -0.000268345               0.001171769               0.000903423               0.000000000               0.000000000               0.000000000               0.000000000               0.000361420               0.003255190              -0.000032008              -0.000271366               0.001175508               0.000904142               0.000000000               0.000000000               0.000000000               0.000000000              -0.000132950               0.000103929              -0.000104463              -0.000062848               0.000055592              -0.000007256               0.000000000               0.000000000               0.000000000               0.000000000               0.000389778               0.000398537              -0.000209596               0.000096348               0.000100728               0.000197077               0.000000000               0.000000000               0.000000000               0.000000000               0.000729770               0.000812671              -0.000299471               0.000172078               0.000213528               0.000385606               0.000000000               0.000000000               0.000000000               0.000000000               0.000831735               0.001218974              -0.000313568               0.000159527               0.000353145               0.000512672               0.000000000               0.000000000               0.000000000               0.000000000               0.000837013               0.001562881              -0.000297672               0.000118519               0.000481449               0.000599967               0.000000000               0.000000000               0.000000000               0.000000000               0.000807005               0.001854503              -0.000271778               0.000070813               0.000594557               0.000665370               0.000000000               0.000000000               0.000000000               0.000000000               0.000767072               0.002117656              -0.000246920               0.000022945               0.000698230               0.000721175               0.000000000               0.000000000               0.000000000               0.000000000               0.000722399               0.002358169              -0.000223322              -0.000023871               0.000794006               0.000770134               0.000000000               0.000000000               0.000000000               0.000000000               0.000677792               0.002569035              -0.000196326              -0.000066957               0.000878655               0.000811698               0.000000000               0.000000000               0.000000000               0.000000000               0.000637409               0.002744577              -0.000174679              -0.000104043               0.000949531               0.000845487               0.000000000               0.000000000               0.000000000               0.000000000               0.000594621               0.002885471              -0.000163245              -0.000137701               0.001007714               0.000870014               0.000000000               0.000000000               0.000000000               0.000000000               0.000547426               0.003000925              -0.000152118              -0.000169831               0.001056909               0.000887078               0.000000000               0.000000000               0.000000000               0.000000000               0.000505514               0.003094522              -0.000132441              -0.000197247               0.001097246               0.000899999               0.000000000               0.000000000               0.000000000               0.000000000               0.000480565               0.003164624              -0.000103853              -0.000215366               0.001126653               0.000911287               0.000000000               0.000000000               0.000000000               0.000000000               0.000476612               0.003212457              -0.000071137              -0.000222827               0.001145084               0.000922257               0.000000000               0.000000000               0.000000000               0.000000000               0.000494623               0.003242702              -0.000037198              -0.000219853               0.001154174               0.000934321               0.000000000               0.000000000               0.000000000               0.000000000               0.000518465               0.003256846              -0.000020022              -0.000212681               0.001156498               0.000943817               0.000000000               0.000000000               0.000000000               0.000000000               0.000000000               0.000000000               0.000000000               0.000000000               0.000000000               0.000000000               0.000000000               0.000000000               0.000000000               0.000000000               0.000000000               0.000000000               0.000000000               0.000000000               0.000000000               0.000000000               0.000000000               0.000000000               0.000000000               0.000000000               0.000000000               0.000000000               0.000000000               0.000000000               0.000000000               0.000000000               0.000000000               0.000000000               0.000000000               0.000000000               0.000000000               0.000000000               0.000000000               0.000000000               0.000000000               0.000000000               0.000000000               0.000000000               0.000000000               0.000000000               0.000000000               0.000000000               0.000000000               0.000000000               0.000000000               0.000000000               0.000000000               0.000000000               0.000000000               0.000000000               0.000000000               0.000000000               0.000000000               0.000000000               0.000000000               0.000000000               0.000000000               0.000000000               0.000000000               0.000000000               0.000000000               0.000000000               0.000000000               0.000000000               0.000000000               0.000000000               0.000000000               0.000000000               0.000000000               0.000000000               0.000000000               0.000000000               0.000000000               0.000000000               0.000000000               0.000000000               0.000000000               0.000000000               0.000000000               0.000000000               0.000000000               0.000000000               0.000000000               0.000000000               0.000000000               0.000000000               0.000000000               0.000000000               0.000000000               0.000000000               0.000000000               0.000000000               0.000000000               0.000000000               0.000000000               0.000000000               0.000000000               0.000000000               0.000000000               0.000000000               0.000000000               0.000000000               0.000000000               0.000000000               0.000000000               0.000000000               0.000000000               0.000000000               0.000000000               0.000000000               0.000000000               0.000000000               0.000000000               0.000000000               0.000000000               0.000000000               0.000000000               0.000000000               0.000000000               0.000000000               0.000000000               0.000000000               0.000000000               0.000000000               0.000000000               0.000000000               0.000000000               0.000000000               0.000000000               0.000000000               0.000000000               0.000000000               0.000000000               0.000000000               0.000000000               0.000000000               0.000000000               0.000000000               0.000000000               0.000000000               0.000000000               0.000000000               0.000000000               0.000000000               0.000000000               0.000000000               0.000000000               0.000000000               0.000000000               0.000000000               0.000000000               0.000000000               0.000000000               0.000000000               0.000000000               0.000000000               0.000000000               0.000000000               0.000000000               0.000000000               0.000000000               0.000000000               0.000000000               0.000000000               0.000000000               0.000000000               0.000000000               0.000000000               0.000000000               0.000000000               0.000000000               0.000000000               0.000000000               0.000000000               0.000000000               0.000000000               0.000000000               0.000000000               0.000000000               0.000000000               0.000000000               0.000000000               0.000000000               0.000000000               0.000000000               0.000000000               0.000000000               0.000000000               0.000000000               0.000000000               0.000000000               0.000000000               0.000000000               0.000000000               0.000000000               0.000000000               0.000000000               0.000000000               0.000000000               0.000000000               0.000000000               0.000000000               0.000000000               0.000000000               0.000000000               0.000000000               0.000000000               0.000000000               0.000000000               0.000000000               0.000000000               0.000000000               0.000000000               0.000000000               0.000000000               0.000000000               0.000000000               0.000000000               0.000000000               0.000000000               0.000000000               0.000000000               0.000000000               0.000000000               0.000000000               0.000000000               0.000000000               0.000000000               0.000000000               0.000000000               0.000000000               0.000000000               0.000000000               0.000000000               0.000000000               0.000000000               0.000000000               0.000000000               0.000000000               0.000000000               0.000000000               0.000000000               0.000000000               0.000000000               0.000000000               0.000000000               0.000000000               0.000000000               0.000000000               0.000000000               0.000000000               0.000000000               0.000000000               0.000000000               0.000000000               0.000000000               0.000000000               0.000000000               0.000000000               0.000000000               0.000000000               0.000000000               0.000000000               0.000000000               0.000000000               0.000000000               0.000000000               0.000000000               0.000000000               0.000000000               0.000000000               0.000000000               0.000000000               0.000000000               0.000000000               0.000000000               0.000000000               0.000000000               0.000000000               0.000000000               0.000000000               0.000000000               0.000000000               0.000000000               0.000000000               0.000000000               0.000000000               0.000000000               0.000000000               0.000000000               0.000000000               0.000000000               0.000000000               0.000000000               0.000000000               0.000000000               0.000000000               0.000000000               0.000000000               0.000000000               0.000000000               0.000000000               0.000000000               0.000000000               0.000000000               0.000000000               0.000000000               0.000000000               0.000000000               0.000000000               0.000000000               0.000000000               0.000000000               0.000000000               0.000000000               0.000000000               0.000000000               0.000000000               0.000000000               0.000000000               0.000000000               0.000000000               0.000000000               0.000000000               0.000000000               0.000000000               0.000000000               0.000000000               0.000000000               0.000000000               0.000000000               0.000000000               0.000000000               0.000000000               0.000000000               0.000000000               0.000000000               0.000000000               0.000000000               0.000000000               0.000662418               0.007226917               0.000549305              -0.000654956               0.002627267               0.001972311               0.000000000               0.000000000               0.000000000               0.000000000               0.000690246               0.005980691               0.000344875              -0.000488743               0.002156458               0.001667715               0.000000000               0.000000000               0.000000000               0.000000000               0.000928011               0.004992357               0.000134769              -0.000276040               0.001756116               0.001480076               0.000000000               0.000000000               0.000000000               0.000000000               0.000953432               0.004451643               0.000038244              -0.000198918               0.001550172               0.001351254               0.000000000               0.000000000               0.000000000               0.000000000               0.000902262               0.004133022              -0.000006031              -0.000178279               0.001437086               0.001258807               0.000000000               0.000000000               0.000000000               0.000000000               0.000822847               0.003932952              -0.000026125              -0.000183051               0.001371988               0.001188937               0.000000000               0.000000000               0.000000000               0.000000000               0.000737072               0.003805301              -0.000036490              -0.000199260               0.001334841               0.001135581               0.000000000               0.000000000               0.000000000               0.000000000               0.000653610               0.003724048              -0.000039702              -0.000220402               0.001314804               0.001094402               0.000000000               0.000000000               0.000000000               0.000000000               0.000570201               0.003667815              -0.000038443              -0.000244651               0.001304143               0.001059492               0.000000000               0.000000000               0.000000000               0.000000000               0.000487758               0.003628782              -0.000038680              -0.000270688               0.001299811               0.001029123               0.000000000               0.000000000               0.000000000               0.000000000               0.000408129               0.003604122              -0.000039241              -0.000297466               0.001300517               0.001003051               0.000000000               0.000000000               0.000000000               0.000000000               0.000329243               0.003589733              -0.000038184              -0.000325250               0.001304982               0.000979732               0.000000000               0.000000000               0.000000000               0.000000000               0.000252310               0.003580731              -0.000035432              -0.000352974               0.001311223               0.000958249               0.000000000               0.000000000               0.000000000               0.000000000               0.000182106               0.003574891              -0.000031117              -0.000378570               0.001317808               0.000939238               0.000000000               0.000000000               0.000000000               0.000000000               0.000116705               0.003568326              -0.000025000              -0.000402275               0.001323522               0.000921246               0.000000000               0.000000000               0.000000000               0.000000000               0.000055639               0.003559309              -0.000014872              -0.000424048               0.001327774               0.000903726               0.000000000               0.000000000               0.000000000               0.000000000               0.000027144               0.003553789              -0.000008451              -0.000434043               0.001329266               0.000895222               0.000000000               0.000000000               0.000000000               0.000000000               0.000770285               0.006855332               0.001036958              -0.000568059               0.002474441               0.001906382               0.000000000               0.000000000               0.000000000               0.000000000               0.000718253               0.005720711               0.000653831              -0.000445743               0.002055466               0.001609723               0.000000000               0.000000000               0.000000000               0.000000000               0.000869232               0.004853817               0.000263444              -0.000280764               0.001711511               0.001430747               0.000000000               0.000000000               0.000000000               0.000000000               0.000856272               0.004374841               0.000087437              -0.000225753               0.001533517               0.001307764               0.000000000               0.000000000               0.000000000               0.000000000               0.000794653               0.004091515               0.000006481              -0.000213444               0.001434973               0.001221529               0.000000000               0.000000000               0.000000000               0.000000000               0.000717811               0.003911555              -0.000031410              -0.000219765               0.001377093               0.001157329               0.000000000               0.000000000               0.000000000               0.000000000               0.000636908               0.003792578              -0.000051887              -0.000235231               0.001342591               0.001107359               0.000000000               0.000000000               0.000000000               0.000000000               0.000561176               0.003713905              -0.000059264              -0.000253796               0.001322555               0.001068758               0.000000000               0.000000000               0.000000000               0.000000000               0.000489148               0.003660773              -0.000057943              -0.000274166               0.001311634               0.001037469               0.000000000               0.000000000               0.000000000               0.000000000               0.000417691               0.003624039              -0.000057430              -0.000296370               0.001306791               0.001010421               0.000000000               0.000000000               0.000000000               0.000000000               0.000347941               0.003601488              -0.000058300              -0.000319708               0.001307053               0.000987346               0.000000000               0.000000000               0.000000000               0.000000000               0.000279158               0.003589851              -0.000056673              -0.000344046               0.001311287               0.000967241               0.000000000               0.000000000               0.000000000               0.000000000               0.000213132               0.003583562              -0.000051627              -0.000368020               0.001317182               0.000949162               0.000000000               0.000000000               0.000000000               0.000000000               0.000153899               0.003580853              -0.000043728              -0.000389893               0.001323570               0.000933677               0.000000000               0.000000000               0.000000000               0.000000000               0.000099588               0.003580627              -0.000034274              -0.000410232               0.001330274               0.000920042               0.000000000               0.000000000               0.000000000               0.000000000               0.000047812               0.003585286              -0.000020329              -0.000430230               0.001338493               0.000908263               0.000000000               0.000000000               0.000000000               0.000000000               0.000025801               0.003595455              -0.000009786              -0.000439755               0.001345058               0.000905303               0.000000000               0.000000000               0.000000000               0.000000000               0.000909795               0.006289850               0.001416002              -0.000445058               0.002244948               0.001799890               0.000000000               0.000000000               0.000000000               0.000000000               0.000746592               0.005333035               0.000901168              -0.000386657               0.001906546               0.001519889               0.000000000               0.000000000               0.000000000               0.000000000               0.000776831               0.004648423               0.000380200              -0.000289741               0.001646039               0.001356298               0.000000000               0.000000000               0.000000000               0.000000000               0.000720228               0.004261347               0.000149868              -0.000262582               0.001507962               0.001245380               0.000000000               0.000000000               0.000000000               0.000000000               0.000650242               0.004026892               0.000042675              -0.000259520               0.001428791               0.001169270               0.000000000               0.000000000               0.000000000               0.000000000               0.000579029               0.003873905              -0.000007225              -0.000267102               0.001380323               0.001113221               0.000000000               0.000000000               0.000000000               0.000000000               0.000509070               0.003769837              -0.000033679              -0.000280328               0.001350042               0.001069715               0.000000000               0.000000000               0.000000000               0.000000000               0.000444451               0.003699368              -0.000044949              -0.000295751               0.001331694               0.001035943               0.000000000               0.000000000               0.000000000               0.000000000               0.000383888               0.003652465              -0.000044077              -0.000312599               0.001321676               0.001009077               0.000000000               0.000000000               0.000000000               0.000000000               0.000325740               0.003619975              -0.000043529              -0.000330344               0.001316761               0.000986417               0.000000000               0.000000000               0.000000000               0.000000000               0.000270640               0.003599760              -0.000045909              -0.000348479               0.001316068               0.000967589               0.000000000               0.000000000               0.000000000               0.000000000               0.000218583               0.003588875              -0.000045560              -0.000366640               0.001318493               0.000951853               0.000000000               0.000000000               0.000000000               0.000000000               0.000169948               0.003585976              -0.000039916              -0.000384516               0.001323485               0.000938970               0.000000000               0.000000000               0.000000000               0.000000000               0.000125336               0.003589184              -0.000031117              -0.000401646               0.001330265               0.000928619               0.000000000               0.000000000               0.000000000               0.000000000               0.000083892               0.003601101              -0.000022287              -0.000418677               0.001339914               0.000921237               0.000000000               0.000000000               0.000000000               0.000000000               0.000041740               0.003624395              -0.000012809              -0.000437396               0.001353918               0.000916523               0.000000000               0.000000000               0.000000000               0.000000000               0.000027187               0.003652736              -0.000003840              -0.000446396               0.001366365               0.000919969               0.000000000               0.000000000               0.000000000               0.000000000               0.001048254               0.005590514               0.001665861              -0.000305720               0.001965392               0.001659672               0.000000000               0.000000000               0.000000000               0.000000000               0.000765565               0.004862978               0.001077333              -0.000320785               0.001727905               0.001407119               0.000000000               0.000000000               0.000000000               0.000000000               0.000667340               0.004402138               0.000482974              -0.000300014               0.001567369               0.001267355               0.000000000               0.000000000               0.000000000               0.000000000               0.000574295               0.004123311               0.000226050              -0.000300053               0.001474441               0.001174388               0.000000000               0.000000000               0.000000000               0.000000000               0.000501115               0.003940505               0.000105735              -0.000304644               0.001415037               0.001110392               0.000000000               0.000000000               0.000000000               0.000000000               0.000439007               0.003814098               0.000048471              -0.000312134               0.001375398               0.001063264               0.000000000               0.000000000               0.000000000               0.000000000               0.000380916               0.003727305               0.000017544              -0.000323069               0.001350112               0.001027043               0.000000000               0.000000000               0.000000000               0.000000000               0.000329880               0.003668286               0.000000947              -0.000334830               0.001334360               0.000999530               0.000000000               0.000000000               0.000000000               0.000000000               0.000283164               0.003631976              -0.000002509              -0.000347809               0.001326583               0.000978773               0.000000000               0.000000000               0.000000000               0.000000000               0.000238888               0.003609128              -0.000002879              -0.000361557               0.001323550               0.000961993               0.000000000               0.000000000               0.000000000               0.000000000               0.000199775               0.003593491              -0.000006973              -0.000374270               0.001322575               0.000948305               0.000000000               0.000000000               0.000000000               0.000000000               0.000167315               0.003587151              -0.000009921              -0.000385650               0.001324255               0.000938605               0.000000000               0.000000000               0.000000000               0.000000000               0.000137100               0.003589762              -0.000007015              -0.000397307               0.001329011               0.000931704               0.000000000               0.000000000               0.000000000               0.000000000               0.000106722               0.003602353              -0.000000045              -0.000410272               0.001337530               0.000927257               0.000000000               0.000000000               0.000000000               0.000000000               0.000073957               0.003625298               0.000005116              -0.000425427               0.001350230               0.000924802               0.000000000               0.000000000               0.000000000               0.000000000               0.000037792               0.003659667               0.000005385              -0.000443285               0.001367638               0.000924353               0.000000000               0.000000000               0.000000000               0.000000000               0.000027501               0.003694146               0.000008827              -0.000451454               0.001381854               0.000930400               0.000000000               0.000000000               0.000000000               0.000000000               0.001160075               0.004831437               0.001779988              -0.000168903               0.001666763               0.001497860               0.000000000               0.000000000               0.000000000               0.000000000               0.000769666               0.004358517               0.001180954              -0.000256190               0.001538221               0.001282031               0.000000000               0.000000000               0.000000000               0.000000000               0.000554330               0.004137542               0.000574907              -0.000309318               0.001482273               0.001172955               0.000000000               0.000000000               0.000000000               0.000000000               0.000441079               0.003961774               0.000315241              -0.000329816               0.001430517               0.001100701               0.000000000               0.000000000               0.000000000               0.000000000               0.000372934               0.003829011               0.000190825              -0.000338776               0.001389249               0.001050474               0.000000000               0.000000000               0.000000000               0.000000000               0.000323970               0.003732787               0.000126937              -0.000345109               0.001359286               0.001014177               0.000000000               0.000000000               0.000000000               0.000000000               0.000281043               0.003667080               0.000088421              -0.000352993               0.001340012               0.000987019               0.000000000               0.000000000               0.000000000               0.000000000               0.000243885               0.003623890               0.000063160              -0.000361528               0.001328461               0.000966932               0.000000000               0.000000000               0.000000000               0.000000000               0.000210186               0.003600923               0.000052362              -0.000371295               0.001324061               0.000952766               0.000000000               0.000000000               0.000000000               0.000000000               0.000180056               0.003590187               0.000052351              -0.000381251               0.001323801               0.000942549               0.000000000               0.000000000               0.000000000               0.000000000               0.000154403               0.003581987               0.000048628              -0.000389846               0.001323933               0.000934086               0.000000000               0.000000000               0.000000000               0.000000000               0.000135335               0.003580560               0.000043160              -0.000396819               0.001325781               0.000928962               0.000000000               0.000000000               0.000000000               0.000000000               0.000114932               0.003585732               0.000041573              -0.000405116               0.001330271               0.000925155               0.000000000               0.000000000               0.000000000               0.000000000               0.000090419               0.003600112               0.000041804              -0.000416106               0.001338727               0.000922621               0.000000000               0.000000000               0.000000000               0.000000000               0.000062259               0.003621870               0.000038401              -0.000429386               0.001350406               0.000921021               0.000000000               0.000000000               0.000000000               0.000000000               0.000031701               0.003644934               0.000024830              -0.000443728               0.001362875               0.000919147               0.000000000               0.000000000               0.000000000               0.000000000               0.000019959               0.003661386               0.000016794              -0.000450188               0.001370512               0.000920325               0.000000000               0.000000000               0.000000000               0.000000000               0.001220238               0.004072134               0.001775558              -0.000051430               0.001374507               0.001323077               0.000000000               0.000000000               0.000000000               0.000000000               0.000758977               0.003857120               0.001223897              -0.000197524               0.001351535               0.001154011               0.000000000               0.000000000               0.000000000               0.000000000               0.000453249               0.003866649               0.000658483              -0.000313362               0.001393324               0.001079962               0.000000000               0.000000000               0.000000000               0.000000000               0.000333779               0.003786136               0.000410658              -0.000348099               0.001378066               0.001029966               0.000000000               0.000000000               0.000000000               0.000000000               0.000280200               0.003702355               0.000282098              -0.000357719               0.001353346               0.000995627               0.000000000               0.000000000               0.000000000               0.000000000               0.000247841               0.003640839               0.000208010              -0.000362163               0.001334322               0.000972158               0.000000000               0.000000000               0.000000000               0.000000000               0.000219804               0.003602440               0.000161713              -0.000367878               0.001323427               0.000955550               0.000000000               0.000000000               0.000000000               0.000000000               0.000194652               0.003580805               0.000131989              -0.000374605               0.001318458               0.000943853               0.000000000               0.000000000               0.000000000               0.000000000               0.000169067               0.003569778               0.000115752              -0.000382821               0.001317521               0.000934700               0.000000000               0.000000000               0.000000000               0.000000000               0.000148565               0.003564924               0.000113567              -0.000389903               0.001318264               0.000928361               0.000000000               0.000000000               0.000000000               0.000000000               0.000131021               0.003560108               0.000108665              -0.000395880               0.001318651               0.000922771               0.000000000               0.000000000               0.000000000               0.000000000               0.000112754               0.003557164               0.000096322              -0.000402362               0.001319830               0.000917468               0.000000000               0.000000000               0.000000000               0.000000000               0.000092068               0.003559770               0.000083258              -0.000410445               0.001323393               0.000912948               0.000000000               0.000000000               0.000000000               0.000000000               0.000067117               0.003567093               0.000068050              -0.000420717               0.001329258               0.000908541               0.000000000               0.000000000               0.000000000               0.000000000               0.000039968               0.003574166               0.000049294              -0.000431782               0.001335304               0.000903522               0.000000000               0.000000000               0.000000000               0.000000000               0.000017238               0.003572981               0.000025682              -0.000440157               0.001337701               0.000897543               0.000000000               0.000000000               0.000000000               0.000000000               0.000004044               0.003561432               0.000009642              -0.000443662               0.001335019               0.000891358               0.000000000               0.000000000               0.000000000               0.000000000               0.001224940               0.003352375               0.001675975               0.000040303               0.001104012               0.001144315               0.000000000               0.000000000               0.000000000               0.000000000               0.000732265               0.003390149               0.001219864              -0.000149170               0.001179761               0.001030591               0.000000000               0.000000000               0.000000000               0.000000000               0.000378218               0.003601658               0.000733214              -0.000308375               0.001303332               0.000994957               0.000000000               0.000000000               0.000000000               0.000000000               0.000265794               0.003602798               0.000500338              -0.000350676               0.001317813               0.000967136               0.000000000               0.000000000               0.000000000               0.000000000               0.000227297               0.003568750               0.000364757              -0.000360857               0.001309857               0.000949000               0.000000000               0.000000000               0.000000000               0.000000000               0.000210981               0.003546870               0.000280633              -0.000364240               0.001303692               0.000939451               0.000000000               0.000000000               0.000000000               0.000000000               0.000192088               0.003537284               0.000229103              -0.000370127               0.001302458               0.000932332               0.000000000               0.000000000               0.000000000               0.000000000               0.000172492               0.003536684               0.000196944              -0.000377400               0.001304683               0.000927283               0.000000000               0.000000000               0.000000000               0.000000000               0.000153941               0.003533852               0.000174165              -0.000384003               0.001305940               0.000921937               0.000000000               0.000000000               0.000000000               0.000000000               0.000134349               0.003526455               0.000161175              -0.000390425               0.001305615               0.000915190               0.000000000               0.000000000               0.000000000               0.000000000               0.000111798               0.003519075               0.000146644              -0.000397959               0.001305666               0.000907707               0.000000000               0.000000000               0.000000000               0.000000000               0.000084301               0.003512146               0.000121295              -0.000407404               0.001306505               0.000899101               0.000000000               0.000000000               0.000000000               0.000000000               0.000055522               0.003506416               0.000091109              -0.000417480               0.001307954               0.000890473               0.000000000               0.000000000               0.000000000               0.000000000               0.000027749               0.003499142               0.000059854              -0.000426986               0.001308698               0.000881712               0.000000000               0.000000000               0.000000000               0.000000000               0.000005137               0.003485284               0.000030076              -0.000433733               0.001306328               0.000872594               0.000000000               0.000000000               0.000000000               0.000000000              -0.000005917               0.003460581               0.000008464              -0.000434790               0.001298445               0.000863655               0.000000000               0.000000000               0.000000000               0.000000000              -0.000011860               0.003435682              -0.000002210              -0.000433907               0.001289851               0.000855945               0.000000000               0.000000000               0.000000000               0.000000000               0.001202510               0.002724559               0.001510657               0.000110369               0.000871387               0.000981756               0.000000000               0.000000000               0.000000000               0.000000000               0.000717684               0.002974899               0.001192032              -0.000102732               0.001025867               0.000923135               0.000000000               0.000000000               0.000000000               0.000000000               0.000347235               0.003358930               0.000816946              -0.000289653               0.001216183               0.000926530               0.000000000               0.000000000               0.000000000               0.000000000               0.000246687               0.003440835               0.000594341              -0.000337596               0.001259465               0.000921869               0.000000000               0.000000000               0.000000000               0.000000000               0.000217211               0.003460201               0.000450115              -0.000351070               0.001270412               0.000919342               0.000000000               0.000000000               0.000000000               0.000000000               0.000206717               0.003473686               0.000356711              -0.000356691               0.001276781               0.000920090               0.000000000               0.000000000               0.000000000               0.000000000               0.000193987               0.003489124               0.000296815              -0.000363395               0.001284161               0.000920767               0.000000000               0.000000000               0.000000000               0.000000000               0.000177005               0.003502624               0.000256713              -0.000371450               0.001291346               0.000919896               0.000000000               0.000000000               0.000000000               0.000000000               0.000159769               0.003504478               0.000225006              -0.000378145               0.001294196               0.000916051               0.000000000               0.000000000               0.000000000               0.000000000               0.000139016               0.003493190               0.000197374              -0.000384517               0.001292557               0.000908041               0.000000000               0.000000000               0.000000000               0.000000000               0.000112009               0.003481106               0.000169716              -0.000393134               0.001291402               0.000898268               0.000000000               0.000000000               0.000000000               0.000000000               0.000076187               0.003469377               0.000133703              -0.000405101               0.001291481               0.000886380               0.000000000               0.000000000               0.000000000               0.000000000               0.000036226               0.003454623               0.000092044              -0.000418242               0.001290944               0.000872701               0.000000000               0.000000000               0.000000000               0.000000000              -0.000004866               0.003433441               0.000052037              -0.000431004               0.001288137               0.000857133               0.000000000               0.000000000               0.000000000               0.000000000              -0.000038902               0.003401467               0.000020444              -0.000439770               0.001280401               0.000840631               0.000000000               0.000000000               0.000000000               0.000000000              -0.000057635               0.003357446               0.000001267              -0.000441293               0.001266235               0.000824943               0.000000000               0.000000000               0.000000000               0.000000000              -0.000061636               0.003328298              -0.000005666              -0.000439150               0.001255805               0.000816655               0.000000000               0.000000000               0.000000000               0.000000000               0.001136393               0.002122821               0.001315371               0.000160792               0.000654002               0.000814794               0.000000000               0.000000000               0.000000000               0.000000000               0.000725710               0.002497431               0.001153845              -0.000040039               0.000845815               0.000805775               0.000000000               0.000000000               0.000000000               0.000000000               0.000372236               0.003007669               0.000914435              -0.000236370               0.001081336               0.000844966               0.000000000               0.000000000               0.000000000               0.000000000               0.000271555               0.003189522               0.000710479              -0.000296857               0.001162115               0.000865259               0.000000000               0.000000000               0.000000000               0.000000000               0.000242406               0.003274296               0.000561443              -0.000318384               0.001197549               0.000879165               0.000000000               0.000000000               0.000000000               0.000000000               0.000232563               0.003330959               0.000455474              -0.000329158               0.001220028               0.000890870               0.000000000               0.000000000               0.000000000               0.000000000               0.000223934               0.003380621               0.000381246              -0.000338602               0.001239730               0.000901128               0.000000000               0.000000000               0.000000000               0.000000000               0.000210233               0.003420446               0.000327670              -0.000348718               0.001256377               0.000907659               0.000000000               0.000000000               0.000000000               0.000000000               0.000190168               0.003439586               0.000283703              -0.000358635               0.001266062               0.000907427               0.000000000               0.000000000               0.000000000               0.000000000               0.000164289               0.003435164               0.000243874              -0.000367786               0.001267639               0.000899852               0.000000000               0.000000000               0.000000000               0.000000000               0.000131882               0.003417935               0.000204732              -0.000377785               0.001265229               0.000887443               0.000000000               0.000000000               0.000000000               0.000000000               0.000089986               0.003394302               0.000161601              -0.000390542               0.001261603               0.000871061               0.000000000               0.000000000               0.000000000               0.000000000               0.000042557               0.003373771               0.000114635              -0.000405761               0.001259833               0.000854072               0.000000000               0.000000000               0.000000000               0.000000000              -0.000009100               0.003355010               0.000069402              -0.000422788               0.001259255               0.000836467               0.000000000               0.000000000               0.000000000               0.000000000              -0.000059974               0.003332573               0.000034129              -0.000439061               0.001257200               0.000818139               0.000000000               0.000000000               0.000000000               0.000000000              -0.000104292               0.003298913               0.000010661              -0.000451473               0.001250118               0.000798645               0.000000000               0.000000000               0.000000000               0.000000000              -0.000128211               0.003272353              -0.000000418              -0.000457122               0.001243147               0.000786025               0.000000000               0.000000000               0.000000000               0.000000000               0.000996730               0.001568196               0.001094270               0.000177747               0.000463477               0.000641224               0.000000000               0.000000000               0.000000000               0.000000000               0.000723705               0.002023705               0.001083741               0.000018424               0.000668419               0.000686844               0.000000000               0.000000000               0.000000000               0.000000000               0.000430191               0.002613954               0.000985320              -0.000165423               0.000926450               0.000761027               0.000000000               0.000000000               0.000000000               0.000000000               0.000331065               0.002890148               0.000820114              -0.000237119               0.001042413               0.000805293               0.000000000               0.000000000               0.000000000               0.000000000               0.000293059               0.003044498               0.000675448              -0.000270665               0.001105044               0.000834379               0.000000000               0.000000000               0.000000000               0.000000000               0.000277359               0.003151925               0.000563403              -0.000289981               0.001147291               0.000857311               0.000000000               0.000000000               0.000000000               0.000000000               0.000271136               0.003244548               0.000478253              -0.000303892               0.001182802               0.000878910               0.000000000               0.000000000               0.000000000               0.000000000               0.000257828               0.003318591               0.000410381              -0.000318138               0.001212232               0.000894094               0.000000000               0.000000000               0.000000000               0.000000000               0.000232640               0.003360777               0.000353444              -0.000332856               0.001231200               0.000898343               0.000000000               0.000000000               0.000000000               0.000000000               0.000202374               0.003374608               0.000304329              -0.000345935               0.001240170               0.000894235               0.000000000               0.000000000               0.000000000               0.000000000               0.000170878               0.003368246               0.000258028              -0.000356951               0.001241721               0.000884770               0.000000000               0.000000000               0.000000000               0.000000000               0.000135205               0.003349299               0.000211509              -0.000367960               0.001239075               0.000871115               0.000000000               0.000000000               0.000000000               0.000000000               0.000089040               0.003327760               0.000160674              -0.000382579               0.001236769               0.000854189               0.000000000               0.000000000               0.000000000               0.000000000               0.000033172               0.003310090               0.000109708              -0.000401321               0.001237126               0.000835805               0.000000000               0.000000000               0.000000000               0.000000000              -0.000031169               0.003293702               0.000065892              -0.000423400               0.001239023               0.000815623               0.000000000               0.000000000               0.000000000               0.000000000              -0.000102037               0.003276221               0.000028855              -0.000447790               0.001241326               0.000793536               0.000000000               0.000000000               0.000000000               0.000000000              -0.000153457               0.003256616               0.000005644              -0.000464622               0.001240402               0.000775780               0.000000000               0.000000000               0.000000000               0.000000000               0.000793039               0.001083475               0.000853598               0.000161953               0.000307170               0.000469123               0.000000000               0.000000000               0.000000000               0.000000000               0.000688609               0.001568503               0.000964560               0.000062164               0.000502107               0.000564271               0.000000000               0.000000000               0.000000000               0.000000000               0.000499751               0.002181540               0.000989937              -0.000085287               0.000755601               0.000670314               0.000000000               0.000000000               0.000000000               0.000000000               0.000418952               0.002531423               0.000877891              -0.000159321               0.000896906               0.000737585               0.000000000               0.000000000               0.000000000               0.000000000               0.000379307               0.002754714               0.000753021              -0.000202099               0.000985595               0.000783496               0.000000000               0.000000000               0.000000000               0.000000000               0.000355373               0.002919322               0.000648161              -0.000231650               0.001050314               0.000818664               0.000000000               0.000000000               0.000000000               0.000000000               0.000342396               0.003058211               0.000560191              -0.000253878               0.001104019               0.000850142               0.000000000               0.000000000               0.000000000               0.000000000               0.000322610               0.003167927               0.000481830              -0.000275012               0.001147636               0.000872624               0.000000000               0.000000000               0.000000000               0.000000000               0.000290790               0.003243540               0.000415183              -0.000296396               0.001179968               0.000883572               0.000000000               0.000000000               0.000000000               0.000000000               0.000254815               0.003286500               0.000362101              -0.000315256               0.001200574               0.000885318               0.000000000               0.000000000               0.000000000               0.000000000               0.000220912               0.003303674               0.000315320              -0.000330116               0.001211252               0.000881136               0.000000000               0.000000000               0.000000000               0.000000000               0.000187663               0.003304247               0.000264657              -0.000342657               0.001215624               0.000872967               0.000000000               0.000000000               0.000000000               0.000000000               0.000147494               0.003293179               0.000207952              -0.000356336               0.001216494               0.000860158               0.000000000               0.000000000               0.000000000               0.000000000               0.000097261               0.003279227               0.000152514              -0.000373430               0.001217541               0.000844112               0.000000000               0.000000000               0.000000000               0.000000000               0.000032988               0.003267389               0.000099740              -0.000396052               0.001221136               0.000825084               0.000000000               0.000000000               0.000000000               0.000000000              -0.000046698               0.003262986               0.000047487              -0.000425384               0.001229446               0.000804062               0.000000000               0.000000000               0.000000000               0.000000000              -0.000111023               0.003248726               0.000013774              -0.000447723               0.001232139               0.000784416               0.000000000               0.000000000               0.000000000               0.000000000               0.000542578               0.000691831               0.000615953               0.000116986               0.000191612               0.000308598               0.000000000               0.000000000               0.000000000               0.000000000               0.000622922               0.001156850               0.000805912               0.000088988               0.000355950               0.000444938               0.000000000               0.000000000               0.000000000               0.000000000               0.000574518               0.001748482               0.000922323              -0.000003117               0.000583860               0.000580743               0.000000000               0.000000000               0.000000000               0.000000000               0.000531955               0.002144366               0.000866459              -0.000068564               0.000737636               0.000669072               0.000000000               0.000000000               0.000000000               0.000000000               0.000499746               0.002424609               0.000772476              -0.000115672               0.000846752               0.000731080               0.000000000               0.000000000               0.000000000               0.000000000               0.000468882               0.002642825               0.000680755              -0.000154523               0.000932440               0.000777918               0.000000000               0.000000000               0.000000000               0.000000000               0.000437652               0.002825606               0.000596924              -0.000189081               0.001004886               0.000815805               0.000000000               0.000000000               0.000000000               0.000000000               0.000407527               0.002973437               0.000519321              -0.000218857               0.001064088               0.000845231               0.000000000               0.000000000               0.000000000               0.000000000               0.000373836               0.003086451               0.000453395              -0.000245617               0.001110679               0.000865062               0.000000000               0.000000000               0.000000000               0.000000000               0.000332914               0.003167417               0.000400034              -0.000271084               0.001146156               0.000875073               0.000000000               0.000000000               0.000000000               0.000000000               0.000289274               0.003221051               0.000354105              -0.000294153               0.001171724               0.000877571               0.000000000               0.000000000               0.000000000               0.000000000               0.000250313               0.003248037               0.000306702              -0.000312137               0.001186714               0.000874577               0.000000000               0.000000000               0.000000000               0.000000000               0.000216882               0.003256725               0.000252931              -0.000325759               0.001194151               0.000868392               0.000000000               0.000000000               0.000000000               0.000000000               0.000179065               0.003259030               0.000194205              -0.000340228               0.001199742               0.000859513               0.000000000               0.000000000               0.000000000               0.000000000               0.000125987               0.003258167               0.000131874              -0.000360025               0.001206053               0.000846028               0.000000000               0.000000000               0.000000000               0.000000000               0.000055525               0.003259074               0.000066511              -0.000386561               0.001215201               0.000828640               0.000000000               0.000000000               0.000000000               0.000000000              -0.000004285               0.003248218               0.000026882              -0.000407633               0.001218606               0.000810973               0.000000000               0.000000000               0.000000000               0.000000000               0.000275746               0.000404377               0.000403983               0.000052857               0.000117172               0.000170028               0.000000000               0.000000000               0.000000000               0.000000000               0.000537930               0.000814403               0.000619231               0.000099922               0.000238157               0.000338079               0.000000000               0.000000000               0.000000000               0.000000000               0.000642036               0.001349701               0.000779652               0.000072049               0.000425879               0.000497929               0.000000000               0.000000000               0.000000000               0.000000000               0.000653663               0.001766465               0.000768832               0.000024314               0.000580711               0.000605025               0.000000000               0.000000000               0.000000000               0.000000000               0.000631295               0.002083341               0.000707692              -0.000023683               0.000702334               0.000678651               0.000000000               0.000000000               0.000000000               0.000000000               0.000595306               0.002342755               0.000634300              -0.000069605               0.000804112               0.000734507               0.000000000               0.000000000               0.000000000               0.000000000               0.000552929               0.002565729               0.000562798              -0.000113368               0.000893024               0.000779656               0.000000000               0.000000000               0.000000000               0.000000000               0.000514978               0.002748367               0.000498334              -0.000150429               0.000966256               0.000815827               0.000000000               0.000000000               0.000000000               0.000000000               0.000479555               0.002897314               0.000440047              -0.000182331               0.001026539               0.000844208               0.000000000               0.000000000               0.000000000               0.000000000               0.000436599               0.003020363               0.000389326              -0.000213821               0.001078051               0.000864231               0.000000000               0.000000000               0.000000000               0.000000000               0.000390314               0.003113464               0.000350418              -0.000242815               0.001118749               0.000875934               0.000000000               0.000000000               0.000000000               0.000000000               0.000350543               0.003173083               0.000314981              -0.000265181               0.001146077               0.000880896               0.000000000               0.000000000               0.000000000               0.000000000               0.000318262               0.003209540               0.000269065              -0.000281844               0.001163784               0.000881940               0.000000000               0.000000000               0.000000000               0.000000000               0.000285833               0.003233026               0.000210302              -0.000296940               0.001176645               0.000879704               0.000000000               0.000000000               0.000000000               0.000000000               0.000247495               0.003245982               0.000145151              -0.000312936               0.001186295               0.000873359               0.000000000               0.000000000               0.000000000               0.000000000               0.000202239               0.003254210               0.000075561              -0.000330936               0.001195038               0.000864102               0.000000000               0.000000000               0.000000000               0.000000000               0.000164661               0.003251191               0.000035799              -0.000344650               0.001198603               0.000853953               0.000000000               0.000000000               0.000000000               0.000000000               0.000034394               0.000210624               0.000234464              -0.000013430               0.000074684               0.000061253               0.000000000               0.000000000               0.000000000               0.000000000               0.000453305               0.000556473               0.000417712               0.000100429               0.000152013               0.000252442               0.000000000               0.000000000               0.000000000               0.000000000               0.000694369               0.001024931               0.000567198               0.000132270               0.000297550               0.000429820               0.000000000               0.000000000               0.000000000               0.000000000               0.000759979               0.001441603               0.000580789               0.000104790               0.000445599               0.000550390               0.000000000               0.000000000               0.000000000               0.000000000               0.000752786               0.001778463               0.000545623               0.000059986               0.000572820               0.000632805               0.000000000               0.000000000               0.000000000               0.000000000               0.000716077               0.002061887               0.000494465               0.000010792               0.000683691               0.000694484               0.000000000               0.000000000               0.000000000               0.000000000               0.000672808               0.002309919               0.000444326              -0.000036437               0.000782111               0.000745674               0.000000000               0.000000000               0.000000000               0.000000000               0.000632411               0.002525580               0.000399205              -0.000078543               0.000868033               0.000789489               0.000000000               0.000000000               0.000000000               0.000000000               0.000592576               0.002712088               0.000353205              -0.000116795               0.000942952               0.000826157               0.000000000               0.000000000               0.000000000               0.000000000               0.000550661               0.002866230               0.000313164              -0.000151781               0.001005994               0.000854213               0.000000000               0.000000000               0.000000000               0.000000000               0.000507895               0.002986841               0.000287392              -0.000182894               0.001056569               0.000873674               0.000000000               0.000000000               0.000000000               0.000000000               0.000466404               0.003079476               0.000264618              -0.000210033               0.001096493               0.000886460               0.000000000               0.000000000               0.000000000               0.000000000               0.000429891               0.003148424               0.000228365              -0.000232343               0.001126912               0.000894568               0.000000000               0.000000000               0.000000000               0.000000000               0.000401161               0.003195718               0.000178744              -0.000249029               0.001148238               0.000899210               0.000000000               0.000000000               0.000000000               0.000000000               0.000379892               0.003225616               0.000123949              -0.000260742               0.001162108               0.000901367               0.000000000               0.000000000               0.000000000               0.000000000               0.000366741               0.003246993               0.000064449              -0.000268345               0.001171769               0.000903423               0.000000000               0.000000000               0.000000000               0.000000000               0.000361420               0.003255190               0.000032008              -0.000271366               0.001175508               0.000904142               0.000000000               0.000000000               0.000000000               0.000000000              -0.000132950               0.000103929               0.000104463              -0.000062848               0.000055592              -0.000007256               0.000000000               0.000000000               0.000000000               0.000000000               0.000389778               0.000398537               0.000209596               0.000096348               0.000100728               0.000197077               0.000000000               0.000000000               0.000000000               0.000000000               0.000729770               0.000812671               0.000299471               0.000172078               0.000213528               0.000385606               0.000000000               0.000000000               0.000000000               0.000000000               0.000831735               0.001218974               0.000313568               0.000159527               0.000353145               0.000512672               0.000000000               0.000000000               0.000000000               0.000000000               0.000837013               0.001562881               0.000297672               0.000118519               0.000481449               0.000599967               0.000000000               0.000000000               0.000000000               0.000000000               0.000807005               0.001854503               0.000271778               0.000070813               0.000594557               0.000665370               0.000000000               0.000000000               0.000000000               0.000000000               0.000767072               0.002117656               0.000246920               0.000022945               0.000698230               0.000721175               0.000000000               0.000000000               0.000000000               0.000000000               0.000722399               0.002358169               0.000223322              -0.000023871               0.000794006               0.000770134               0.000000000               0.000000000               0.000000000               0.000000000               0.000677792               0.002569035               0.000196326              -0.000066957               0.000878655               0.000811698               0.000000000               0.000000000               0.000000000               0.000000000               0.000637409               0.002744577               0.000174679              -0.000104043               0.000949531               0.000845487               0.000000000               0.000000000               0.000000000               0.000000000               0.000594621               0.002885471               0.000163245              -0.000137701               0.001007714               0.000870014               0.000000000               0.000000000               0.000000000               0.000000000               0.000547426               0.003000925               0.000152118              -0.000169831               0.001056909               0.000887078               0.000000000               0.000000000               0.000000000               0.000000000               0.000505514               0.003094522               0.000132441              -0.000197247               0.001097246               0.000899999               0.000000000               0.000000000               0.000000000               0.000000000               0.000480565               0.003164624               0.000103853              -0.000215366               0.001126653               0.000911287               0.000000000               0.000000000               0.000000000               0.000000000               0.000476612               0.003212457               0.000071137              -0.000222827               0.001145084               0.000922257               0.000000000               0.000000000               0.000000000               0.000000000               0.000494623               0.003242702               0.000037198              -0.000219853               0.001154174               0.000934321               0.000000000               0.000000000               0.000000000               0.000000000               0.000518465               0.003256846               0.000020022              -0.000212681               0.001156498               0.000943817               0.000000000               0.000000000               0.000000000               0.000000000               0.000000000               0.000000000               0.000000000               0.000000000               0.000000000               0.000000000               0.000000000               0.000000000               0.000000000               0.000000000               0.000000000               0.000000000               0.000000000               0.000000000               0.000000000               0.000000000               0.000000000               0.000000000               0.000000000               0.000000000               0.000000000               0.000000000               0.000000000               0.000000000               0.000000000               0.000000000               0.000000000               0.000000000               0.000000000               0.000000000               0.000000000               0.000000000               0.000000000               0.000000000               0.000000000               0.000000000               0.000000000               0.000000000               0.000000000               0.000000000               0.000000000               0.000000000               0.000000000               0.000000000               0.000000000               0.000000000               0.000000000               0.000000000               0.000000000               0.000000000               0.000000000               0.000000000               0.000000000               0.000000000               0.000000000               0.000000000               0.000000000               0.000000000               0.000000000               0.000000000               0.000000000               0.000000000               0.000000000               0.000000000               0.000000000               0.000000000               0.000000000               0.000000000               0.000000000               0.000000000               0.000000000               0.000000000               0.000000000               0.000000000               0.000000000               0.000000000               0.000000000               0.000000000               0.000000000               0.000000000               0.000000000               0.000000000               0.000000000               0.000000000               0.000000000               0.000000000               0.000000000               0.000000000               0.000000000               0.000000000               0.000000000               0.000000000               0.000000000               0.000000000               0.000000000               0.000000000               0.000000000               0.000000000               0.000000000               0.000000000               0.000000000               0.000000000               0.000000000               0.000000000               0.000000000               0.000000000               0.000000000               0.000000000               0.000000000               0.000000000               0.000000000               0.000000000               0.000000000               0.000000000               0.000000000               0.000000000               0.000000000               0.000000000               0.000000000               0.000000000               0.000000000               0.000000000               0.000000000               0.000000000               0.000000000               0.000000000               0.000000000               0.000000000               0.000000000               0.000000000               0.000000000               0.000000000               0.000000000               0.000000000               0.000000000               0.000000000               0.000000000               0.000000000               0.000000000               0.000000000               0.000000000               0.000000000               0.000000000               0.000000000               0.000000000               0.000000000               0.000000000               0.000000000               0.000000000               0.000000000               0.000000000               0.000000000               0.000000000               0.000000000               0.000000000               0.000000000               0.000000000               0.000000000               0.000000000               0.000000000               0.000000000               0.000000000               0.000000000               0.000000000               0.000000000               0.000000000               0.000000000               0.000000000               0.000000000               0.000000000 </DataArray>
</PointData>
</Piece>
</UnstructuredGrid> </VTKFile>
