<?xml version="1.0"?>
<VTKFile type="UnstructuredGrid" version="0.1">
<UnstructuredGrid>
<Piece NumberOfPoints="      1156" NumberOfCells="      1024">
<Points>
<DataArray type="Float64"                                    Name="coordinates"                                                      NumberOfComponents=" 3" format="ascii">
              0.133000000               0.000000000               0.000000000               0.155937500               0.000000000               0.000000000               0.178875000               0.000000000               0.000000000               0.201812500               0.000000000               0.000000000               0.224750000               0.000000000               0.000000000               0.247687500               0.000000000               0.000000000               0.270625000               0.000000000               0.000000000               0.293562500               0.000000000               0.000000000               0.316500000               0.000000000               0.000000000               0.339437500               0.000000000               0.000000000               0.362375000               0.000000000               0.000000000               0.385312500               0.000000000               0.000000000               0.408250000               0.000000000               0.000000000               0.431187500               0.000000000               0.000000000               0.454125000               0.000000000               0.000000000               0.477062500               0.000000000               0.000000000               0.500000000               0.000000000               0.000000000               0.132359569               0.013036280               0.000000000               0.155337096               0.016127762               0.000000000               0.178314623               0.019219245               0.000000000               0.201292150               0.022310727               0.000000000               0.224269676               0.025402210               0.000000000               0.247247203               0.028493692               0.000000000               0.270224730               0.031585175               0.000000000               0.293202257               0.034676657               0.000000000               0.316179784               0.037768140               0.000000000               0.339157311               0.040859622               0.000000000               0.362134838               0.043951105               0.000000000               0.385112365               0.047042587               0.000000000               0.408089892               0.050134070               0.000000000               0.431067419               0.053225552               0.000000000               0.454044946               0.056317035               0.000000000               0.477022473               0.059408517               0.000000000               0.500000000               0.062500000               0.000000000               0.130444442               0.025947013               0.000000000               0.153541665               0.032137825               0.000000000               0.176638887               0.038328636               0.000000000               0.199736109               0.044519448               0.000000000               0.222833332               0.050710260               0.000000000               0.245930554               0.056901071               0.000000000               0.269027776               0.063091883               0.000000000               0.292124999               0.069282695               0.000000000               0.315222221               0.075473506               0.000000000               0.338319444               0.081664318               0.000000000               0.361416666               0.087855130               0.000000000               0.384513888               0.094045942               0.000000000               0.407611111               0.100236753               0.000000000               0.430708333               0.106427565               0.000000000               0.453805555               0.112618377               0.000000000               0.476902778               0.118809188               0.000000000               0.500000000               0.125000000               0.000000000               0.127273065               0.038607862               0.000000000               0.150568498               0.047913621               0.000000000               0.173863932               0.057219379               0.000000000               0.197159365               0.066525138               0.000000000               0.220454798               0.075830897               0.000000000               0.243750232               0.085136655               0.000000000               0.267045665               0.094442414               0.000000000               0.290341099               0.103748172               0.000000000               0.313636532               0.113053931               0.000000000               0.336931966               0.122359690               0.000000000               0.360227399               0.131665448               0.000000000               0.383522833               0.140971207               0.000000000               0.406818266               0.150276966               0.000000000               0.430113700               0.159582724               0.000000000               0.453409133               0.168888483               0.000000000               0.476704567               0.178194241               0.000000000               0.500000000               0.187500000               0.000000000               0.122875978               0.050896897               0.000000000               0.146446229               0.063340840               0.000000000               0.170016481               0.075784784               0.000000000               0.193586732               0.088228728               0.000000000               0.217156983               0.100672672               0.000000000               0.240727235               0.113116616               0.000000000               0.264297486               0.125560560               0.000000000               0.287867738               0.138004504               0.000000000               0.311437989               0.150448448               0.000000000               0.335008240               0.162892392               0.000000000               0.358578492               0.175336336               0.000000000               0.382148743               0.187780280               0.000000000               0.405718994               0.200224224               0.000000000               0.429289246               0.212668168               0.000000000               0.452859497               0.225112112               0.000000000               0.476429749               0.237556056               0.000000000               0.500000000               0.250000000               0.000000000               0.117295528               0.062695766               0.000000000               0.141214558               0.078308531               0.000000000               0.165133587               0.093921295               0.000000000               0.189052617               0.109534060               0.000000000               0.212971646               0.125146824               0.000000000               0.236890676               0.140759589               0.000000000               0.260809705               0.156372354               0.000000000               0.284728735               0.171985118               0.000000000               0.308647764               0.187597883               0.000000000               0.332566794               0.203210648               0.000000000               0.356485823               0.218823412               0.000000000               0.380404853               0.234436177               0.000000000               0.404323882               0.250048941               0.000000000               0.428242912               0.265661706               0.000000000               0.452161941               0.281274471               0.000000000               0.476080971               0.296887235               0.000000000               0.500000000               0.312500000               0.000000000               0.110585458               0.073890841               0.000000000               0.134923867               0.092710163               0.000000000               0.159262276               0.111529486               0.000000000               0.183600685               0.130348808               0.000000000               0.207939094               0.149168131               0.000000000               0.232277503               0.167987453               0.000000000               0.256615912               0.186806776               0.000000000               0.280954320               0.205626098               0.000000000               0.305292729               0.224445420               0.000000000               0.329631138               0.243264743               0.000000000               0.353969547               0.262084065               0.000000000               0.378307956               0.280903388               0.000000000               0.402646365               0.299722710               0.000000000               0.426984773               0.318542033               0.000000000               0.451323182               0.337361355               0.000000000               0.475661591               0.356180678               0.000000000               0.500000000               0.375000000               0.000000000               0.102810390               0.084374307               0.000000000               0.127634741               0.106444663               0.000000000               0.152459092               0.128515018               0.000000000               0.177283442               0.150585374               0.000000000               0.202107793               0.172655730               0.000000000               0.226932143               0.194726086               0.000000000               0.251756494               0.216796442               0.000000000               0.276580845               0.238866798               0.000000000               0.301405195               0.260937153               0.000000000               0.326229546               0.283007509               0.000000000               0.351053896               0.305077865               0.000000000               0.375878247               0.327148221               0.000000000               0.400702598               0.349218577               0.000000000               0.425526948               0.371288933               0.000000000               0.450351299               0.393359288               0.000000000               0.475175649               0.415429644               0.000000000               0.500000000               0.437500000               0.000000000               0.094045202               0.094045202               0.000000000               0.119417377               0.119417377               0.000000000               0.144789552               0.144789552               0.000000000               0.170161727               0.170161727               0.000000000               0.195533901               0.195533901               0.000000000               0.220906076               0.220906076               0.000000000               0.246278251               0.246278251               0.000000000               0.271650426               0.271650426               0.000000000               0.297022601               0.297022601               0.000000000               0.322394776               0.322394776               0.000000000               0.347766951               0.347766951               0.000000000               0.373139126               0.373139126               0.000000000               0.398511300               0.398511300               0.000000000               0.423883475               0.423883475               0.000000000               0.449255650               0.449255650               0.000000000               0.474627825               0.474627825               0.000000000               0.500000000               0.500000000               0.000000000               0.084374307               0.102810390               0.000000000               0.106444663               0.127634741               0.000000000               0.128515018               0.152459092               0.000000000               0.150585374               0.177283442               0.000000000               0.172655730               0.202107793               0.000000000               0.194726086               0.226932143               0.000000000               0.216796442               0.251756494               0.000000000               0.238866798               0.276580845               0.000000000               0.260937153               0.301405195               0.000000000               0.283007509               0.326229546               0.000000000               0.305077865               0.351053896               0.000000000               0.327148221               0.375878247               0.000000000               0.349218577               0.400702598               0.000000000               0.371288933               0.425526948               0.000000000               0.393359288               0.450351299               0.000000000               0.415429644               0.475175649               0.000000000               0.437500000               0.500000000               0.000000000               0.073890841               0.110585458               0.000000000               0.092710163               0.134923867               0.000000000               0.111529486               0.159262276               0.000000000               0.130348808               0.183600685               0.000000000               0.149168131               0.207939094               0.000000000               0.167987453               0.232277503               0.000000000               0.186806776               0.256615912               0.000000000               0.205626098               0.280954320               0.000000000               0.224445420               0.305292729               0.000000000               0.243264743               0.329631138               0.000000000               0.262084065               0.353969547               0.000000000               0.280903388               0.378307956               0.000000000               0.299722710               0.402646365               0.000000000               0.318542033               0.426984773               0.000000000               0.337361355               0.451323182               0.000000000               0.356180678               0.475661591               0.000000000               0.375000000               0.500000000               0.000000000               0.062695766               0.117295528               0.000000000               0.078308531               0.141214558               0.000000000               0.093921295               0.165133587               0.000000000               0.109534060               0.189052617               0.000000000               0.125146824               0.212971646               0.000000000               0.140759589               0.236890676               0.000000000               0.156372354               0.260809705               0.000000000               0.171985118               0.284728735               0.000000000               0.187597883               0.308647764               0.000000000               0.203210648               0.332566794               0.000000000               0.218823412               0.356485823               0.000000000               0.234436177               0.380404853               0.000000000               0.250048941               0.404323882               0.000000000               0.265661706               0.428242912               0.000000000               0.281274471               0.452161941               0.000000000               0.296887235               0.476080971               0.000000000               0.312500000               0.500000000               0.000000000               0.050896897               0.122875978               0.000000000               0.063340840               0.146446229               0.000000000               0.075784784               0.170016481               0.000000000               0.088228728               0.193586732               0.000000000               0.100672672               0.217156983               0.000000000               0.113116616               0.240727235               0.000000000               0.125560560               0.264297486               0.000000000               0.138004504               0.287867738               0.000000000               0.150448448               0.311437989               0.000000000               0.162892392               0.335008240               0.000000000               0.175336336               0.358578492               0.000000000               0.187780280               0.382148743               0.000000000               0.200224224               0.405718994               0.000000000               0.212668168               0.429289246               0.000000000               0.225112112               0.452859497               0.000000000               0.237556056               0.476429749               0.000000000               0.250000000               0.500000000               0.000000000               0.038607862               0.127273065               0.000000000               0.047913621               0.150568498               0.000000000               0.057219379               0.173863932               0.000000000               0.066525138               0.197159365               0.000000000               0.075830897               0.220454798               0.000000000               0.085136655               0.243750232               0.000000000               0.094442414               0.267045665               0.000000000               0.103748172               0.290341099               0.000000000               0.113053931               0.313636532               0.000000000               0.122359690               0.336931966               0.000000000               0.131665448               0.360227399               0.000000000               0.140971207               0.383522833               0.000000000               0.150276966               0.406818266               0.000000000               0.159582724               0.430113700               0.000000000               0.168888483               0.453409133               0.000000000               0.178194241               0.476704567               0.000000000               0.187500000               0.500000000               0.000000000               0.025947013               0.130444442               0.000000000               0.032137825               0.153541665               0.000000000               0.038328636               0.176638887               0.000000000               0.044519448               0.199736109               0.000000000               0.050710260               0.222833332               0.000000000               0.056901071               0.245930554               0.000000000               0.063091883               0.269027776               0.000000000               0.069282695               0.292124999               0.000000000               0.075473506               0.315222221               0.000000000               0.081664318               0.338319444               0.000000000               0.087855130               0.361416666               0.000000000               0.094045942               0.384513888               0.000000000               0.100236753               0.407611111               0.000000000               0.106427565               0.430708333               0.000000000               0.112618377               0.453805555               0.000000000               0.118809188               0.476902778               0.000000000               0.125000000               0.500000000               0.000000000               0.013036280               0.132359569               0.000000000               0.016127762               0.155337096               0.000000000               0.019219245               0.178314623               0.000000000               0.022310727               0.201292150               0.000000000               0.025402210               0.224269676               0.000000000               0.028493692               0.247247203               0.000000000               0.031585175               0.270224730               0.000000000               0.034676657               0.293202257               0.000000000               0.037768140               0.316179784               0.000000000               0.040859622               0.339157311               0.000000000               0.043951105               0.362134838               0.000000000               0.047042587               0.385112365               0.000000000               0.050134070               0.408089892               0.000000000               0.053225552               0.431067419               0.000000000               0.056317035               0.454044946               0.000000000               0.059408517               0.477022473               0.000000000               0.062500000               0.500000000               0.000000000               0.000000000               0.133000000               0.000000000               0.000000000               0.155937500               0.000000000               0.000000000               0.178875000               0.000000000               0.000000000               0.201812500               0.000000000               0.000000000               0.224750000               0.000000000               0.000000000               0.247687500               0.000000000               0.000000000               0.270625000               0.000000000               0.000000000               0.293562500               0.000000000               0.000000000               0.316500000               0.000000000               0.000000000               0.339437500               0.000000000               0.000000000               0.362375000               0.000000000               0.000000000               0.385312500               0.000000000               0.000000000               0.408250000               0.000000000               0.000000000               0.431187500               0.000000000               0.000000000               0.454125000               0.000000000               0.000000000               0.477062500               0.000000000               0.000000000               0.500000000               0.000000000               0.133000000               0.000000000               0.000000000               0.155937500               0.000000000               0.000000000               0.178875000               0.000000000               0.000000000               0.201812500               0.000000000               0.000000000               0.224750000               0.000000000               0.000000000               0.247687500               0.000000000               0.000000000               0.270625000               0.000000000               0.000000000               0.293562500               0.000000000               0.000000000               0.316500000               0.000000000               0.000000000               0.339437500               0.000000000               0.000000000               0.362375000               0.000000000               0.000000000               0.385312500               0.000000000               0.000000000               0.408250000               0.000000000               0.000000000               0.431187500               0.000000000               0.000000000               0.454125000               0.000000000               0.000000000               0.477062500               0.000000000               0.000000000               0.500000000               0.000000000               0.000000000               0.132359569              -0.013036280               0.000000000               0.155337096              -0.016127762               0.000000000               0.178314623              -0.019219245               0.000000000               0.201292150              -0.022310727               0.000000000               0.224269676              -0.025402210               0.000000000               0.247247203              -0.028493692               0.000000000               0.270224730              -0.031585175               0.000000000               0.293202257              -0.034676657               0.000000000               0.316179784              -0.037768140               0.000000000               0.339157311              -0.040859622               0.000000000               0.362134838              -0.043951105               0.000000000               0.385112365              -0.047042587               0.000000000               0.408089892              -0.050134070               0.000000000               0.431067419              -0.053225552               0.000000000               0.454044946              -0.056317035               0.000000000               0.477022473              -0.059408517               0.000000000               0.500000000              -0.062500000               0.000000000               0.130444442              -0.025947013               0.000000000               0.153541665              -0.032137825               0.000000000               0.176638887              -0.038328636               0.000000000               0.199736109              -0.044519448               0.000000000               0.222833332              -0.050710260               0.000000000               0.245930554              -0.056901071               0.000000000               0.269027776              -0.063091883               0.000000000               0.292124999              -0.069282695               0.000000000               0.315222221              -0.075473506               0.000000000               0.338319444              -0.081664318               0.000000000               0.361416666              -0.087855130               0.000000000               0.384513888              -0.094045942               0.000000000               0.407611111              -0.100236753               0.000000000               0.430708333              -0.106427565               0.000000000               0.453805555              -0.112618377               0.000000000               0.476902778              -0.118809188               0.000000000               0.500000000              -0.125000000               0.000000000               0.127273065              -0.038607862               0.000000000               0.150568498              -0.047913621               0.000000000               0.173863932              -0.057219379               0.000000000               0.197159365              -0.066525138               0.000000000               0.220454798              -0.075830897               0.000000000               0.243750232              -0.085136655               0.000000000               0.267045665              -0.094442414               0.000000000               0.290341099              -0.103748172               0.000000000               0.313636532              -0.113053931               0.000000000               0.336931966              -0.122359690               0.000000000               0.360227399              -0.131665448               0.000000000               0.383522833              -0.140971207               0.000000000               0.406818266              -0.150276966               0.000000000               0.430113700              -0.159582724               0.000000000               0.453409133              -0.168888483               0.000000000               0.476704567              -0.178194241               0.000000000               0.500000000              -0.187500000               0.000000000               0.122875978              -0.050896897               0.000000000               0.146446229              -0.063340840               0.000000000               0.170016481              -0.075784784               0.000000000               0.193586732              -0.088228728               0.000000000               0.217156983              -0.100672672               0.000000000               0.240727235              -0.113116616               0.000000000               0.264297486              -0.125560560               0.000000000               0.287867738              -0.138004504               0.000000000               0.311437989              -0.150448448               0.000000000               0.335008240              -0.162892392               0.000000000               0.358578492              -0.175336336               0.000000000               0.382148743              -0.187780280               0.000000000               0.405718994              -0.200224224               0.000000000               0.429289246              -0.212668168               0.000000000               0.452859497              -0.225112112               0.000000000               0.476429749              -0.237556056               0.000000000               0.500000000              -0.250000000               0.000000000               0.117295528              -0.062695766               0.000000000               0.141214558              -0.078308531               0.000000000               0.165133587              -0.093921295               0.000000000               0.189052617              -0.109534060               0.000000000               0.212971646              -0.125146824               0.000000000               0.236890676              -0.140759589               0.000000000               0.260809705              -0.156372354               0.000000000               0.284728735              -0.171985118               0.000000000               0.308647764              -0.187597883               0.000000000               0.332566794              -0.203210648               0.000000000               0.356485823              -0.218823412               0.000000000               0.380404853              -0.234436177               0.000000000               0.404323882              -0.250048941               0.000000000               0.428242912              -0.265661706               0.000000000               0.452161941              -0.281274471               0.000000000               0.476080971              -0.296887235               0.000000000               0.500000000              -0.312500000               0.000000000               0.110585458              -0.073890841               0.000000000               0.134923867              -0.092710163               0.000000000               0.159262276              -0.111529486               0.000000000               0.183600685              -0.130348808               0.000000000               0.207939094              -0.149168131               0.000000000               0.232277503              -0.167987453               0.000000000               0.256615912              -0.186806776               0.000000000               0.280954320              -0.205626098               0.000000000               0.305292729              -0.224445420               0.000000000               0.329631138              -0.243264743               0.000000000               0.353969547              -0.262084065               0.000000000               0.378307956              -0.280903388               0.000000000               0.402646365              -0.299722710               0.000000000               0.426984773              -0.318542033               0.000000000               0.451323182              -0.337361355               0.000000000               0.475661591              -0.356180678               0.000000000               0.500000000              -0.375000000               0.000000000               0.102810390              -0.084374307               0.000000000               0.127634741              -0.106444663               0.000000000               0.152459092              -0.128515018               0.000000000               0.177283442              -0.150585374               0.000000000               0.202107793              -0.172655730               0.000000000               0.226932143              -0.194726086               0.000000000               0.251756494              -0.216796442               0.000000000               0.276580845              -0.238866798               0.000000000               0.301405195              -0.260937153               0.000000000               0.326229546              -0.283007509               0.000000000               0.351053896              -0.305077865               0.000000000               0.375878247              -0.327148221               0.000000000               0.400702598              -0.349218577               0.000000000               0.425526948              -0.371288933               0.000000000               0.450351299              -0.393359288               0.000000000               0.475175649              -0.415429644               0.000000000               0.500000000              -0.437500000               0.000000000               0.094045202              -0.094045202               0.000000000               0.119417377              -0.119417377               0.000000000               0.144789552              -0.144789552               0.000000000               0.170161727              -0.170161727               0.000000000               0.195533901              -0.195533901               0.000000000               0.220906076              -0.220906076               0.000000000               0.246278251              -0.246278251               0.000000000               0.271650426              -0.271650426               0.000000000               0.297022601              -0.297022601               0.000000000               0.322394776              -0.322394776               0.000000000               0.347766951              -0.347766951               0.000000000               0.373139126              -0.373139126               0.000000000               0.398511300              -0.398511300               0.000000000               0.423883475              -0.423883475               0.000000000               0.449255650              -0.449255650               0.000000000               0.474627825              -0.474627825               0.000000000               0.500000000              -0.500000000               0.000000000               0.084374307              -0.102810390               0.000000000               0.106444663              -0.127634741               0.000000000               0.128515018              -0.152459092               0.000000000               0.150585374              -0.177283442               0.000000000               0.172655730              -0.202107793               0.000000000               0.194726086              -0.226932143               0.000000000               0.216796442              -0.251756494               0.000000000               0.238866798              -0.276580845               0.000000000               0.260937153              -0.301405195               0.000000000               0.283007509              -0.326229546               0.000000000               0.305077865              -0.351053896               0.000000000               0.327148221              -0.375878247               0.000000000               0.349218577              -0.400702598               0.000000000               0.371288933              -0.425526948               0.000000000               0.393359288              -0.450351299               0.000000000               0.415429644              -0.475175649               0.000000000               0.437500000              -0.500000000               0.000000000               0.073890841              -0.110585458               0.000000000               0.092710163              -0.134923867               0.000000000               0.111529486              -0.159262276               0.000000000               0.130348808              -0.183600685               0.000000000               0.149168131              -0.207939094               0.000000000               0.167987453              -0.232277503               0.000000000               0.186806776              -0.256615912               0.000000000               0.205626098              -0.280954320               0.000000000               0.224445420              -0.305292729               0.000000000               0.243264743              -0.329631138               0.000000000               0.262084065              -0.353969547               0.000000000               0.280903388              -0.378307956               0.000000000               0.299722710              -0.402646365               0.000000000               0.318542033              -0.426984773               0.000000000               0.337361355              -0.451323182               0.000000000               0.356180678              -0.475661591               0.000000000               0.375000000              -0.500000000               0.000000000               0.062695766              -0.117295528               0.000000000               0.078308531              -0.141214558               0.000000000               0.093921295              -0.165133587               0.000000000               0.109534060              -0.189052617               0.000000000               0.125146824              -0.212971646               0.000000000               0.140759589              -0.236890676               0.000000000               0.156372354              -0.260809705               0.000000000               0.171985118              -0.284728735               0.000000000               0.187597883              -0.308647764               0.000000000               0.203210648              -0.332566794               0.000000000               0.218823412              -0.356485823               0.000000000               0.234436177              -0.380404853               0.000000000               0.250048941              -0.404323882               0.000000000               0.265661706              -0.428242912               0.000000000               0.281274471              -0.452161941               0.000000000               0.296887235              -0.476080971               0.000000000               0.312500000              -0.500000000               0.000000000               0.050896897              -0.122875978               0.000000000               0.063340840              -0.146446229               0.000000000               0.075784784              -0.170016481               0.000000000               0.088228728              -0.193586732               0.000000000               0.100672672              -0.217156983               0.000000000               0.113116616              -0.240727235               0.000000000               0.125560560              -0.264297486               0.000000000               0.138004504              -0.287867738               0.000000000               0.150448448              -0.311437989               0.000000000               0.162892392              -0.335008240               0.000000000               0.175336336              -0.358578492               0.000000000               0.187780280              -0.382148743               0.000000000               0.200224224              -0.405718994               0.000000000               0.212668168              -0.429289246               0.000000000               0.225112112              -0.452859497               0.000000000               0.237556056              -0.476429749               0.000000000               0.250000000              -0.500000000               0.000000000               0.038607862              -0.127273065               0.000000000               0.047913621              -0.150568498               0.000000000               0.057219379              -0.173863932               0.000000000               0.066525138              -0.197159365               0.000000000               0.075830897              -0.220454798               0.000000000               0.085136655              -0.243750232               0.000000000               0.094442414              -0.267045665               0.000000000               0.103748172              -0.290341099               0.000000000               0.113053931              -0.313636532               0.000000000               0.122359690              -0.336931966               0.000000000               0.131665448              -0.360227399               0.000000000               0.140971207              -0.383522833               0.000000000               0.150276966              -0.406818266               0.000000000               0.159582724              -0.430113700               0.000000000               0.168888483              -0.453409133               0.000000000               0.178194241              -0.476704567               0.000000000               0.187500000              -0.500000000               0.000000000               0.025947013              -0.130444442               0.000000000               0.032137825              -0.153541665               0.000000000               0.038328636              -0.176638887               0.000000000               0.044519448              -0.199736109               0.000000000               0.050710260              -0.222833332               0.000000000               0.056901071              -0.245930554               0.000000000               0.063091883              -0.269027776               0.000000000               0.069282695              -0.292124999               0.000000000               0.075473506              -0.315222221               0.000000000               0.081664318              -0.338319444               0.000000000               0.087855130              -0.361416666               0.000000000               0.094045942              -0.384513888               0.000000000               0.100236753              -0.407611111               0.000000000               0.106427565              -0.430708333               0.000000000               0.112618377              -0.453805555               0.000000000               0.118809188              -0.476902778               0.000000000               0.125000000              -0.500000000               0.000000000               0.013036280              -0.132359569               0.000000000               0.016127762              -0.155337096               0.000000000               0.019219245              -0.178314623               0.000000000               0.022310727              -0.201292150               0.000000000               0.025402210              -0.224269676               0.000000000               0.028493692              -0.247247203               0.000000000               0.031585175              -0.270224730               0.000000000               0.034676657              -0.293202257               0.000000000               0.037768140              -0.316179784               0.000000000               0.040859622              -0.339157311               0.000000000               0.043951105              -0.362134838               0.000000000               0.047042587              -0.385112365               0.000000000               0.050134070              -0.408089892               0.000000000               0.053225552              -0.431067419               0.000000000               0.056317035              -0.454044946               0.000000000               0.059408517              -0.477022473               0.000000000               0.062500000              -0.500000000               0.000000000               0.000000000              -0.133000000               0.000000000               0.000000000              -0.155937500               0.000000000               0.000000000              -0.178875000               0.000000000               0.000000000              -0.201812500               0.000000000               0.000000000              -0.224750000               0.000000000               0.000000000              -0.247687500               0.000000000               0.000000000              -0.270625000               0.000000000               0.000000000              -0.293562500               0.000000000               0.000000000              -0.316500000               0.000000000               0.000000000              -0.339437500               0.000000000               0.000000000              -0.362375000               0.000000000               0.000000000              -0.385312500               0.000000000               0.000000000              -0.408250000               0.000000000               0.000000000              -0.431187500               0.000000000               0.000000000              -0.454125000               0.000000000               0.000000000              -0.477062500               0.000000000               0.000000000              -0.500000000               0.000000000              -0.133000000               0.000000000               0.000000000              -0.155937500               0.000000000               0.000000000              -0.178875000               0.000000000               0.000000000              -0.201812500               0.000000000               0.000000000              -0.224750000               0.000000000               0.000000000              -0.247687500               0.000000000               0.000000000              -0.270625000               0.000000000               0.000000000              -0.293562500               0.000000000               0.000000000              -0.316500000               0.000000000               0.000000000              -0.339437500               0.000000000               0.000000000              -0.362375000               0.000000000               0.000000000              -0.385312500               0.000000000               0.000000000              -0.408250000               0.000000000               0.000000000              -0.431187500               0.000000000               0.000000000              -0.454125000               0.000000000               0.000000000              -0.477062500               0.000000000               0.000000000              -0.500000000               0.000000000               0.000000000              -0.132359569              -0.013036280               0.000000000              -0.155337096              -0.016127762               0.000000000              -0.178314623              -0.019219245               0.000000000              -0.201292150              -0.022310727               0.000000000              -0.224269676              -0.025402210               0.000000000              -0.247247203              -0.028493692               0.000000000              -0.270224730              -0.031585175               0.000000000              -0.293202257              -0.034676657               0.000000000              -0.316179784              -0.037768140               0.000000000              -0.339157311              -0.040859622               0.000000000              -0.362134838              -0.043951105               0.000000000              -0.385112365              -0.047042587               0.000000000              -0.408089892              -0.050134070               0.000000000              -0.431067419              -0.053225552               0.000000000              -0.454044946              -0.056317035               0.000000000              -0.477022473              -0.059408517               0.000000000              -0.500000000              -0.062500000               0.000000000              -0.130444442              -0.025947013               0.000000000              -0.153541665              -0.032137825               0.000000000              -0.176638887              -0.038328636               0.000000000              -0.199736109              -0.044519448               0.000000000              -0.222833332              -0.050710260               0.000000000              -0.245930554              -0.056901071               0.000000000              -0.269027776              -0.063091883               0.000000000              -0.292124999              -0.069282695               0.000000000              -0.315222221              -0.075473506               0.000000000              -0.338319444              -0.081664318               0.000000000              -0.361416666              -0.087855130               0.000000000              -0.384513888              -0.094045942               0.000000000              -0.407611111              -0.100236753               0.000000000              -0.430708333              -0.106427565               0.000000000              -0.453805555              -0.112618377               0.000000000              -0.476902778              -0.118809188               0.000000000              -0.500000000              -0.125000000               0.000000000              -0.127273065              -0.038607862               0.000000000              -0.150568498              -0.047913621               0.000000000              -0.173863932              -0.057219379               0.000000000              -0.197159365              -0.066525138               0.000000000              -0.220454798              -0.075830897               0.000000000              -0.243750232              -0.085136655               0.000000000              -0.267045665              -0.094442414               0.000000000              -0.290341099              -0.103748172               0.000000000              -0.313636532              -0.113053931               0.000000000              -0.336931966              -0.122359690               0.000000000              -0.360227399              -0.131665448               0.000000000              -0.383522833              -0.140971207               0.000000000              -0.406818266              -0.150276966               0.000000000              -0.430113700              -0.159582724               0.000000000              -0.453409133              -0.168888483               0.000000000              -0.476704567              -0.178194241               0.000000000              -0.500000000              -0.187500000               0.000000000              -0.122875978              -0.050896897               0.000000000              -0.146446229              -0.063340840               0.000000000              -0.170016481              -0.075784784               0.000000000              -0.193586732              -0.088228728               0.000000000              -0.217156983              -0.100672672               0.000000000              -0.240727235              -0.113116616               0.000000000              -0.264297486              -0.125560560               0.000000000              -0.287867738              -0.138004504               0.000000000              -0.311437989              -0.150448448               0.000000000              -0.335008240              -0.162892392               0.000000000              -0.358578492              -0.175336336               0.000000000              -0.382148743              -0.187780280               0.000000000              -0.405718994              -0.200224224               0.000000000              -0.429289246              -0.212668168               0.000000000              -0.452859497              -0.225112112               0.000000000              -0.476429749              -0.237556056               0.000000000              -0.500000000              -0.250000000               0.000000000              -0.117295528              -0.062695766               0.000000000              -0.141214558              -0.078308531               0.000000000              -0.165133587              -0.093921295               0.000000000              -0.189052617              -0.109534060               0.000000000              -0.212971646              -0.125146824               0.000000000              -0.236890676              -0.140759589               0.000000000              -0.260809705              -0.156372354               0.000000000              -0.284728735              -0.171985118               0.000000000              -0.308647764              -0.187597883               0.000000000              -0.332566794              -0.203210648               0.000000000              -0.356485823              -0.218823412               0.000000000              -0.380404853              -0.234436177               0.000000000              -0.404323882              -0.250048941               0.000000000              -0.428242912              -0.265661706               0.000000000              -0.452161941              -0.281274471               0.000000000              -0.476080971              -0.296887235               0.000000000              -0.500000000              -0.312500000               0.000000000              -0.110585458              -0.073890841               0.000000000              -0.134923867              -0.092710163               0.000000000              -0.159262276              -0.111529486               0.000000000              -0.183600685              -0.130348808               0.000000000              -0.207939094              -0.149168131               0.000000000              -0.232277503              -0.167987453               0.000000000              -0.256615912              -0.186806776               0.000000000              -0.280954320              -0.205626098               0.000000000              -0.305292729              -0.224445420               0.000000000              -0.329631138              -0.243264743               0.000000000              -0.353969547              -0.262084065               0.000000000              -0.378307956              -0.280903388               0.000000000              -0.402646365              -0.299722710               0.000000000              -0.426984773              -0.318542033               0.000000000              -0.451323182              -0.337361355               0.000000000              -0.475661591              -0.356180678               0.000000000              -0.500000000              -0.375000000               0.000000000              -0.102810390              -0.084374307               0.000000000              -0.127634741              -0.106444663               0.000000000              -0.152459092              -0.128515018               0.000000000              -0.177283442              -0.150585374               0.000000000              -0.202107793              -0.172655730               0.000000000              -0.226932143              -0.194726086               0.000000000              -0.251756494              -0.216796442               0.000000000              -0.276580845              -0.238866798               0.000000000              -0.301405195              -0.260937153               0.000000000              -0.326229546              -0.283007509               0.000000000              -0.351053896              -0.305077865               0.000000000              -0.375878247              -0.327148221               0.000000000              -0.400702598              -0.349218577               0.000000000              -0.425526948              -0.371288933               0.000000000              -0.450351299              -0.393359288               0.000000000              -0.475175649              -0.415429644               0.000000000              -0.500000000              -0.437500000               0.000000000              -0.094045202              -0.094045202               0.000000000              -0.119417377              -0.119417377               0.000000000              -0.144789552              -0.144789552               0.000000000              -0.170161727              -0.170161727               0.000000000              -0.195533901              -0.195533901               0.000000000              -0.220906076              -0.220906076               0.000000000              -0.246278251              -0.246278251               0.000000000              -0.271650426              -0.271650426               0.000000000              -0.297022601              -0.297022601               0.000000000              -0.322394776              -0.322394776               0.000000000              -0.347766951              -0.347766951               0.000000000              -0.373139126              -0.373139126               0.000000000              -0.398511300              -0.398511300               0.000000000              -0.423883475              -0.423883475               0.000000000              -0.449255650              -0.449255650               0.000000000              -0.474627825              -0.474627825               0.000000000              -0.500000000              -0.500000000               0.000000000              -0.084374307              -0.102810390               0.000000000              -0.106444663              -0.127634741               0.000000000              -0.128515018              -0.152459092               0.000000000              -0.150585374              -0.177283442               0.000000000              -0.172655730              -0.202107793               0.000000000              -0.194726086              -0.226932143               0.000000000              -0.216796442              -0.251756494               0.000000000              -0.238866798              -0.276580845               0.000000000              -0.260937153              -0.301405195               0.000000000              -0.283007509              -0.326229546               0.000000000              -0.305077865              -0.351053896               0.000000000              -0.327148221              -0.375878247               0.000000000              -0.349218577              -0.400702598               0.000000000              -0.371288933              -0.425526948               0.000000000              -0.393359288              -0.450351299               0.000000000              -0.415429644              -0.475175649               0.000000000              -0.437500000              -0.500000000               0.000000000              -0.073890841              -0.110585458               0.000000000              -0.092710163              -0.134923867               0.000000000              -0.111529486              -0.159262276               0.000000000              -0.130348808              -0.183600685               0.000000000              -0.149168131              -0.207939094               0.000000000              -0.167987453              -0.232277503               0.000000000              -0.186806776              -0.256615912               0.000000000              -0.205626098              -0.280954320               0.000000000              -0.224445420              -0.305292729               0.000000000              -0.243264743              -0.329631138               0.000000000              -0.262084065              -0.353969547               0.000000000              -0.280903388              -0.378307956               0.000000000              -0.299722710              -0.402646365               0.000000000              -0.318542033              -0.426984773               0.000000000              -0.337361355              -0.451323182               0.000000000              -0.356180678              -0.475661591               0.000000000              -0.375000000              -0.500000000               0.000000000              -0.062695766              -0.117295528               0.000000000              -0.078308531              -0.141214558               0.000000000              -0.093921295              -0.165133587               0.000000000              -0.109534060              -0.189052617               0.000000000              -0.125146824              -0.212971646               0.000000000              -0.140759589              -0.236890676               0.000000000              -0.156372354              -0.260809705               0.000000000              -0.171985118              -0.284728735               0.000000000              -0.187597883              -0.308647764               0.000000000              -0.203210648              -0.332566794               0.000000000              -0.218823412              -0.356485823               0.000000000              -0.234436177              -0.380404853               0.000000000              -0.250048941              -0.404323882               0.000000000              -0.265661706              -0.428242912               0.000000000              -0.281274471              -0.452161941               0.000000000              -0.296887235              -0.476080971               0.000000000              -0.312500000              -0.500000000               0.000000000              -0.050896897              -0.122875978               0.000000000              -0.063340840              -0.146446229               0.000000000              -0.075784784              -0.170016481               0.000000000              -0.088228728              -0.193586732               0.000000000              -0.100672672              -0.217156983               0.000000000              -0.113116616              -0.240727235               0.000000000              -0.125560560              -0.264297486               0.000000000              -0.138004504              -0.287867738               0.000000000              -0.150448448              -0.311437989               0.000000000              -0.162892392              -0.335008240               0.000000000              -0.175336336              -0.358578492               0.000000000              -0.187780280              -0.382148743               0.000000000              -0.200224224              -0.405718994               0.000000000              -0.212668168              -0.429289246               0.000000000              -0.225112112              -0.452859497               0.000000000              -0.237556056              -0.476429749               0.000000000              -0.250000000              -0.500000000               0.000000000              -0.038607862              -0.127273065               0.000000000              -0.047913621              -0.150568498               0.000000000              -0.057219379              -0.173863932               0.000000000              -0.066525138              -0.197159365               0.000000000              -0.075830897              -0.220454798               0.000000000              -0.085136655              -0.243750232               0.000000000              -0.094442414              -0.267045665               0.000000000              -0.103748172              -0.290341099               0.000000000              -0.113053931              -0.313636532               0.000000000              -0.122359690              -0.336931966               0.000000000              -0.131665448              -0.360227399               0.000000000              -0.140971207              -0.383522833               0.000000000              -0.150276966              -0.406818266               0.000000000              -0.159582724              -0.430113700               0.000000000              -0.168888483              -0.453409133               0.000000000              -0.178194241              -0.476704567               0.000000000              -0.187500000              -0.500000000               0.000000000              -0.025947013              -0.130444442               0.000000000              -0.032137825              -0.153541665               0.000000000              -0.038328636              -0.176638887               0.000000000              -0.044519448              -0.199736109               0.000000000              -0.050710260              -0.222833332               0.000000000              -0.056901071              -0.245930554               0.000000000              -0.063091883              -0.269027776               0.000000000              -0.069282695              -0.292124999               0.000000000              -0.075473506              -0.315222221               0.000000000              -0.081664318              -0.338319444               0.000000000              -0.087855130              -0.361416666               0.000000000              -0.094045942              -0.384513888               0.000000000              -0.100236753              -0.407611111               0.000000000              -0.106427565              -0.430708333               0.000000000              -0.112618377              -0.453805555               0.000000000              -0.118809188              -0.476902778               0.000000000              -0.125000000              -0.500000000               0.000000000              -0.013036280              -0.132359569               0.000000000              -0.016127762              -0.155337096               0.000000000              -0.019219245              -0.178314623               0.000000000              -0.022310727              -0.201292150               0.000000000              -0.025402210              -0.224269676               0.000000000              -0.028493692              -0.247247203               0.000000000              -0.031585175              -0.270224730               0.000000000              -0.034676657              -0.293202257               0.000000000              -0.037768140              -0.316179784               0.000000000              -0.040859622              -0.339157311               0.000000000              -0.043951105              -0.362134838               0.000000000              -0.047042587              -0.385112365               0.000000000              -0.050134070              -0.408089892               0.000000000              -0.053225552              -0.431067419               0.000000000              -0.056317035              -0.454044946               0.000000000              -0.059408517              -0.477022473               0.000000000              -0.062500000              -0.500000000               0.000000000               0.000000000              -0.133000000               0.000000000               0.000000000              -0.155937500               0.000000000               0.000000000              -0.178875000               0.000000000               0.000000000              -0.201812500               0.000000000               0.000000000              -0.224750000               0.000000000               0.000000000              -0.247687500               0.000000000               0.000000000              -0.270625000               0.000000000               0.000000000              -0.293562500               0.000000000               0.000000000              -0.316500000               0.000000000               0.000000000              -0.339437500               0.000000000               0.000000000              -0.362375000               0.000000000               0.000000000              -0.385312500               0.000000000               0.000000000              -0.408250000               0.000000000               0.000000000              -0.431187500               0.000000000               0.000000000              -0.454125000               0.000000000               0.000000000              -0.477062500               0.000000000               0.000000000              -0.500000000               0.000000000              -0.133000000               0.000000000               0.000000000              -0.155937500               0.000000000               0.000000000              -0.178875000               0.000000000               0.000000000              -0.201812500               0.000000000               0.000000000              -0.224750000               0.000000000               0.000000000              -0.247687500               0.000000000               0.000000000              -0.270625000               0.000000000               0.000000000              -0.293562500               0.000000000               0.000000000              -0.316500000               0.000000000               0.000000000              -0.339437500               0.000000000               0.000000000              -0.362375000               0.000000000               0.000000000              -0.385312500               0.000000000               0.000000000              -0.408250000               0.000000000               0.000000000              -0.431187500               0.000000000               0.000000000              -0.454125000               0.000000000               0.000000000              -0.477062500               0.000000000               0.000000000              -0.500000000               0.000000000               0.000000000              -0.132359569               0.013036280               0.000000000              -0.155337096               0.016127762               0.000000000              -0.178314623               0.019219245               0.000000000              -0.201292150               0.022310727               0.000000000              -0.224269676               0.025402210               0.000000000              -0.247247203               0.028493692               0.000000000              -0.270224730               0.031585175               0.000000000              -0.293202257               0.034676657               0.000000000              -0.316179784               0.037768140               0.000000000              -0.339157311               0.040859622               0.000000000              -0.362134838               0.043951105               0.000000000              -0.385112365               0.047042587               0.000000000              -0.408089892               0.050134070               0.000000000              -0.431067419               0.053225552               0.000000000              -0.454044946               0.056317035               0.000000000              -0.477022473               0.059408517               0.000000000              -0.500000000               0.062500000               0.000000000              -0.130444442               0.025947013               0.000000000              -0.153541665               0.032137825               0.000000000              -0.176638887               0.038328636               0.000000000              -0.199736109               0.044519448               0.000000000              -0.222833332               0.050710260               0.000000000              -0.245930554               0.056901071               0.000000000              -0.269027776               0.063091883               0.000000000              -0.292124999               0.069282695               0.000000000              -0.315222221               0.075473506               0.000000000              -0.338319444               0.081664318               0.000000000              -0.361416666               0.087855130               0.000000000              -0.384513888               0.094045942               0.000000000              -0.407611111               0.100236753               0.000000000              -0.430708333               0.106427565               0.000000000              -0.453805555               0.112618377               0.000000000              -0.476902778               0.118809188               0.000000000              -0.500000000               0.125000000               0.000000000              -0.127273065               0.038607862               0.000000000              -0.150568498               0.047913621               0.000000000              -0.173863932               0.057219379               0.000000000              -0.197159365               0.066525138               0.000000000              -0.220454798               0.075830897               0.000000000              -0.243750232               0.085136655               0.000000000              -0.267045665               0.094442414               0.000000000              -0.290341099               0.103748172               0.000000000              -0.313636532               0.113053931               0.000000000              -0.336931966               0.122359690               0.000000000              -0.360227399               0.131665448               0.000000000              -0.383522833               0.140971207               0.000000000              -0.406818266               0.150276966               0.000000000              -0.430113700               0.159582724               0.000000000              -0.453409133               0.168888483               0.000000000              -0.476704567               0.178194241               0.000000000              -0.500000000               0.187500000               0.000000000              -0.122875978               0.050896897               0.000000000              -0.146446229               0.063340840               0.000000000              -0.170016481               0.075784784               0.000000000              -0.193586732               0.088228728               0.000000000              -0.217156983               0.100672672               0.000000000              -0.240727235               0.113116616               0.000000000              -0.264297486               0.125560560               0.000000000              -0.287867738               0.138004504               0.000000000              -0.311437989               0.150448448               0.000000000              -0.335008240               0.162892392               0.000000000              -0.358578492               0.175336336               0.000000000              -0.382148743               0.187780280               0.000000000              -0.405718994               0.200224224               0.000000000              -0.429289246               0.212668168               0.000000000              -0.452859497               0.225112112               0.000000000              -0.476429749               0.237556056               0.000000000              -0.500000000               0.250000000               0.000000000              -0.117295528               0.062695766               0.000000000              -0.141214558               0.078308531               0.000000000              -0.165133587               0.093921295               0.000000000              -0.189052617               0.109534060               0.000000000              -0.212971646               0.125146824               0.000000000              -0.236890676               0.140759589               0.000000000              -0.260809705               0.156372354               0.000000000              -0.284728735               0.171985118               0.000000000              -0.308647764               0.187597883               0.000000000              -0.332566794               0.203210648               0.000000000              -0.356485823               0.218823412               0.000000000              -0.380404853               0.234436177               0.000000000              -0.404323882               0.250048941               0.000000000              -0.428242912               0.265661706               0.000000000              -0.452161941               0.281274471               0.000000000              -0.476080971               0.296887235               0.000000000              -0.500000000               0.312500000               0.000000000              -0.110585458               0.073890841               0.000000000              -0.134923867               0.092710163               0.000000000              -0.159262276               0.111529486               0.000000000              -0.183600685               0.130348808               0.000000000              -0.207939094               0.149168131               0.000000000              -0.232277503               0.167987453               0.000000000              -0.256615912               0.186806776               0.000000000              -0.280954320               0.205626098               0.000000000              -0.305292729               0.224445420               0.000000000              -0.329631138               0.243264743               0.000000000              -0.353969547               0.262084065               0.000000000              -0.378307956               0.280903388               0.000000000              -0.402646365               0.299722710               0.000000000              -0.426984773               0.318542033               0.000000000              -0.451323182               0.337361355               0.000000000              -0.475661591               0.356180678               0.000000000              -0.500000000               0.375000000               0.000000000              -0.102810390               0.084374307               0.000000000              -0.127634741               0.106444663               0.000000000              -0.152459092               0.128515018               0.000000000              -0.177283442               0.150585374               0.000000000              -0.202107793               0.172655730               0.000000000              -0.226932143               0.194726086               0.000000000              -0.251756494               0.216796442               0.000000000              -0.276580845               0.238866798               0.000000000              -0.301405195               0.260937153               0.000000000              -0.326229546               0.283007509               0.000000000              -0.351053896               0.305077865               0.000000000              -0.375878247               0.327148221               0.000000000              -0.400702598               0.349218577               0.000000000              -0.425526948               0.371288933               0.000000000              -0.450351299               0.393359288               0.000000000              -0.475175649               0.415429644               0.000000000              -0.500000000               0.437500000               0.000000000              -0.094045202               0.094045202               0.000000000              -0.119417377               0.119417377               0.000000000              -0.144789552               0.144789552               0.000000000              -0.170161727               0.170161727               0.000000000              -0.195533901               0.195533901               0.000000000              -0.220906076               0.220906076               0.000000000              -0.246278251               0.246278251               0.000000000              -0.271650426               0.271650426               0.000000000              -0.297022601               0.297022601               0.000000000              -0.322394776               0.322394776               0.000000000              -0.347766951               0.347766951               0.000000000              -0.373139126               0.373139126               0.000000000              -0.398511300               0.398511300               0.000000000              -0.423883475               0.423883475               0.000000000              -0.449255650               0.449255650               0.000000000              -0.474627825               0.474627825               0.000000000              -0.500000000               0.500000000               0.000000000              -0.084374307               0.102810390               0.000000000              -0.106444663               0.127634741               0.000000000              -0.128515018               0.152459092               0.000000000              -0.150585374               0.177283442               0.000000000              -0.172655730               0.202107793               0.000000000              -0.194726086               0.226932143               0.000000000              -0.216796442               0.251756494               0.000000000              -0.238866798               0.276580845               0.000000000              -0.260937153               0.301405195               0.000000000              -0.283007509               0.326229546               0.000000000              -0.305077865               0.351053896               0.000000000              -0.327148221               0.375878247               0.000000000              -0.349218577               0.400702598               0.000000000              -0.371288933               0.425526948               0.000000000              -0.393359288               0.450351299               0.000000000              -0.415429644               0.475175649               0.000000000              -0.437500000               0.500000000               0.000000000              -0.073890841               0.110585458               0.000000000              -0.092710163               0.134923867               0.000000000              -0.111529486               0.159262276               0.000000000              -0.130348808               0.183600685               0.000000000              -0.149168131               0.207939094               0.000000000              -0.167987453               0.232277503               0.000000000              -0.186806776               0.256615912               0.000000000              -0.205626098               0.280954320               0.000000000              -0.224445420               0.305292729               0.000000000              -0.243264743               0.329631138               0.000000000              -0.262084065               0.353969547               0.000000000              -0.280903388               0.378307956               0.000000000              -0.299722710               0.402646365               0.000000000              -0.318542033               0.426984773               0.000000000              -0.337361355               0.451323182               0.000000000              -0.356180678               0.475661591               0.000000000              -0.375000000               0.500000000               0.000000000              -0.062695766               0.117295528               0.000000000              -0.078308531               0.141214558               0.000000000              -0.093921295               0.165133587               0.000000000              -0.109534060               0.189052617               0.000000000              -0.125146824               0.212971646               0.000000000              -0.140759589               0.236890676               0.000000000              -0.156372354               0.260809705               0.000000000              -0.171985118               0.284728735               0.000000000              -0.187597883               0.308647764               0.000000000              -0.203210648               0.332566794               0.000000000              -0.218823412               0.356485823               0.000000000              -0.234436177               0.380404853               0.000000000              -0.250048941               0.404323882               0.000000000              -0.265661706               0.428242912               0.000000000              -0.281274471               0.452161941               0.000000000              -0.296887235               0.476080971               0.000000000              -0.312500000               0.500000000               0.000000000              -0.050896897               0.122875978               0.000000000              -0.063340840               0.146446229               0.000000000              -0.075784784               0.170016481               0.000000000              -0.088228728               0.193586732               0.000000000              -0.100672672               0.217156983               0.000000000              -0.113116616               0.240727235               0.000000000              -0.125560560               0.264297486               0.000000000              -0.138004504               0.287867738               0.000000000              -0.150448448               0.311437989               0.000000000              -0.162892392               0.335008240               0.000000000              -0.175336336               0.358578492               0.000000000              -0.187780280               0.382148743               0.000000000              -0.200224224               0.405718994               0.000000000              -0.212668168               0.429289246               0.000000000              -0.225112112               0.452859497               0.000000000              -0.237556056               0.476429749               0.000000000              -0.250000000               0.500000000               0.000000000              -0.038607862               0.127273065               0.000000000              -0.047913621               0.150568498               0.000000000              -0.057219379               0.173863932               0.000000000              -0.066525138               0.197159365               0.000000000              -0.075830897               0.220454798               0.000000000              -0.085136655               0.243750232               0.000000000              -0.094442414               0.267045665               0.000000000              -0.103748172               0.290341099               0.000000000              -0.113053931               0.313636532               0.000000000              -0.122359690               0.336931966               0.000000000              -0.131665448               0.360227399               0.000000000              -0.140971207               0.383522833               0.000000000              -0.150276966               0.406818266               0.000000000              -0.159582724               0.430113700               0.000000000              -0.168888483               0.453409133               0.000000000              -0.178194241               0.476704567               0.000000000              -0.187500000               0.500000000               0.000000000              -0.025947013               0.130444442               0.000000000              -0.032137825               0.153541665               0.000000000              -0.038328636               0.176638887               0.000000000              -0.044519448               0.199736109               0.000000000              -0.050710260               0.222833332               0.000000000              -0.056901071               0.245930554               0.000000000              -0.063091883               0.269027776               0.000000000              -0.069282695               0.292124999               0.000000000              -0.075473506               0.315222221               0.000000000              -0.081664318               0.338319444               0.000000000              -0.087855130               0.361416666               0.000000000              -0.094045942               0.384513888               0.000000000              -0.100236753               0.407611111               0.000000000              -0.106427565               0.430708333               0.000000000              -0.112618377               0.453805555               0.000000000              -0.118809188               0.476902778               0.000000000              -0.125000000               0.500000000               0.000000000              -0.013036280               0.132359569               0.000000000              -0.016127762               0.155337096               0.000000000              -0.019219245               0.178314623               0.000000000              -0.022310727               0.201292150               0.000000000              -0.025402210               0.224269676               0.000000000              -0.028493692               0.247247203               0.000000000              -0.031585175               0.270224730               0.000000000              -0.034676657               0.293202257               0.000000000              -0.037768140               0.316179784               0.000000000              -0.040859622               0.339157311               0.000000000              -0.043951105               0.362134838               0.000000000              -0.047042587               0.385112365               0.000000000              -0.050134070               0.408089892               0.000000000              -0.053225552               0.431067419               0.000000000              -0.056317035               0.454044946               0.000000000              -0.059408517               0.477022473               0.000000000              -0.062500000               0.500000000               0.000000000               0.000000000               0.133000000               0.000000000               0.000000000               0.155937500               0.000000000               0.000000000               0.178875000               0.000000000               0.000000000               0.201812500               0.000000000               0.000000000               0.224750000               0.000000000               0.000000000               0.247687500               0.000000000               0.000000000               0.270625000               0.000000000               0.000000000               0.293562500               0.000000000               0.000000000               0.316500000               0.000000000               0.000000000               0.339437500               0.000000000               0.000000000               0.362375000               0.000000000               0.000000000               0.385312500               0.000000000               0.000000000               0.408250000               0.000000000               0.000000000               0.431187500               0.000000000               0.000000000               0.454125000               0.000000000               0.000000000               0.477062500               0.000000000               0.000000000               0.500000000               0.000000000 </DataArray>
</Points>
<Cells>
<DataArray type="Int32"                                    Name="connectivity"                                                      NumberOfComponents=" 1" format="ascii">
         0          1         18         17          1          2         19         18          2          3         20         19          3          4         21         20          4          5         22         21          5          6         23         22          6          7         24         23          7          8         25         24          8          9         26         25          9         10         27         26         10         11         28         27         11         12         29         28         12         13         30         29         13         14         31         30         14         15         32         31         15         16         33         32         17         18         35         34         18         19         36         35         19         20         37         36         20         21         38         37         21         22         39         38         22         23         40         39         23         24         41         40         24         25         42         41         25         26         43         42         26         27         44         43         27         28         45         44         28         29         46         45         29         30         47         46         30         31         48         47         31         32         49         48         32         33         50         49         34         35         52         51         35         36         53         52         36         37         54         53         37         38         55         54         38         39         56         55         39         40         57         56         40         41         58         57         41         42         59         58         42         43         60         59         43         44         61         60         44         45         62         61         45         46         63         62         46         47         64         63         47         48         65         64         48         49         66         65         49         50         67         66         51         52         69         68         52         53         70         69         53         54         71         70         54         55         72         71         55         56         73         72         56         57         74         73         57         58         75         74         58         59         76         75         59         60         77         76         60         61         78         77         61         62         79         78         62         63         80         79         63         64         81         80         64         65         82         81         65         66         83         82         66         67         84         83         68         69         86         85         69         70         87         86         70         71         88         87         71         72         89         88         72         73         90         89         73         74         91         90         74         75         92         91         75         76         93         92         76         77         94         93         77         78         95         94         78         79         96         95         79         80         97         96         80         81         98         97         81         82         99         98         82         83        100         99         83         84        101        100         85         86        103        102         86         87        104        103         87         88        105        104         88         89        106        105         89         90        107        106         90         91        108        107         91         92        109        108         92         93        110        109         93         94        111        110         94         95        112        111         95         96        113        112         96         97        114        113         97         98        115        114         98         99        116        115         99        100        117        116        100        101        118        117        102        103        120        119        103        104        121        120        104        105        122        121        105        106        123        122        106        107        124        123        107        108        125        124        108        109        126        125        109        110        127        126        110        111        128        127        111        112        129        128        112        113        130        129        113        114        131        130        114        115        132        131        115        116        133        132        116        117        134        133        117        118        135        134        119        120        137        136        120        121        138        137        121        122        139        138        122        123        140        139        123        124        141        140        124        125        142        141        125        126        143        142        126        127        144        143        127        128        145        144        128        129        146        145        129        130        147        146        130        131        148        147        131        132        149        148        132        133        150        149        133        134        151        150        134        135        152        151        136        137        154        153        137        138        155        154        138        139        156        155        139        140        157        156        140        141        158        157        141        142        159        158        142        143        160        159        143        144        161        160        144        145        162        161        145        146        163        162        146        147        164        163        147        148        165        164        148        149        166        165        149        150        167        166        150        151        168        167        151        152        169        168        153        154        171        170        154        155        172        171        155        156        173        172        156        157        174        173        157        158        175        174        158        159        176        175        159        160        177        176        160        161        178        177        161        162        179        178        162        163        180        179        163        164        181        180        164        165        182        181        165        166        183        182        166        167        184        183        167        168        185        184        168        169        186        185        170        171        188        187        171        172        189        188        172        173        190        189        173        174        191        190        174        175        192        191        175        176        193        192        176        177        194        193        177        178        195        194        178        179        196        195        179        180        197        196        180        181        198        197        181        182        199        198        182        183        200        199        183        184        201        200        184        185        202        201        185        186        203        202        187        188        205        204        188        189        206        205        189        190        207        206        190        191        208        207        191        192        209        208        192        193        210        209        193        194        211        210        194        195        212        211        195        196        213        212        196        197        214        213        197        198        215        214        198        199        216        215        199        200        217        216        200        201        218        217        201        202        219        218        202        203        220        219        204        205        222        221        205        206        223        222        206        207        224        223        207        208        225        224        208        209        226        225        209        210        227        226        210        211        228        227        211        212        229        228        212        213        230        229        213        214        231        230        214        215        232        231        215        216        233        232        216        217        234        233        217        218        235        234        218        219        236        235        219        220        237        236        221        222        239        238        222        223        240        239        223        224        241        240        224        225        242        241        225        226        243        242        226        227        244        243        227        228        245        244        228        229        246        245        229        230        247        246        230        231        248        247        231        232        249        248        232        233        250        249        233        234        251        250        234        235        252        251        235        236        253        252        236        237        254        253        238        239        256        255        239        240        257        256        240        241        258        257        241        242        259        258        242        243        260        259        243        244        261        260        244        245        262        261        245        246        263        262        246        247        264        263        247        248        265        264        248        249        266        265        249        250        267        266        250        251        268        267        251        252        269        268        252        253        270        269        253        254        271        270        255        256        273        272        256        257        274        273        257        258        275        274        258        259        276        275        259        260        277        276        260        261        278        277        261        262        279        278        262        263        280        279        263        264        281        280        264        265        282        281        265        266        283        282        266        267        284        283        267        268        285        284        268        269        286        285        269        270        287        286        270        271        288        287        306        307          1          0        307        308          2          1        308        309          3          2        309        310          4          3        310        311          5          4        311        312          6          5        312        313          7          6        313        314          8          7        314        315          9          8        315        316         10          9        316        317         11         10        317        318         12         11        318        319         13         12        319        320         14         13        320        321         15         14        321        322         16         15        323        324        307        306        324        325        308        307        325        326        309        308        326        327        310        309        327        328        311        310        328        329        312        311        329        330        313        312        330        331        314        313        331        332        315        314        332        333        316        315        333        334        317        316        334        335        318        317        335        336        319        318        336        337        320        319        337        338        321        320        338        339        322        321        340        341        324        323        341        342        325        324        342        343        326        325        343        344        327        326        344        345        328        327        345        346        329        328        346        347        330        329        347        348        331        330        348        349        332        331        349        350        333        332        350        351        334        333        351        352        335        334        352        353        336        335        353        354        337        336        354        355        338        337        355        356        339        338        357        358        341        340        358        359        342        341        359        360        343        342        360        361        344        343        361        362        345        344        362        363        346        345        363        364        347        346        364        365        348        347        365        366        349        348        366        367        350        349        367        368        351        350        368        369        352        351        369        370        353        352        370        371        354        353        371        372        355        354        372        373        356        355        374        375        358        357        375        376        359        358        376        377        360        359        377        378        361        360        378        379        362        361        379        380        363        362        380        381        364        363        381        382        365        364        382        383        366        365        383        384        367        366        384        385        368        367        385        386        369        368        386        387        370        369        387        388        371        370        388        389        372        371        389        390        373        372        391        392        375        374        392        393        376        375        393        394        377        376        394        395        378        377        395        396        379        378        396        397        380        379        397        398        381        380        398        399        382        381        399        400        383        382        400        401        384        383        401        402        385        384        402        403        386        385        403        404        387        386        404        405        388        387        405        406        389        388        406        407        390        389        408        409        392        391        409        410        393        392        410        411        394        393        411        412        395        394        412        413        396        395        413        414        397        396        414        415        398        397        415        416        399        398        416        417        400        399        417        418        401        400        418        419        402        401        419        420        403        402        420        421        404        403        421        422        405        404        422        423        406        405        423        424        407        406        425        426        409        408        426        427        410        409        427        428        411        410        428        429        412        411        429        430        413        412        430        431        414        413        431        432        415        414        432        433        416        415        433        434        417        416        434        435        418        417        435        436        419        418        436        437        420        419        437        438        421        420        438        439        422        421        439        440        423        422        440        441        424        423        442        443        426        425        443        444        427        426        444        445        428        427        445        446        429        428        446        447        430        429        447        448        431        430        448        449        432        431        449        450        433        432        450        451        434        433        451        452        435        434        452        453        436        435        453        454        437        436        454        455        438        437        455        456        439        438        456        457        440        439        457        458        441        440        459        460        443        442        460        461        444        443        461        462        445        444        462        463        446        445        463        464        447        446        464        465        448        447        465        466        449        448        466        467        450        449        467        468        451        450        468        469        452        451        469        470        453        452        470        471        454        453        471        472        455        454        472        473        456        455        473        474        457        456        474        475        458        457        476        477        460        459        477        478        461        460        478        479        462        461        479        480        463        462        480        481        464        463        481        482        465        464        482        483        466        465        483        484        467        466        484        485        468        467        485        486        469        468        486        487        470        469        487        488        471        470        488        489        472        471        489        490        473        472        490        491        474        473        491        492        475        474        493        494        477        476        494        495        478        477        495        496        479        478        496        497        480        479        497        498        481        480        498        499        482        481        499        500        483        482        500        501        484        483        501        502        485        484        502        503        486        485        503        504        487        486        504        505        488        487        505        506        489        488        506        507        490        489        507        508        491        490        508        509        492        491        510        511        494        493        511        512        495        494        512        513        496        495        513        514        497        496        514        515        498        497        515        516        499        498        516        517        500        499        517        518        501        500        518        519        502        501        519        520        503        502        520        521        504        503        521        522        505        504        522        523        506        505        523        524        507        506        524        525        508        507        525        526        509        508        527        528        511        510        528        529        512        511        529        530        513        512        530        531        514        513        531        532        515        514        532        533        516        515        533        534        517        516        534        535        518        517        535        536        519        518        536        537        520        519        537        538        521        520        538        539        522        521        539        540        523        522        540        541        524        523        541        542        525        524        542        543        526        525        544        545        528        527        545        546        529        528        546        547        530        529        547        548        531        530        548        549        532        531        549        550        533        532        550        551        534        533        551        552        535        534        552        553        536        535        553        554        537        536        554        555        538        537        555        556        539        538        556        557        540        539        557        558        541        540        558        559        542        541        559        560        543        542        561        562        545        544        562        563        546        545        563        564        547        546        564        565        548        547        565        566        549        548        566        567        550        549        567        568        551        550        568        569        552        551        569        570        553        552        570        571        554        553        571        572        555        554        572        573        556        555        573        574        557        556        574        575        558        557        575        576        559        558        576        577        560        559        578        579        596        595        579        580        597        596        580        581        598        597        581        582        599        598        582        583        600        599        583        584        601        600        584        585        602        601        585        586        603        602        586        587        604        603        587        588        605        604        588        589        606        605        589        590        607        606        590        591        608        607        591        592        609        608        592        593        610        609        593        594        611        610        595        596        613        612        596        597        614        613        597        598        615        614        598        599        616        615        599        600        617        616        600        601        618        617        601        602        619        618        602        603        620        619        603        604        621        620        604        605        622        621        605        606        623        622        606        607        624        623        607        608        625        624        608        609        626        625        609        610        627        626        610        611        628        627        612        613        630        629        613        614        631        630        614        615        632        631        615        616        633        632        616        617        634        633        617        618        635        634        618        619        636        635        619        620        637        636        620        621        638        637        621        622        639        638        622        623        640        639        623        624        641        640        624        625        642        641        625        626        643        642        626        627        644        643        627        628        645        644        629        630        647        646        630        631        648        647        631        632        649        648        632        633        650        649        633        634        651        650        634        635        652        651        635        636        653        652        636        637        654        653        637        638        655        654        638        639        656        655        639        640        657        656        640        641        658        657        641        642        659        658        642        643        660        659        643        644        661        660        644        645        662        661        646        647        664        663        647        648        665        664        648        649        666        665        649        650        667        666        650        651        668        667        651        652        669        668        652        653        670        669        653        654        671        670        654        655        672        671        655        656        673        672        656        657        674        673        657        658        675        674        658        659        676        675        659        660        677        676        660        661        678        677        661        662        679        678        663        664        681        680        664        665        682        681        665        666        683        682        666        667        684        683        667        668        685        684        668        669        686        685        669        670        687        686        670        671        688        687        671        672        689        688        672        673        690        689        673        674        691        690        674        675        692        691        675        676        693        692        676        677        694        693        677        678        695        694        678        679        696        695        680        681        698        697        681        682        699        698        682        683        700        699        683        684        701        700        684        685        702        701        685        686        703        702        686        687        704        703        687        688        705        704        688        689        706        705        689        690        707        706        690        691        708        707        691        692        709        708        692        693        710        709        693        694        711        710        694        695        712        711        695        696        713        712        697        698        715        714        698        699        716        715        699        700        717        716        700        701        718        717        701        702        719        718        702        703        720        719        703        704        721        720        704        705        722        721        705        706        723        722        706        707        724        723        707        708        725        724        708        709        726        725        709        710        727        726        710        711        728        727        711        712        729        728        712        713        730        729        714        715        732        731        715        716        733        732        716        717        734        733        717        718        735        734        718        719        736        735        719        720        737        736        720        721        738        737        721        722        739        738        722        723        740        739        723        724        741        740        724        725        742        741        725        726        743        742        726        727        744        743        727        728        745        744        728        729        746        745        729        730        747        746        731        732        749        748        732        733        750        749        733        734        751        750        734        735        752        751        735        736        753        752        736        737        754        753        737        738        755        754        738        739        756        755        739        740        757        756        740        741        758        757        741        742        759        758        742        743        760        759        743        744        761        760        744        745        762        761        745        746        763        762        746        747        764        763        748        749        766        765        749        750        767        766        750        751        768        767        751        752        769        768        752        753        770        769        753        754        771        770        754        755        772        771        755        756        773        772        756        757        774        773        757        758        775        774        758        759        776        775        759        760        777        776        760        761        778        777        761        762        779        778        762        763        780        779        763        764        781        780        765        766        783        782        766        767        784        783        767        768        785        784        768        769        786        785        769        770        787        786        770        771        788        787        771        772        789        788        772        773        790        789        773        774        791        790        774        775        792        791        775        776        793        792        776        777        794        793        777        778        795        794        778        779        796        795        779        780        797        796        780        781        798        797        782        783        800        799        783        784        801        800        784        785        802        801        785        786        803        802        786        787        804        803        787        788        805        804        788        789        806        805        789        790        807        806        790        791        808        807        791        792        809        808        792        793        810        809        793        794        811        810        794        795        812        811        795        796        813        812        796        797        814        813        797        798        815        814        799        800        817        816        800        801        818        817        801        802        819        818        802        803        820        819        803        804        821        820        804        805        822        821        805        806        823        822        806        807        824        823        807        808        825        824        808        809        826        825        809        810        827        826        810        811        828        827        811        812        829        828        812        813        830        829        813        814        831        830        814        815        832        831        816        817        834        833        817        818        835        834        818        819        836        835        819        820        837        836        820        821        838        837        821        822        839        838        822        823        840        839        823        824        841        840        824        825        842        841        825        826        843        842        826        827        844        843        827        828        845        844        828        829        846        845        829        830        847        846        830        831        848        847        831        832        849        848        833        834        562        561        834        835        563        562        835        836        564        563        836        837        565        564        837        838        566        565        838        839        567        566        839        840        568        567        840        841        569        568        841        842        570        569        842        843        571        570        843        844        572        571        844        845        573        572        845        846        574        573        846        847        575        574        847        848        576        575        848        849        577        576        884        885        579        578        885        886        580        579        886        887        581        580        887        888        582        581        888        889        583        582        889        890        584        583        890        891        585        584        891        892        586        585        892        893        587        586        893        894        588        587        894        895        589        588        895        896        590        589        896        897        591        590        897        898        592        591        898        899        593        592        899        900        594        593        901        902        885        884        902        903        886        885        903        904        887        886        904        905        888        887        905        906        889        888        906        907        890        889        907        908        891        890        908        909        892        891        909        910        893        892        910        911        894        893        911        912        895        894        912        913        896        895        913        914        897        896        914        915        898        897        915        916        899        898        916        917        900        899        918        919        902        901        919        920        903        902        920        921        904        903        921        922        905        904        922        923        906        905        923        924        907        906        924        925        908        907        925        926        909        908        926        927        910        909        927        928        911        910        928        929        912        911        929        930        913        912        930        931        914        913        931        932        915        914        932        933        916        915        933        934        917        916        935        936        919        918        936        937        920        919        937        938        921        920        938        939        922        921        939        940        923        922        940        941        924        923        941        942        925        924        942        943        926        925        943        944        927        926        944        945        928        927        945        946        929        928        946        947        930        929        947        948        931        930        948        949        932        931        949        950        933        932        950        951        934        933        952        953        936        935        953        954        937        936        954        955        938        937        955        956        939        938        956        957        940        939        957        958        941        940        958        959        942        941        959        960        943        942        960        961        944        943        961        962        945        944        962        963        946        945        963        964        947        946        964        965        948        947        965        966        949        948        966        967        950        949        967        968        951        950        969        970        953        952        970        971        954        953        971        972        955        954        972        973        956        955        973        974        957        956        974        975        958        957        975        976        959        958        976        977        960        959        977        978        961        960        978        979        962        961        979        980        963        962        980        981        964        963        981        982        965        964        982        983        966        965        983        984        967        966        984        985        968        967        986        987        970        969        987        988        971        970        988        989        972        971        989        990        973        972        990        991        974        973        991        992        975        974        992        993        976        975        993        994        977        976        994        995        978        977        995        996        979        978        996        997        980        979        997        998        981        980        998        999        982        981        999       1000        983        982       1000       1001        984        983       1001       1002        985        984       1003       1004        987        986       1004       1005        988        987       1005       1006        989        988       1006       1007        990        989       1007       1008        991        990       1008       1009        992        991       1009       1010        993        992       1010       1011        994        993       1011       1012        995        994       1012       1013        996        995       1013       1014        997        996       1014       1015        998        997       1015       1016        999        998       1016       1017       1000        999       1017       1018       1001       1000       1018       1019       1002       1001       1020       1021       1004       1003       1021       1022       1005       1004       1022       1023       1006       1005       1023       1024       1007       1006       1024       1025       1008       1007       1025       1026       1009       1008       1026       1027       1010       1009       1027       1028       1011       1010       1028       1029       1012       1011       1029       1030       1013       1012       1030       1031       1014       1013       1031       1032       1015       1014       1032       1033       1016       1015       1033       1034       1017       1016       1034       1035       1018       1017       1035       1036       1019       1018       1037       1038       1021       1020       1038       1039       1022       1021       1039       1040       1023       1022       1040       1041       1024       1023       1041       1042       1025       1024       1042       1043       1026       1025       1043       1044       1027       1026       1044       1045       1028       1027       1045       1046       1029       1028       1046       1047       1030       1029       1047       1048       1031       1030       1048       1049       1032       1031       1049       1050       1033       1032       1050       1051       1034       1033       1051       1052       1035       1034       1052       1053       1036       1035       1054       1055       1038       1037       1055       1056       1039       1038       1056       1057       1040       1039       1057       1058       1041       1040       1058       1059       1042       1041       1059       1060       1043       1042       1060       1061       1044       1043       1061       1062       1045       1044       1062       1063       1046       1045       1063       1064       1047       1046       1064       1065       1048       1047       1065       1066       1049       1048       1066       1067       1050       1049       1067       1068       1051       1050       1068       1069       1052       1051       1069       1070       1053       1052       1071       1072       1055       1054       1072       1073       1056       1055       1073       1074       1057       1056       1074       1075       1058       1057       1075       1076       1059       1058       1076       1077       1060       1059       1077       1078       1061       1060       1078       1079       1062       1061       1079       1080       1063       1062       1080       1081       1064       1063       1081       1082       1065       1064       1082       1083       1066       1065       1083       1084       1067       1066       1084       1085       1068       1067       1085       1086       1069       1068       1086       1087       1070       1069       1088       1089       1072       1071       1089       1090       1073       1072       1090       1091       1074       1073       1091       1092       1075       1074       1092       1093       1076       1075       1093       1094       1077       1076       1094       1095       1078       1077       1095       1096       1079       1078       1096       1097       1080       1079       1097       1098       1081       1080       1098       1099       1082       1081       1099       1100       1083       1082       1100       1101       1084       1083       1101       1102       1085       1084       1102       1103       1086       1085       1103       1104       1087       1086       1105       1106       1089       1088       1106       1107       1090       1089       1107       1108       1091       1090       1108       1109       1092       1091       1109       1110       1093       1092       1110       1111       1094       1093       1111       1112       1095       1094       1112       1113       1096       1095       1113       1114       1097       1096       1114       1115       1098       1097       1115       1116       1099       1098       1116       1117       1100       1099       1117       1118       1101       1100       1118       1119       1102       1101       1119       1120       1103       1102       1120       1121       1104       1103       1122       1123       1106       1105       1123       1124       1107       1106       1124       1125       1108       1107       1125       1126       1109       1108       1126       1127       1110       1109       1127       1128       1111       1110       1128       1129       1112       1111       1129       1130       1113       1112       1130       1131       1114       1113       1131       1132       1115       1114       1132       1133       1116       1115       1133       1134       1117       1116       1134       1135       1118       1117       1135       1136       1119       1118       1136       1137       1120       1119       1137       1138       1121       1120        272        273       1123       1122        273        274       1124       1123        274        275       1125       1124        275        276       1126       1125        276        277       1127       1126        277        278       1128       1127        278        279       1129       1128        279        280       1130       1129        280        281       1131       1130        281        282       1132       1131        282        283       1133       1132        283        284       1134       1133        284        285       1135       1134        285        286       1136       1135        286        287       1137       1136        287        288       1138       1137 </DataArray>
<DataArray type="Int32"                                    Name="offsets"                                                      NumberOfComponents=" 1" format="ascii">
         4          8         12         16         20         24         28         32         36         40         44         48         52         56         60         64         68         72         76         80         84         88         92         96        100        104        108        112        116        120        124        128        132        136        140        144        148        152        156        160        164        168        172        176        180        184        188        192        196        200        204        208        212        216        220        224        228        232        236        240        244        248        252        256        260        264        268        272        276        280        284        288        292        296        300        304        308        312        316        320        324        328        332        336        340        344        348        352        356        360        364        368        372        376        380        384        388        392        396        400        404        408        412        416        420        424        428        432        436        440        444        448        452        456        460        464        468        472        476        480        484        488        492        496        500        504        508        512        516        520        524        528        532        536        540        544        548        552        556        560        564        568        572        576        580        584        588        592        596        600        604        608        612        616        620        624        628        632        636        640        644        648        652        656        660        664        668        672        676        680        684        688        692        696        700        704        708        712        716        720        724        728        732        736        740        744        748        752        756        760        764        768        772        776        780        784        788        792        796        800        804        808        812        816        820        824        828        832        836        840        844        848        852        856        860        864        868        872        876        880        884        888        892        896        900        904        908        912        916        920        924        928        932        936        940        944        948        952        956        960        964        968        972        976        980        984        988        992        996       1000       1004       1008       1012       1016       1020       1024       1028       1032       1036       1040       1044       1048       1052       1056       1060       1064       1068       1072       1076       1080       1084       1088       1092       1096       1100       1104       1108       1112       1116       1120       1124       1128       1132       1136       1140       1144       1148       1152       1156       1160       1164       1168       1172       1176       1180       1184       1188       1192       1196       1200       1204       1208       1212       1216       1220       1224       1228       1232       1236       1240       1244       1248       1252       1256       1260       1264       1268       1272       1276       1280       1284       1288       1292       1296       1300       1304       1308       1312       1316       1320       1324       1328       1332       1336       1340       1344       1348       1352       1356       1360       1364       1368       1372       1376       1380       1384       1388       1392       1396       1400       1404       1408       1412       1416       1420       1424       1428       1432       1436       1440       1444       1448       1452       1456       1460       1464       1468       1472       1476       1480       1484       1488       1492       1496       1500       1504       1508       1512       1516       1520       1524       1528       1532       1536       1540       1544       1548       1552       1556       1560       1564       1568       1572       1576       1580       1584       1588       1592       1596       1600       1604       1608       1612       1616       1620       1624       1628       1632       1636       1640       1644       1648       1652       1656       1660       1664       1668       1672       1676       1680       1684       1688       1692       1696       1700       1704       1708       1712       1716       1720       1724       1728       1732       1736       1740       1744       1748       1752       1756       1760       1764       1768       1772       1776       1780       1784       1788       1792       1796       1800       1804       1808       1812       1816       1820       1824       1828       1832       1836       1840       1844       1848       1852       1856       1860       1864       1868       1872       1876       1880       1884       1888       1892       1896       1900       1904       1908       1912       1916       1920       1924       1928       1932       1936       1940       1944       1948       1952       1956       1960       1964       1968       1972       1976       1980       1984       1988       1992       1996       2000       2004       2008       2012       2016       2020       2024       2028       2032       2036       2040       2044       2048       2052       2056       2060       2064       2068       2072       2076       2080       2084       2088       2092       2096       2100       2104       2108       2112       2116       2120       2124       2128       2132       2136       2140       2144       2148       2152       2156       2160       2164       2168       2172       2176       2180       2184       2188       2192       2196       2200       2204       2208       2212       2216       2220       2224       2228       2232       2236       2240       2244       2248       2252       2256       2260       2264       2268       2272       2276       2280       2284       2288       2292       2296       2300       2304       2308       2312       2316       2320       2324       2328       2332       2336       2340       2344       2348       2352       2356       2360       2364       2368       2372       2376       2380       2384       2388       2392       2396       2400       2404       2408       2412       2416       2420       2424       2428       2432       2436       2440       2444       2448       2452       2456       2460       2464       2468       2472       2476       2480       2484       2488       2492       2496       2500       2504       2508       2512       2516       2520       2524       2528       2532       2536       2540       2544       2548       2552       2556       2560       2564       2568       2572       2576       2580       2584       2588       2592       2596       2600       2604       2608       2612       2616       2620       2624       2628       2632       2636       2640       2644       2648       2652       2656       2660       2664       2668       2672       2676       2680       2684       2688       2692       2696       2700       2704       2708       2712       2716       2720       2724       2728       2732       2736       2740       2744       2748       2752       2756       2760       2764       2768       2772       2776       2780       2784       2788       2792       2796       2800       2804       2808       2812       2816       2820       2824       2828       2832       2836       2840       2844       2848       2852       2856       2860       2864       2868       2872       2876       2880       2884       2888       2892       2896       2900       2904       2908       2912       2916       2920       2924       2928       2932       2936       2940       2944       2948       2952       2956       2960       2964       2968       2972       2976       2980       2984       2988       2992       2996       3000       3004       3008       3012       3016       3020       3024       3028       3032       3036       3040       3044       3048       3052       3056       3060       3064       3068       3072       3076       3080       3084       3088       3092       3096       3100       3104       3108       3112       3116       3120       3124       3128       3132       3136       3140       3144       3148       3152       3156       3160       3164       3168       3172       3176       3180       3184       3188       3192       3196       3200       3204       3208       3212       3216       3220       3224       3228       3232       3236       3240       3244       3248       3252       3256       3260       3264       3268       3272       3276       3280       3284       3288       3292       3296       3300       3304       3308       3312       3316       3320       3324       3328       3332       3336       3340       3344       3348       3352       3356       3360       3364       3368       3372       3376       3380       3384       3388       3392       3396       3400       3404       3408       3412       3416       3420       3424       3428       3432       3436       3440       3444       3448       3452       3456       3460       3464       3468       3472       3476       3480       3484       3488       3492       3496       3500       3504       3508       3512       3516       3520       3524       3528       3532       3536       3540       3544       3548       3552       3556       3560       3564       3568       3572       3576       3580       3584       3588       3592       3596       3600       3604       3608       3612       3616       3620       3624       3628       3632       3636       3640       3644       3648       3652       3656       3660       3664       3668       3672       3676       3680       3684       3688       3692       3696       3700       3704       3708       3712       3716       3720       3724       3728       3732       3736       3740       3744       3748       3752       3756       3760       3764       3768       3772       3776       3780       3784       3788       3792       3796       3800       3804       3808       3812       3816       3820       3824       3828       3832       3836       3840       3844       3848       3852       3856       3860       3864       3868       3872       3876       3880       3884       3888       3892       3896       3900       3904       3908       3912       3916       3920       3924       3928       3932       3936       3940       3944       3948       3952       3956       3960       3964       3968       3972       3976       3980       3984       3988       3992       3996       4000       4004       4008       4012       4016       4020       4024       4028       4032       4036       4040       4044       4048       4052       4056       4060       4064       4068       4072       4076       4080       4084       4088       4092       4096 </DataArray>
<DataArray type="UInt8"                                    Name="types"                                                      NumberOfComponents=" 1" format="ascii">
         9          9          9          9          9          9          9          9          9          9          9          9          9          9          9          9          9          9          9          9          9          9          9          9          9          9          9          9          9          9          9          9          9          9          9          9          9          9          9          9          9          9          9          9          9          9          9          9          9          9          9          9          9          9          9          9          9          9          9          9          9          9          9          9          9          9          9          9          9          9          9          9          9          9          9          9          9          9          9          9          9          9          9          9          9          9          9          9          9          9          9          9          9          9          9          9          9          9          9          9          9          9          9          9          9          9          9          9          9          9          9          9          9          9          9          9          9          9          9          9          9          9          9          9          9          9          9          9          9          9          9          9          9          9          9          9          9          9          9          9          9          9          9          9          9          9          9          9          9          9          9          9          9          9          9          9          9          9          9          9          9          9          9          9          9          9          9          9          9          9          9          9          9          9          9          9          9          9          9          9          9          9          9          9          9          9          9          9          9          9          9          9          9          9          9          9          9          9          9          9          9          9          9          9          9          9          9          9          9          9          9          9          9          9          9          9          9          9          9          9          9          9          9          9          9          9          9          9          9          9          9          9          9          9          9          9          9          9          9          9          9          9          9          9          9          9          9          9          9          9          9          9          9          9          9          9          9          9          9          9          9          9          9          9          9          9          9          9          9          9          9          9          9          9          9          9          9          9          9          9          9          9          9          9          9          9          9          9          9          9          9          9          9          9          9          9          9          9          9          9          9          9          9          9          9          9          9          9          9          9          9          9          9          9          9          9          9          9          9          9          9          9          9          9          9          9          9          9          9          9          9          9          9          9          9          9          9          9          9          9          9          9          9          9          9          9          9          9          9          9          9          9          9          9          9          9          9          9          9          9          9          9          9          9          9          9          9          9          9          9          9          9          9          9          9          9          9          9          9          9          9          9          9          9          9          9          9          9          9          9          9          9          9          9          9          9          9          9          9          9          9          9          9          9          9          9          9          9          9          9          9          9          9          9          9          9          9          9          9          9          9          9          9          9          9          9          9          9          9          9          9          9          9          9          9          9          9          9          9          9          9          9          9          9          9          9          9          9          9          9          9          9          9          9          9          9          9          9          9          9          9          9          9          9          9          9          9          9          9          9          9          9          9          9          9          9          9          9          9          9          9          9          9          9          9          9          9          9          9          9          9          9          9          9          9          9          9          9          9          9          9          9          9          9          9          9          9          9          9          9          9          9          9          9          9          9          9          9          9          9          9          9          9          9          9          9          9          9          9          9          9          9          9          9          9          9          9          9          9          9          9          9          9          9          9          9          9          9          9          9          9          9          9          9          9          9          9          9          9          9          9          9          9          9          9          9          9          9          9          9          9          9          9          9          9          9          9          9          9          9          9          9          9          9          9          9          9          9          9          9          9          9          9          9          9          9          9          9          9          9          9          9          9          9          9          9          9          9          9          9          9          9          9          9          9          9          9          9          9          9          9          9          9          9          9          9          9          9          9          9          9          9          9          9          9          9          9          9          9          9          9          9          9          9          9          9          9          9          9          9          9          9          9          9          9          9          9          9          9          9          9          9          9          9          9          9          9          9          9          9          9          9          9          9          9          9          9          9          9          9          9          9          9          9          9          9          9          9          9          9          9          9          9          9          9          9          9          9          9          9          9          9          9          9          9          9          9          9          9          9          9          9          9          9          9          9          9          9          9          9          9          9          9          9          9          9          9          9          9          9          9          9          9          9          9          9          9          9          9          9          9          9          9          9          9          9          9          9          9          9          9          9          9          9          9          9          9          9          9          9          9          9          9          9          9          9          9          9          9          9          9          9          9          9          9          9          9          9          9          9          9          9          9          9          9          9          9          9          9          9          9          9          9          9          9          9          9          9          9          9          9          9          9          9          9          9          9          9          9          9          9          9          9          9          9          9          9          9          9          9          9          9          9          9          9          9          9          9          9          9          9          9          9          9          9          9          9          9          9          9          9          9          9          9          9          9          9          9          9          9          9          9          9          9          9          9          9          9          9          9          9          9          9          9          9          9          9          9          9          9          9          9          9          9          9          9          9          9          9          9          9          9          9          9          9          9          9          9          9          9          9          9          9          9          9          9          9          9          9          9          9          9          9          9          9          9          9          9          9          9          9          9          9          9          9          9          9          9          9          9          9          9          9          9          9          9          9          9          9          9          9          9          9          9          9          9          9          9          9          9          9          9          9          9          9          9          9          9          9          9          9          9          9          9          9          9          9          9          9          9          9          9          9          9          9          9          9          9          9          9          9          9          9          9          9          9          9          9          9          9          9          9          9          9          9          9          9          9          9          9          9          9          9          9          9          9          9          9          9          9          9          9          9          9          9          9          9          9          9          9          9          9          9          9          9          9          9          9          9          9          9          9          9          9 </DataArray>
</Cells>
<CellData>
<DataArray type="Int32"                                    Name="material"                                                      NumberOfComponents=" 1" format="ascii">
         1          1          1          1          1          1          1          1          1          1          1          1          1          1          1          1          1          1          1          1          1          1          1          1          1          1          1          1          1          1          1          1          1          1          1          1          1          1          1          1          1          1          1          1          1          1          1          1          1          1          1          1          1          1          1          1          1          1          1          1          1          1          1          1          1          1          1          1          1          1          1          1          1          1          1          1          1          1          1          1          1          1          1          1          1          1          1          1          1          1          1          1          1          1          1          1          1          1          1          1          1          1          1          1          1          1          1          1          1          1          1          1          1          1          1          1          1          1          1          1          1          1          1          1          1          1          1          1          1          1          1          1          1          1          1          1          1          1          1          1          1          1          1          1          1          1          1          1          1          1          1          1          1          1          1          1          1          1          1          1          1          1          1          1          1          1          1          1          1          1          1          1          1          1          1          1          1          1          1          1          1          1          1          1          1          1          1          1          1          1          1          1          1          1          1          1          1          1          1          1          1          1          1          1          1          1          1          1          1          1          1          1          1          1          1          1          1          1          1          1          1          1          1          1          1          1          1          1          1          1          1          1          1          1          1          1          1          1          1          1          1          1          1          1          1          1          1          1          1          1          1          1          1          1          1          1          1          1          1          1          1          1          1          1          1          1          1          1          1          1          1          1          1          1          1          1          1          1          1          1          1          1          1          1          1          1          1          1          1          1          1          1          1          1          1          1          1          1          1          1          1          1          1          1          1          1          1          1          1          1          1          1          1          1          1          1          1          1          1          1          1          1          1          1          1          1          1          1          1          1          1          1          1          1          1          1          1          1          1          1          1          1          1          1          1          1          1          1          1          1          1          1          1          1          1          1          1          1          1          1          1          1          1          1          1          1          1          1          1          1          1          1          1          1          1          1          1          1          1          1          1          1          1          1          1          1          1          1          1          1          1          1          1          1          1          1          1          1          1          1          1          1          1          1          1          1          1          1          1          1          1          1          1          1          1          1          1          1          1          1          1          1          1          1          1          1          1          1          1          1          1          1          1          1          1          1          1          1          1          1          1          1          1          1          1          1          1          1          1          1          1          1          1          1          1          1          1          1          1          1          1          1          1          1          1          1          1          1          1          1          1          1          1          1          1          1          1          1          1          1          1          1          1          1          1          1          1          1          1          1          1          1          1          1          1          1          1          1          1          1          1          1          1          1          1          1          1          1          1          1          1          1          1          1          1          1          1          1          1          1          1          1          1          1          1          1          1          1          1          1          1          1          1          1          1          1          1          1          1          1          1          1          1          1          1          1          1          1          1          1          1          1          1          1          1          1          1          1          1          1          1          1          1          1          1          1          1          1          1          1          1          1          1          1          1          1          1          1          1          1          1          1          1          1          1          1          1          1          1          1          1          1          1          1          1          1          1          1          1          1          1          1          1          1          1          1          1          1          1          1          1          1          1          1          1          1          1          1          1          1          1          1          1          1          1          1          1          1          1          1          1          1          1          1          1          1          1          1          1          1          1          1          1          1          1          1          1          1          1          1          1          1          1          1          1          1          1          1          1          1          1          1          1          1          1          1          1          1          1          1          1          1          1          1          1          1          1          1          1          1          1          1          1          1          1          1          1          1          1          1          1          1          1          1          1          1          1          1          1          1          1          1          1          1          1          1          1          1          1          1          1          1          1          1          1          1          1          1          1          1          1          1          1          1          1          1          1          1          1          1          1          1          1          1          1          1          1          1          1          1          1          1          1          1          1          1          1          1          1          1          1          1          1          1          1          1          1          1          1          1          1          1          1          1          1          1          1          1          1          1          1          1          1          1          1          1          1          1          1          1          1          1          1          1          1          1          1          1          1          1          1          1          1          1          1          1          1          1          1          1          1          1          1          1          1          1          1          1          1          1          1          1          1          1          1          1          1          1          1          1          1          1          1          1          1          1          1          1          1          1          1          1          1          1          1          1          1          1          1          1          1          1          1          1          1          1          1          1          1          1          1          1          1          1          1          1          1          1          1          1          1          1          1          1          1          1          1          1          1          1          1          1          1          1          1          1          1          1          1          1          1          1          1          1          1          1          1          1          1          1          1          1          1          1          1          1          1          1          1          1          1          1          1          1          1          1          1          1          1          1          1          1          1          1          1          1          1          1          1          1          1          1          1          1          1          1          1          1          1          1          1          1          1          1          1          1          1          1          1          1          1          1          1          1          1          1          1          1          1          1          1          1          1          1          1          1          1          1          1          1          1          1          1          1          1          1          1          1          1          1          1          1          1          1          1          1          1          1          1          1          1          1          1          1          1          1          1          1          1          1          1          1          1          1          1          1          1          1          1          1          1          1          1          1          1          1          1          1          1          1          1          1          1          1          1          1          1          1          1          1          1          1          1          1 </DataArray>
</CellData>
<PointData>
<DataArray type="Float64"                                    Name="u"                                                      NumberOfComponents=" 3" format="ascii">
             -0.000080191              -0.000000000               0.999999994              -0.000101653              -0.000000000               0.999999994              -0.000111699              -0.000000000               0.999999994              -0.000117456              -0.000000000               0.999999994              -0.000121754              -0.000000000               0.999999994              -0.000125910               0.000000000               0.999999994              -0.000130574               0.000000000               0.999999994              -0.000135958               0.000000000               0.999999994              -0.000142181               0.000000000               0.999999994              -0.000149272               0.000000000               0.999999994              -0.000157272              -0.000000000               0.999999994              -0.000166114               0.000000000               0.999999994              -0.000175726               0.000000000               0.999999994              -0.000186097               0.000000000               0.999999994              -0.000197153               0.000000000               0.999999994              -0.000208770               0.000000000               0.999999994              -0.000220847               0.000000000               0.999999994              -0.000079674               0.000053866               0.999999994              -0.000100114               0.000047017               0.999999994              -0.000109588               0.000044953               0.999999994              -0.000115050               0.000045524               0.999999994              -0.000119283               0.000047597               0.999999994              -0.000123461               0.000050705               0.999999994              -0.000128142               0.000054429               0.999999994              -0.000133591               0.000058643               0.999999994              -0.000139882               0.000063196               0.999999994              -0.000147046               0.000068013               0.999999994              -0.000155085               0.000072976               0.999999994              -0.000163911               0.000078059               0.999999994              -0.000173486               0.000083166               0.999999994              -0.000183793               0.000088144               0.999999994              -0.000194784               0.000092880               0.999999994              -0.000206390               0.000097231               0.999999994              -0.000218529               0.000101004               0.999999994              -0.000078193               0.000107158               0.999999994              -0.000095593               0.000093543               0.999999994              -0.000103351               0.000089729               0.999999994              -0.000107972               0.000091076               0.999999994              -0.000111900               0.000095514               0.999999994              -0.000116119               0.000101895               0.999999994              -0.000121002               0.000109584               0.999999994              -0.000126716               0.000118161               0.999999994              -0.000133283               0.000127380               0.999999994              -0.000140666               0.000137056               0.999999994              -0.000148854               0.000147030               0.999999994              -0.000157733               0.000157276               0.999999994              -0.000167303               0.000167646               0.999999994              -0.000177575               0.000177919               0.999999994              -0.000188536               0.000187978               0.999999994              -0.000200200               0.000197538               0.999999994              -0.000212530               0.000206361               0.999999994              -0.000075820               0.000159315               0.999999994              -0.000088379               0.000139137               0.999999994              -0.000093616               0.000134186               0.999999994              -0.000097168               0.000136872               0.999999994              -0.000100817               0.000144044               0.999999994              -0.000105234               0.000154022               0.999999994              -0.000110606               0.000165860               0.999999994              -0.000116916               0.000178882               0.999999994              -0.000124067               0.000192794               0.999999994              -0.000131982               0.000207293               0.999999994              -0.000140651               0.000222319               0.999999994              -0.000150009               0.000237745               0.999999994              -0.000160035               0.000253494               0.999999994              -0.000170729               0.000269324               0.999999994              -0.000182112               0.000285138               0.999999994              -0.000194213               0.000300756               0.999999994              -0.000206989               0.000315946               0.999999994              -0.000072547               0.000209772               0.999999994              -0.000078845               0.000183532               0.999999994              -0.000081398               0.000178138               0.999999994              -0.000084061               0.000182828               0.999999994              -0.000087874               0.000193103               0.999999994              -0.000093034               0.000206907               0.999999994              -0.000099321               0.000222926               0.999999994              -0.000106578               0.000240381               0.999999994              -0.000114706               0.000258932               0.999999994              -0.000123614               0.000278214               0.999999994              -0.000133250               0.000298104               0.999999994              -0.000143615               0.000318595               0.999999994              -0.000154638               0.000339560               0.999999994              -0.000166292               0.000360925               0.999999994              -0.000178605               0.000382507               0.999999994              -0.000191431               0.000404148               0.999999994              -0.000204670               0.000425530               0.999999994              -0.000068422               0.000257980               0.999999994              -0.000067577               0.000226550               0.999999994              -0.000067806               0.000221421               0.999999994              -0.000070231               0.000228538               0.999999994              -0.000074870               0.000242276               0.999999994              -0.000081281               0.000259924               0.999999994              -0.000088863               0.000280000               0.999999994              -0.000097384               0.000301733               0.999999994              -0.000106776               0.000324730               0.999999994              -0.000116966               0.000348650               0.999999994              -0.000127889               0.000373243               0.999999994              -0.000139444               0.000398642               0.999999994              -0.000151631               0.000424702               0.999999994              -0.000164382               0.000451367               0.999999994              -0.000177569               0.000478469               0.999999994              -0.000191066               0.000505568               0.999999994              -0.000204709               0.000532473               0.999999994              -0.000063495               0.000303470               0.999999994              -0.000055281               0.000268039               0.999999994              -0.000053857               0.000263833               0.999999994              -0.000056892               0.000273601               0.999999994              -0.000062960               0.000290844               0.999999994              -0.000070941               0.000312207               0.999999994              -0.000080095               0.000336178               0.999999994              -0.000090118               0.000361985               0.999999994              -0.000100933               0.000389256               0.999999994              -0.000112510               0.000417637               0.999999994              -0.000124782               0.000446840               0.999999994              -0.000137646               0.000476951               0.999999994              -0.000151067               0.000507905               0.999999994              -0.000164895               0.000539562               0.999999994              -0.000178983               0.000571492               0.999999994              -0.000193109               0.000603345               0.999999994              -0.000207082               0.000634782               0.999999994              -0.000057926               0.000345697               0.999999994              -0.000042740               0.000307832               0.999999994              -0.000040691               0.000304905               0.999999994              -0.000045129               0.000317338               0.999999994              -0.000053008               0.000337930               0.999999994              -0.000062752               0.000362908               0.999999994              -0.000073446               0.000390666               0.999999994              -0.000084923               0.000420465               0.999999994              -0.000097229               0.000451896               0.999999994              -0.000110190               0.000484636               0.999999994              -0.000123772               0.000518302               0.999999994              -0.000138000               0.000553042               0.999999994              -0.000152661               0.000588534               0.999999994              -0.000167522               0.000624414               0.999999994              -0.000182358               0.000660381               0.999999994              -0.000196861               0.000696000               0.999999994              -0.000210926               0.000731087               0.999999994              -0.000052167               0.000383843               0.999999994              -0.000030588               0.000345769               0.999999994              -0.000029197               0.000344205               0.999999994              -0.000035399               0.000359191               0.999999994              -0.000045169               0.000383022               0.999999994              -0.000056517               0.000411634               0.999999994              -0.000068764               0.000443153               0.999999994              -0.000081782               0.000476923               0.999999994              -0.000095429               0.000512447               0.999999994              -0.000109679               0.000549424               0.999999994              -0.000124565               0.000587463               0.999999994              -0.000139995               0.000626405               0.999999994              -0.000155661               0.000665894               0.999999994              -0.000171250               0.000705385               0.999999994              -0.000186454               0.000744614               0.999999994              -0.000201275               0.000783437               0.999999994              -0.000215801               0.000821778               0.999999994              -0.000046894               0.000419223               0.999999994              -0.000021612               0.000385327               0.999999994              -0.000018357               0.000380604               0.999999994              -0.000023271               0.000391595               0.999999994              -0.000031946               0.000411555               0.999999994              -0.000042382               0.000436789               0.999999994              -0.000053596               0.000465252               0.999999994              -0.000065333               0.000496006               0.999999994              -0.000077461               0.000528491               0.999999994              -0.000089987               0.000562399               0.999999994              -0.000102977               0.000597367               0.999999994              -0.000116339               0.000633289               0.999999994              -0.000130046               0.000669918               0.999999994              -0.000143841               0.000706915               0.999999994              -0.000157392               0.000743966               0.999999994              -0.000170576               0.000780821               0.999999994              -0.000183645               0.000817391               0.999999994              -0.000041095               0.000450891               0.999999994              -0.000014412               0.000422792               0.999999994              -0.000009229               0.000417098               0.999999994              -0.000012485               0.000425097               0.999999994              -0.000019856               0.000441588               0.999999994              -0.000029057               0.000463598               0.999999994              -0.000039054               0.000489256               0.999999994              -0.000049440               0.000517357               0.999999994              -0.000060123               0.000547211               0.999999994              -0.000071023               0.000578285               0.999999994              -0.000082132               0.000610488               0.999999994              -0.000093310               0.000643537               0.999999994              -0.000104706               0.000677474               0.999999994              -0.000116152               0.000711945               0.999999994              -0.000127427               0.000746713               0.999999994              -0.000138305               0.000781435               0.999999994              -0.000148789               0.000816158               0.999999994              -0.000034882               0.000478381               0.999999994              -0.000008895               0.000457237               0.999999994              -0.000002301               0.000452149               0.999999994              -0.000003984               0.000458281               0.999999994              -0.000009767               0.000472173               0.999999994              -0.000017336               0.000491454               0.999999994              -0.000025869               0.000514527               0.999999994              -0.000034875               0.000540227               0.999999994              -0.000044091               0.000567790               0.999999994              -0.000053319               0.000596689               0.999999994              -0.000062489               0.000626598               0.999999994              -0.000071497               0.000657354               0.999999994              -0.000080425               0.000688860               0.999999994              -0.000089264               0.000721017               0.999999994              -0.000097877               0.000753620               0.999999994              -0.000105910               0.000786395               0.999999994              -0.000113025               0.000819272               0.999999994              -0.000028330               0.000501279               0.999999994              -0.000005063               0.000487368               0.999999994               0.000002062               0.000484058               0.999999994               0.000001784               0.000489555               0.999999994              -0.000002250               0.000501776               0.999999994              -0.000008068               0.000518998               0.999999994              -0.000014948               0.000539842               0.999999994              -0.000022474               0.000563491               0.999999994              -0.000030081               0.000589110               0.999999994              -0.000037581               0.000616247               0.999999994              -0.000044843               0.000644477               0.999999994              -0.000051792               0.000673574               0.999999994              -0.000058424               0.000703392               0.999999994              -0.000064772               0.000733725               0.999999994              -0.000070592               0.000764454               0.999999994              -0.000075504               0.000795622               0.999999994              -0.000079039               0.000827010               0.999999994              -0.000021506               0.000519257               0.999999994              -0.000002581               0.000512164               0.999999994               0.000003985               0.000511232               0.999999994               0.000004648               0.000516937               0.999999994               0.000002232               0.000528309               0.999999994              -0.000001892               0.000544114               0.999999994              -0.000007037               0.000563398               0.999999994              -0.000012847               0.000585440               0.999999994              -0.000018750               0.000609652               0.999999994              -0.000024486               0.000635479               0.999999994              -0.000029877               0.000662494               0.999999994              -0.000034902               0.000690476               0.999999994              -0.000039510               0.000719178               0.999999994              -0.000043693               0.000748386               0.999999994              -0.000047077               0.000778009               0.999999994              -0.000049154               0.000808003               0.999999994              -0.000049428               0.000838317               0.999999994              -0.000014452               0.000532147               0.999999994              -0.000001150               0.000530529               0.999999994               0.000003858               0.000532011               0.999999994               0.000004836               0.000538416               0.999999994               0.000003621               0.000549521               0.999999994               0.000001090               0.000564545               0.999999994              -0.000002324               0.000582842               0.999999994              -0.000006339               0.000603884               0.999999994              -0.000010419               0.000627116               0.999999994              -0.000014321               0.000652050               0.999999994              -0.000017898               0.000678348               0.999999994              -0.000021177               0.000705691               0.999999994              -0.000024046               0.000733877               0.999999994              -0.000026385               0.000762673               0.999999994              -0.000027949               0.000791978               0.999999994              -0.000028181               0.000821611               0.999999994              -0.000026452               0.000851416               0.999999994              -0.000007262               0.000539902               0.999999994              -0.000000417               0.000541776               0.999999994               0.000002305               0.000545014               0.999999994               0.000002952               0.000552156               0.999999994               0.000002491               0.000563279               0.999999994               0.000001353               0.000577963               0.999999994              -0.000000351               0.000595732               0.999999994              -0.000002448               0.000616182               0.999999994              -0.000004601               0.000638998               0.999999994              -0.000006582               0.000663656               0.999999994              -0.000008388               0.000689689               0.999999994              -0.000009926               0.000716830               0.999999994              -0.000011227               0.000744937               0.999999994              -0.000012206               0.000773742               0.999999994              -0.000012704               0.000803054               0.999999994              -0.000012417               0.000832737               0.999999994              -0.000010790               0.000862538               0.999999994              -0.000000000               0.000542504               0.999999994               0.000000000               0.000545615               0.999999994               0.000000000               0.000549472               0.999999994               0.000000000               0.000556887               0.999999994               0.000000000               0.000568124               0.999999994              -0.000000000               0.000582673               0.999999994               0.000000000               0.000600250               0.999999994               0.000000000               0.000620583               0.999999994               0.000000000               0.000643261               0.999999994               0.000000000               0.000667850               0.999999994              -0.000000000               0.000693902               0.999999994               0.000000000               0.000721082               0.999999994               0.000000000               0.000749171               0.999999994               0.000000000               0.000777970               0.999999994              -0.000000000               0.000807288               0.999999994              -0.000000000               0.000837004               0.999999994              -0.000000000               0.000866886               0.999999994              -0.000080191              -0.000000000               0.999999994              -0.000101653              -0.000000000               0.999999994              -0.000111699              -0.000000000               0.999999994              -0.000117456              -0.000000000               0.999999994              -0.000121754              -0.000000000               0.999999994              -0.000125910               0.000000000               0.999999994              -0.000130574               0.000000000               0.999999994              -0.000135958               0.000000000               0.999999994              -0.000142181               0.000000000               0.999999994              -0.000149272               0.000000000               0.999999994              -0.000157272              -0.000000000               0.999999994              -0.000166114               0.000000000               0.999999994              -0.000175726               0.000000000               0.999999994              -0.000186097               0.000000000               0.999999994              -0.000197153               0.000000000               0.999999994              -0.000208770               0.000000000               0.999999994              -0.000220847               0.000000000               0.999999994              -0.000079674              -0.000053866               0.999999994              -0.000100114              -0.000047017               0.999999994              -0.000109588              -0.000044953               0.999999994              -0.000115050              -0.000045524               0.999999994              -0.000119283              -0.000047597               0.999999994              -0.000123461              -0.000050705               0.999999994              -0.000128142              -0.000054429               0.999999994              -0.000133591              -0.000058643               0.999999994              -0.000139882              -0.000063196               0.999999994              -0.000147046              -0.000068013               0.999999994              -0.000155085              -0.000072976               0.999999994              -0.000163911              -0.000078059               0.999999994              -0.000173486              -0.000083166               0.999999994              -0.000183793              -0.000088144               0.999999994              -0.000194784              -0.000092880               0.999999994              -0.000206390              -0.000097231               0.999999994              -0.000218529              -0.000101004               0.999999994              -0.000078193              -0.000107158               0.999999994              -0.000095593              -0.000093543               0.999999994              -0.000103351              -0.000089729               0.999999994              -0.000107972              -0.000091076               0.999999994              -0.000111900              -0.000095514               0.999999994              -0.000116119              -0.000101895               0.999999994              -0.000121002              -0.000109584               0.999999994              -0.000126716              -0.000118161               0.999999994              -0.000133283              -0.000127380               0.999999994              -0.000140666              -0.000137056               0.999999994              -0.000148854              -0.000147030               0.999999994              -0.000157733              -0.000157276               0.999999994              -0.000167303              -0.000167646               0.999999994              -0.000177575              -0.000177919               0.999999994              -0.000188536              -0.000187978               0.999999994              -0.000200200              -0.000197538               0.999999994              -0.000212530              -0.000206361               0.999999994              -0.000075820              -0.000159315               0.999999994              -0.000088379              -0.000139137               0.999999994              -0.000093616              -0.000134186               0.999999994              -0.000097168              -0.000136872               0.999999994              -0.000100817              -0.000144044               0.999999994              -0.000105234              -0.000154022               0.999999994              -0.000110606              -0.000165860               0.999999994              -0.000116916              -0.000178882               0.999999994              -0.000124067              -0.000192794               0.999999994              -0.000131982              -0.000207293               0.999999994              -0.000140651              -0.000222319               0.999999994              -0.000150009              -0.000237745               0.999999994              -0.000160035              -0.000253494               0.999999994              -0.000170729              -0.000269324               0.999999994              -0.000182112              -0.000285138               0.999999994              -0.000194213              -0.000300756               0.999999994              -0.000206989              -0.000315946               0.999999994              -0.000072547              -0.000209772               0.999999994              -0.000078845              -0.000183532               0.999999994              -0.000081398              -0.000178138               0.999999994              -0.000084061              -0.000182828               0.999999994              -0.000087874              -0.000193103               0.999999994              -0.000093034              -0.000206907               0.999999994              -0.000099321              -0.000222926               0.999999994              -0.000106578              -0.000240381               0.999999994              -0.000114706              -0.000258932               0.999999994              -0.000123614              -0.000278214               0.999999994              -0.000133250              -0.000298104               0.999999994              -0.000143615              -0.000318595               0.999999994              -0.000154638              -0.000339560               0.999999994              -0.000166292              -0.000360925               0.999999994              -0.000178605              -0.000382507               0.999999994              -0.000191431              -0.000404148               0.999999994              -0.000204670              -0.000425530               0.999999994              -0.000068422              -0.000257980               0.999999994              -0.000067577              -0.000226550               0.999999994              -0.000067806              -0.000221421               0.999999994              -0.000070231              -0.000228538               0.999999994              -0.000074870              -0.000242276               0.999999994              -0.000081281              -0.000259924               0.999999994              -0.000088863              -0.000280000               0.999999994              -0.000097384              -0.000301733               0.999999994              -0.000106776              -0.000324730               0.999999994              -0.000116966              -0.000348650               0.999999994              -0.000127889              -0.000373243               0.999999994              -0.000139444              -0.000398642               0.999999994              -0.000151631              -0.000424702               0.999999994              -0.000164382              -0.000451367               0.999999994              -0.000177569              -0.000478469               0.999999994              -0.000191066              -0.000505568               0.999999994              -0.000204709              -0.000532473               0.999999994              -0.000063495              -0.000303470               0.999999994              -0.000055281              -0.000268039               0.999999994              -0.000053857              -0.000263833               0.999999994              -0.000056892              -0.000273601               0.999999994              -0.000062960              -0.000290844               0.999999994              -0.000070941              -0.000312207               0.999999994              -0.000080095              -0.000336178               0.999999994              -0.000090118              -0.000361985               0.999999994              -0.000100933              -0.000389256               0.999999994              -0.000112510              -0.000417637               0.999999994              -0.000124782              -0.000446840               0.999999994              -0.000137646              -0.000476951               0.999999994              -0.000151067              -0.000507905               0.999999994              -0.000164895              -0.000539562               0.999999994              -0.000178983              -0.000571492               0.999999994              -0.000193109              -0.000603345               0.999999994              -0.000207082              -0.000634782               0.999999994              -0.000057926              -0.000345697               0.999999994              -0.000042740              -0.000307832               0.999999994              -0.000040691              -0.000304905               0.999999994              -0.000045129              -0.000317338               0.999999994              -0.000053008              -0.000337930               0.999999994              -0.000062752              -0.000362908               0.999999994              -0.000073446              -0.000390666               0.999999994              -0.000084923              -0.000420465               0.999999994              -0.000097229              -0.000451896               0.999999994              -0.000110190              -0.000484636               0.999999994              -0.000123772              -0.000518302               0.999999994              -0.000138000              -0.000553042               0.999999994              -0.000152661              -0.000588534               0.999999994              -0.000167522              -0.000624414               0.999999994              -0.000182358              -0.000660381               0.999999994              -0.000196861              -0.000696000               0.999999994              -0.000210926              -0.000731087               0.999999994              -0.000052167              -0.000383843               0.999999994              -0.000030588              -0.000345769               0.999999994              -0.000029197              -0.000344205               0.999999994              -0.000035399              -0.000359191               0.999999994              -0.000045169              -0.000383022               0.999999994              -0.000056517              -0.000411634               0.999999994              -0.000068764              -0.000443153               0.999999994              -0.000081782              -0.000476923               0.999999994              -0.000095429              -0.000512447               0.999999994              -0.000109679              -0.000549424               0.999999994              -0.000124565              -0.000587463               0.999999994              -0.000139995              -0.000626405               0.999999994              -0.000155661              -0.000665894               0.999999994              -0.000171250              -0.000705385               0.999999994              -0.000186454              -0.000744614               0.999999994              -0.000201275              -0.000783437               0.999999994              -0.000215801              -0.000821778               0.999999994              -0.000046894              -0.000419223               0.999999994              -0.000021612              -0.000385327               0.999999994              -0.000018357              -0.000380604               0.999999994              -0.000023271              -0.000391595               0.999999994              -0.000031946              -0.000411555               0.999999994              -0.000042382              -0.000436789               0.999999994              -0.000053596              -0.000465252               0.999999994              -0.000065333              -0.000496006               0.999999994              -0.000077461              -0.000528491               0.999999994              -0.000089987              -0.000562399               0.999999994              -0.000102977              -0.000597367               0.999999994              -0.000116339              -0.000633289               0.999999994              -0.000130046              -0.000669918               0.999999994              -0.000143841              -0.000706915               0.999999994              -0.000157392              -0.000743966               0.999999994              -0.000170576              -0.000780821               0.999999994              -0.000183645              -0.000817391               0.999999994              -0.000041095              -0.000450891               0.999999994              -0.000014412              -0.000422792               0.999999994              -0.000009229              -0.000417098               0.999999994              -0.000012485              -0.000425097               0.999999994              -0.000019856              -0.000441588               0.999999994              -0.000029057              -0.000463598               0.999999994              -0.000039054              -0.000489256               0.999999994              -0.000049440              -0.000517357               0.999999994              -0.000060123              -0.000547211               0.999999994              -0.000071023              -0.000578285               0.999999994              -0.000082132              -0.000610488               0.999999994              -0.000093310              -0.000643537               0.999999994              -0.000104706              -0.000677474               0.999999994              -0.000116152              -0.000711945               0.999999994              -0.000127427              -0.000746713               0.999999994              -0.000138305              -0.000781435               0.999999994              -0.000148789              -0.000816158               0.999999994              -0.000034882              -0.000478381               0.999999994              -0.000008895              -0.000457237               0.999999994              -0.000002301              -0.000452149               0.999999994              -0.000003984              -0.000458281               0.999999994              -0.000009767              -0.000472173               0.999999994              -0.000017336              -0.000491454               0.999999994              -0.000025869              -0.000514527               0.999999994              -0.000034875              -0.000540227               0.999999994              -0.000044091              -0.000567790               0.999999994              -0.000053319              -0.000596689               0.999999994              -0.000062489              -0.000626598               0.999999994              -0.000071497              -0.000657354               0.999999994              -0.000080425              -0.000688860               0.999999994              -0.000089264              -0.000721017               0.999999994              -0.000097877              -0.000753620               0.999999994              -0.000105910              -0.000786395               0.999999994              -0.000113025              -0.000819272               0.999999994              -0.000028330              -0.000501279               0.999999994              -0.000005063              -0.000487368               0.999999994               0.000002062              -0.000484058               0.999999994               0.000001784              -0.000489555               0.999999994              -0.000002250              -0.000501776               0.999999994              -0.000008068              -0.000518998               0.999999994              -0.000014948              -0.000539842               0.999999994              -0.000022474              -0.000563491               0.999999994              -0.000030081              -0.000589110               0.999999994              -0.000037581              -0.000616247               0.999999994              -0.000044843              -0.000644477               0.999999994              -0.000051792              -0.000673574               0.999999994              -0.000058424              -0.000703392               0.999999994              -0.000064772              -0.000733725               0.999999994              -0.000070592              -0.000764454               0.999999994              -0.000075504              -0.000795622               0.999999994              -0.000079039              -0.000827010               0.999999994              -0.000021506              -0.000519257               0.999999994              -0.000002581              -0.000512164               0.999999994               0.000003985              -0.000511232               0.999999994               0.000004648              -0.000516937               0.999999994               0.000002232              -0.000528309               0.999999994              -0.000001892              -0.000544114               0.999999994              -0.000007037              -0.000563398               0.999999994              -0.000012847              -0.000585440               0.999999994              -0.000018750              -0.000609652               0.999999994              -0.000024486              -0.000635479               0.999999994              -0.000029877              -0.000662494               0.999999994              -0.000034902              -0.000690476               0.999999994              -0.000039510              -0.000719178               0.999999994              -0.000043693              -0.000748386               0.999999994              -0.000047077              -0.000778009               0.999999994              -0.000049154              -0.000808003               0.999999994              -0.000049428              -0.000838317               0.999999994              -0.000014452              -0.000532147               0.999999994              -0.000001150              -0.000530529               0.999999994               0.000003858              -0.000532011               0.999999994               0.000004836              -0.000538416               0.999999994               0.000003621              -0.000549521               0.999999994               0.000001090              -0.000564545               0.999999994              -0.000002324              -0.000582842               0.999999994              -0.000006339              -0.000603884               0.999999994              -0.000010419              -0.000627116               0.999999994              -0.000014321              -0.000652050               0.999999994              -0.000017898              -0.000678348               0.999999994              -0.000021177              -0.000705691               0.999999994              -0.000024046              -0.000733877               0.999999994              -0.000026385              -0.000762673               0.999999994              -0.000027949              -0.000791978               0.999999994              -0.000028181              -0.000821611               0.999999994              -0.000026452              -0.000851416               0.999999994              -0.000007262              -0.000539902               0.999999994              -0.000000417              -0.000541776               0.999999994               0.000002305              -0.000545014               0.999999994               0.000002952              -0.000552156               0.999999994               0.000002491              -0.000563279               0.999999994               0.000001353              -0.000577963               0.999999994              -0.000000351              -0.000595732               0.999999994              -0.000002448              -0.000616182               0.999999994              -0.000004601              -0.000638998               0.999999994              -0.000006582              -0.000663656               0.999999994              -0.000008388              -0.000689689               0.999999994              -0.000009926              -0.000716830               0.999999994              -0.000011227              -0.000744937               0.999999994              -0.000012206              -0.000773742               0.999999994              -0.000012704              -0.000803054               0.999999994              -0.000012417              -0.000832737               0.999999994              -0.000010790              -0.000862538               0.999999994              -0.000000000              -0.000542504               0.999999994              -0.000000000              -0.000545615               0.999999994              -0.000000000              -0.000549472               0.999999994               0.000000000              -0.000556887               0.999999994              -0.000000000              -0.000568124               0.999999994               0.000000000              -0.000582673               0.999999994               0.000000000              -0.000600250               0.999999994               0.000000000              -0.000620583               0.999999994              -0.000000000              -0.000643261               0.999999994              -0.000000000              -0.000667850               0.999999994              -0.000000000              -0.000693902               0.999999994              -0.000000000              -0.000721082               0.999999994              -0.000000000              -0.000749171               0.999999994               0.000000000              -0.000777970               0.999999994               0.000000000              -0.000807288               0.999999994               0.000000000              -0.000837004               0.999999994              -0.000000000              -0.000866886               0.999999994               0.000080191              -0.000000000               0.999999994               0.000101653              -0.000000000               0.999999994               0.000111699               0.000000000               0.999999994               0.000117456               0.000000000               0.999999994               0.000121754               0.000000000               0.999999994               0.000125910               0.000000000               0.999999994               0.000130574               0.000000000               0.999999994               0.000135958              -0.000000000               0.999999994               0.000142181               0.000000000               0.999999994               0.000149272               0.000000000               0.999999994               0.000157272              -0.000000000               0.999999994               0.000166114              -0.000000000               0.999999994               0.000175726              -0.000000000               0.999999994               0.000186097              -0.000000000               0.999999994               0.000197153              -0.000000000               0.999999994               0.000208770              -0.000000000               0.999999994               0.000220847              -0.000000000               0.999999994               0.000079674              -0.000053866               0.999999994               0.000100114              -0.000047017               0.999999994               0.000109588              -0.000044953               0.999999994               0.000115050              -0.000045524               0.999999994               0.000119283              -0.000047597               0.999999994               0.000123461              -0.000050705               0.999999994               0.000128142              -0.000054429               0.999999994               0.000133591              -0.000058643               0.999999994               0.000139882              -0.000063196               0.999999994               0.000147046              -0.000068013               0.999999994               0.000155085              -0.000072976               0.999999994               0.000163911              -0.000078059               0.999999994               0.000173486              -0.000083166               0.999999994               0.000183793              -0.000088144               0.999999994               0.000194784              -0.000092880               0.999999994               0.000206390              -0.000097231               0.999999994               0.000218529              -0.000101004               0.999999994               0.000078193              -0.000107158               0.999999994               0.000095593              -0.000093543               0.999999994               0.000103351              -0.000089729               0.999999994               0.000107972              -0.000091076               0.999999994               0.000111900              -0.000095514               0.999999994               0.000116119              -0.000101895               0.999999994               0.000121002              -0.000109584               0.999999994               0.000126716              -0.000118161               0.999999994               0.000133283              -0.000127380               0.999999994               0.000140666              -0.000137056               0.999999994               0.000148854              -0.000147030               0.999999994               0.000157733              -0.000157276               0.999999994               0.000167303              -0.000167646               0.999999994               0.000177575              -0.000177919               0.999999994               0.000188536              -0.000187978               0.999999994               0.000200200              -0.000197538               0.999999994               0.000212530              -0.000206361               0.999999994               0.000075820              -0.000159315               0.999999994               0.000088379              -0.000139137               0.999999994               0.000093616              -0.000134186               0.999999994               0.000097168              -0.000136872               0.999999994               0.000100817              -0.000144044               0.999999994               0.000105234              -0.000154022               0.999999994               0.000110606              -0.000165860               0.999999994               0.000116916              -0.000178882               0.999999994               0.000124067              -0.000192794               0.999999994               0.000131982              -0.000207293               0.999999994               0.000140651              -0.000222319               0.999999994               0.000150009              -0.000237745               0.999999994               0.000160035              -0.000253494               0.999999994               0.000170729              -0.000269324               0.999999994               0.000182112              -0.000285138               0.999999994               0.000194213              -0.000300756               0.999999994               0.000206989              -0.000315946               0.999999994               0.000072547              -0.000209772               0.999999994               0.000078845              -0.000183532               0.999999994               0.000081398              -0.000178138               0.999999994               0.000084061              -0.000182828               0.999999994               0.000087874              -0.000193103               0.999999994               0.000093034              -0.000206907               0.999999994               0.000099321              -0.000222926               0.999999994               0.000106578              -0.000240381               0.999999994               0.000114706              -0.000258932               0.999999994               0.000123614              -0.000278214               0.999999994               0.000133250              -0.000298104               0.999999994               0.000143615              -0.000318595               0.999999994               0.000154638              -0.000339560               0.999999994               0.000166292              -0.000360925               0.999999994               0.000178605              -0.000382507               0.999999994               0.000191431              -0.000404148               0.999999994               0.000204670              -0.000425530               0.999999994               0.000068422              -0.000257980               0.999999994               0.000067577              -0.000226550               0.999999994               0.000067806              -0.000221421               0.999999994               0.000070231              -0.000228538               0.999999994               0.000074870              -0.000242276               0.999999994               0.000081281              -0.000259924               0.999999994               0.000088863              -0.000280000               0.999999994               0.000097384              -0.000301733               0.999999994               0.000106776              -0.000324730               0.999999994               0.000116966              -0.000348650               0.999999994               0.000127889              -0.000373243               0.999999994               0.000139444              -0.000398642               0.999999994               0.000151631              -0.000424702               0.999999994               0.000164382              -0.000451367               0.999999994               0.000177569              -0.000478469               0.999999994               0.000191066              -0.000505568               0.999999994               0.000204709              -0.000532473               0.999999994               0.000063495              -0.000303470               0.999999994               0.000055281              -0.000268039               0.999999994               0.000053857              -0.000263833               0.999999994               0.000056892              -0.000273601               0.999999994               0.000062960              -0.000290844               0.999999994               0.000070941              -0.000312207               0.999999994               0.000080095              -0.000336178               0.999999994               0.000090118              -0.000361985               0.999999994               0.000100933              -0.000389256               0.999999994               0.000112510              -0.000417637               0.999999994               0.000124782              -0.000446840               0.999999994               0.000137646              -0.000476951               0.999999994               0.000151067              -0.000507905               0.999999994               0.000164895              -0.000539562               0.999999994               0.000178983              -0.000571492               0.999999994               0.000193109              -0.000603345               0.999999994               0.000207082              -0.000634782               0.999999994               0.000057926              -0.000345697               0.999999994               0.000042740              -0.000307832               0.999999994               0.000040691              -0.000304905               0.999999994               0.000045129              -0.000317338               0.999999994               0.000053008              -0.000337930               0.999999994               0.000062752              -0.000362908               0.999999994               0.000073446              -0.000390666               0.999999994               0.000084923              -0.000420465               0.999999994               0.000097229              -0.000451896               0.999999994               0.000110190              -0.000484636               0.999999994               0.000123772              -0.000518302               0.999999994               0.000138000              -0.000553042               0.999999994               0.000152661              -0.000588534               0.999999994               0.000167522              -0.000624414               0.999999994               0.000182358              -0.000660381               0.999999994               0.000196861              -0.000696000               0.999999994               0.000210926              -0.000731087               0.999999994               0.000052167              -0.000383843               0.999999994               0.000030588              -0.000345769               0.999999994               0.000029197              -0.000344205               0.999999994               0.000035399              -0.000359191               0.999999994               0.000045169              -0.000383022               0.999999994               0.000056517              -0.000411634               0.999999994               0.000068764              -0.000443153               0.999999994               0.000081782              -0.000476923               0.999999994               0.000095429              -0.000512447               0.999999994               0.000109679              -0.000549424               0.999999994               0.000124565              -0.000587463               0.999999994               0.000139995              -0.000626405               0.999999994               0.000155661              -0.000665894               0.999999994               0.000171250              -0.000705385               0.999999994               0.000186454              -0.000744614               0.999999994               0.000201275              -0.000783437               0.999999994               0.000215801              -0.000821778               0.999999994               0.000046894              -0.000419223               0.999999994               0.000021612              -0.000385327               0.999999994               0.000018357              -0.000380604               0.999999994               0.000023271              -0.000391595               0.999999994               0.000031946              -0.000411555               0.999999994               0.000042382              -0.000436789               0.999999994               0.000053596              -0.000465252               0.999999994               0.000065333              -0.000496006               0.999999994               0.000077461              -0.000528491               0.999999994               0.000089987              -0.000562399               0.999999994               0.000102977              -0.000597367               0.999999994               0.000116339              -0.000633289               0.999999994               0.000130046              -0.000669918               0.999999994               0.000143841              -0.000706915               0.999999994               0.000157392              -0.000743966               0.999999994               0.000170576              -0.000780821               0.999999994               0.000183645              -0.000817391               0.999999994               0.000041095              -0.000450891               0.999999994               0.000014412              -0.000422792               0.999999994               0.000009229              -0.000417098               0.999999994               0.000012485              -0.000425097               0.999999994               0.000019856              -0.000441588               0.999999994               0.000029057              -0.000463598               0.999999994               0.000039054              -0.000489256               0.999999994               0.000049440              -0.000517357               0.999999994               0.000060123              -0.000547211               0.999999994               0.000071023              -0.000578285               0.999999994               0.000082132              -0.000610488               0.999999994               0.000093310              -0.000643537               0.999999994               0.000104706              -0.000677474               0.999999994               0.000116152              -0.000711945               0.999999994               0.000127427              -0.000746713               0.999999994               0.000138305              -0.000781435               0.999999994               0.000148789              -0.000816158               0.999999994               0.000034882              -0.000478381               0.999999994               0.000008895              -0.000457237               0.999999994               0.000002301              -0.000452149               0.999999994               0.000003984              -0.000458281               0.999999994               0.000009767              -0.000472173               0.999999994               0.000017336              -0.000491454               0.999999994               0.000025869              -0.000514527               0.999999994               0.000034875              -0.000540227               0.999999994               0.000044091              -0.000567790               0.999999994               0.000053319              -0.000596689               0.999999994               0.000062489              -0.000626598               0.999999994               0.000071497              -0.000657354               0.999999994               0.000080425              -0.000688860               0.999999994               0.000089264              -0.000721017               0.999999994               0.000097877              -0.000753620               0.999999994               0.000105910              -0.000786395               0.999999994               0.000113025              -0.000819272               0.999999994               0.000028330              -0.000501279               0.999999994               0.000005063              -0.000487368               0.999999994              -0.000002062              -0.000484058               0.999999994              -0.000001784              -0.000489555               0.999999994               0.000002250              -0.000501776               0.999999994               0.000008068              -0.000518998               0.999999994               0.000014948              -0.000539842               0.999999994               0.000022474              -0.000563491               0.999999994               0.000030081              -0.000589110               0.999999994               0.000037581              -0.000616247               0.999999994               0.000044843              -0.000644477               0.999999994               0.000051792              -0.000673574               0.999999994               0.000058424              -0.000703392               0.999999994               0.000064772              -0.000733725               0.999999994               0.000070592              -0.000764454               0.999999994               0.000075504              -0.000795622               0.999999994               0.000079039              -0.000827010               0.999999994               0.000021506              -0.000519257               0.999999994               0.000002581              -0.000512164               0.999999994              -0.000003985              -0.000511232               0.999999994              -0.000004648              -0.000516937               0.999999994              -0.000002232              -0.000528309               0.999999994               0.000001892              -0.000544114               0.999999994               0.000007037              -0.000563398               0.999999994               0.000012847              -0.000585440               0.999999994               0.000018750              -0.000609652               0.999999994               0.000024486              -0.000635479               0.999999994               0.000029877              -0.000662494               0.999999994               0.000034902              -0.000690476               0.999999994               0.000039510              -0.000719178               0.999999994               0.000043693              -0.000748386               0.999999994               0.000047077              -0.000778009               0.999999994               0.000049154              -0.000808003               0.999999994               0.000049428              -0.000838317               0.999999994               0.000014452              -0.000532147               0.999999994               0.000001150              -0.000530529               0.999999994              -0.000003858              -0.000532011               0.999999994              -0.000004836              -0.000538416               0.999999994              -0.000003621              -0.000549521               0.999999994              -0.000001090              -0.000564545               0.999999994               0.000002324              -0.000582842               0.999999994               0.000006339              -0.000603884               0.999999994               0.000010419              -0.000627116               0.999999994               0.000014321              -0.000652050               0.999999994               0.000017898              -0.000678348               0.999999994               0.000021177              -0.000705691               0.999999994               0.000024046              -0.000733877               0.999999994               0.000026385              -0.000762673               0.999999994               0.000027949              -0.000791978               0.999999994               0.000028181              -0.000821611               0.999999994               0.000026452              -0.000851416               0.999999994               0.000007262              -0.000539902               0.999999994               0.000000417              -0.000541776               0.999999994              -0.000002305              -0.000545014               0.999999994              -0.000002952              -0.000552156               0.999999994              -0.000002491              -0.000563279               0.999999994              -0.000001353              -0.000577963               0.999999994               0.000000351              -0.000595732               0.999999994               0.000002448              -0.000616182               0.999999994               0.000004601              -0.000638998               0.999999994               0.000006582              -0.000663656               0.999999994               0.000008388              -0.000689689               0.999999994               0.000009926              -0.000716830               0.999999994               0.000011227              -0.000744937               0.999999994               0.000012206              -0.000773742               0.999999994               0.000012704              -0.000803054               0.999999994               0.000012417              -0.000832737               0.999999994               0.000010790              -0.000862538               0.999999994              -0.000000000              -0.000542504               0.999999994              -0.000000000              -0.000545615               0.999999994              -0.000000000              -0.000549472               0.999999994               0.000000000              -0.000556887               0.999999994              -0.000000000              -0.000568124               0.999999994               0.000000000              -0.000582673               0.999999994               0.000000000              -0.000600250               0.999999994               0.000000000              -0.000620583               0.999999994              -0.000000000              -0.000643261               0.999999994              -0.000000000              -0.000667850               0.999999994              -0.000000000              -0.000693902               0.999999994              -0.000000000              -0.000721082               0.999999994              -0.000000000              -0.000749171               0.999999994               0.000000000              -0.000777970               0.999999994               0.000000000              -0.000807288               0.999999994               0.000000000              -0.000837004               0.999999994              -0.000000000              -0.000866886               0.999999994               0.000080191              -0.000000000               0.999999994               0.000101653              -0.000000000               0.999999994               0.000111699               0.000000000               0.999999994               0.000117456               0.000000000               0.999999994               0.000121754               0.000000000               0.999999994               0.000125910               0.000000000               0.999999994               0.000130574               0.000000000               0.999999994               0.000135958              -0.000000000               0.999999994               0.000142181               0.000000000               0.999999994               0.000149272               0.000000000               0.999999994               0.000157272              -0.000000000               0.999999994               0.000166114              -0.000000000               0.999999994               0.000175726              -0.000000000               0.999999994               0.000186097              -0.000000000               0.999999994               0.000197153              -0.000000000               0.999999994               0.000208770              -0.000000000               0.999999994               0.000220847              -0.000000000               0.999999994               0.000079674               0.000053866               0.999999994               0.000100114               0.000047017               0.999999994               0.000109588               0.000044953               0.999999994               0.000115050               0.000045524               0.999999994               0.000119283               0.000047597               0.999999994               0.000123461               0.000050705               0.999999994               0.000128142               0.000054429               0.999999994               0.000133591               0.000058643               0.999999994               0.000139882               0.000063196               0.999999994               0.000147046               0.000068013               0.999999994               0.000155085               0.000072976               0.999999994               0.000163911               0.000078059               0.999999994               0.000173486               0.000083166               0.999999994               0.000183793               0.000088144               0.999999994               0.000194784               0.000092880               0.999999994               0.000206390               0.000097231               0.999999994               0.000218529               0.000101004               0.999999994               0.000078193               0.000107158               0.999999994               0.000095593               0.000093543               0.999999994               0.000103351               0.000089729               0.999999994               0.000107972               0.000091076               0.999999994               0.000111900               0.000095514               0.999999994               0.000116119               0.000101895               0.999999994               0.000121002               0.000109584               0.999999994               0.000126716               0.000118161               0.999999994               0.000133283               0.000127380               0.999999994               0.000140666               0.000137056               0.999999994               0.000148854               0.000147030               0.999999994               0.000157733               0.000157276               0.999999994               0.000167303               0.000167646               0.999999994               0.000177575               0.000177919               0.999999994               0.000188536               0.000187978               0.999999994               0.000200200               0.000197538               0.999999994               0.000212530               0.000206361               0.999999994               0.000075820               0.000159315               0.999999994               0.000088379               0.000139137               0.999999994               0.000093616               0.000134186               0.999999994               0.000097168               0.000136872               0.999999994               0.000100817               0.000144044               0.999999994               0.000105234               0.000154022               0.999999994               0.000110606               0.000165860               0.999999994               0.000116916               0.000178882               0.999999994               0.000124067               0.000192794               0.999999994               0.000131982               0.000207293               0.999999994               0.000140651               0.000222319               0.999999994               0.000150009               0.000237745               0.999999994               0.000160035               0.000253494               0.999999994               0.000170729               0.000269324               0.999999994               0.000182112               0.000285138               0.999999994               0.000194213               0.000300756               0.999999994               0.000206989               0.000315946               0.999999994               0.000072547               0.000209772               0.999999994               0.000078845               0.000183532               0.999999994               0.000081398               0.000178138               0.999999994               0.000084061               0.000182828               0.999999994               0.000087874               0.000193103               0.999999994               0.000093034               0.000206907               0.999999994               0.000099321               0.000222926               0.999999994               0.000106578               0.000240381               0.999999994               0.000114706               0.000258932               0.999999994               0.000123614               0.000278214               0.999999994               0.000133250               0.000298104               0.999999994               0.000143615               0.000318595               0.999999994               0.000154638               0.000339560               0.999999994               0.000166292               0.000360925               0.999999994               0.000178605               0.000382507               0.999999994               0.000191431               0.000404148               0.999999994               0.000204670               0.000425530               0.999999994               0.000068422               0.000257980               0.999999994               0.000067577               0.000226550               0.999999994               0.000067806               0.000221421               0.999999994               0.000070231               0.000228538               0.999999994               0.000074870               0.000242276               0.999999994               0.000081281               0.000259924               0.999999994               0.000088863               0.000280000               0.999999994               0.000097384               0.000301733               0.999999994               0.000106776               0.000324730               0.999999994               0.000116966               0.000348650               0.999999994               0.000127889               0.000373243               0.999999994               0.000139444               0.000398642               0.999999994               0.000151631               0.000424702               0.999999994               0.000164382               0.000451367               0.999999994               0.000177569               0.000478469               0.999999994               0.000191066               0.000505568               0.999999994               0.000204709               0.000532473               0.999999994               0.000063495               0.000303470               0.999999994               0.000055281               0.000268039               0.999999994               0.000053857               0.000263833               0.999999994               0.000056892               0.000273601               0.999999994               0.000062960               0.000290844               0.999999994               0.000070941               0.000312207               0.999999994               0.000080095               0.000336178               0.999999994               0.000090118               0.000361985               0.999999994               0.000100933               0.000389256               0.999999994               0.000112510               0.000417637               0.999999994               0.000124782               0.000446840               0.999999994               0.000137646               0.000476951               0.999999994               0.000151067               0.000507905               0.999999994               0.000164895               0.000539562               0.999999994               0.000178983               0.000571492               0.999999994               0.000193109               0.000603345               0.999999994               0.000207082               0.000634782               0.999999994               0.000057926               0.000345697               0.999999994               0.000042740               0.000307832               0.999999994               0.000040691               0.000304905               0.999999994               0.000045129               0.000317338               0.999999994               0.000053008               0.000337930               0.999999994               0.000062752               0.000362908               0.999999994               0.000073446               0.000390666               0.999999994               0.000084923               0.000420465               0.999999994               0.000097229               0.000451896               0.999999994               0.000110190               0.000484636               0.999999994               0.000123772               0.000518302               0.999999994               0.000138000               0.000553042               0.999999994               0.000152661               0.000588534               0.999999994               0.000167522               0.000624414               0.999999994               0.000182358               0.000660381               0.999999994               0.000196861               0.000696000               0.999999994               0.000210926               0.000731087               0.999999994               0.000052167               0.000383843               0.999999994               0.000030588               0.000345769               0.999999994               0.000029197               0.000344205               0.999999994               0.000035399               0.000359191               0.999999994               0.000045169               0.000383022               0.999999994               0.000056517               0.000411634               0.999999994               0.000068764               0.000443153               0.999999994               0.000081782               0.000476923               0.999999994               0.000095429               0.000512447               0.999999994               0.000109679               0.000549424               0.999999994               0.000124565               0.000587463               0.999999994               0.000139995               0.000626405               0.999999994               0.000155661               0.000665894               0.999999994               0.000171250               0.000705385               0.999999994               0.000186454               0.000744614               0.999999994               0.000201275               0.000783437               0.999999994               0.000215801               0.000821778               0.999999994               0.000046894               0.000419223               0.999999994               0.000021612               0.000385327               0.999999994               0.000018357               0.000380604               0.999999994               0.000023271               0.000391595               0.999999994               0.000031946               0.000411555               0.999999994               0.000042382               0.000436789               0.999999994               0.000053596               0.000465252               0.999999994               0.000065333               0.000496006               0.999999994               0.000077461               0.000528491               0.999999994               0.000089987               0.000562399               0.999999994               0.000102977               0.000597367               0.999999994               0.000116339               0.000633289               0.999999994               0.000130046               0.000669918               0.999999994               0.000143841               0.000706915               0.999999994               0.000157392               0.000743966               0.999999994               0.000170576               0.000780821               0.999999994               0.000183645               0.000817391               0.999999994               0.000041095               0.000450891               0.999999994               0.000014412               0.000422792               0.999999994               0.000009229               0.000417098               0.999999994               0.000012485               0.000425097               0.999999994               0.000019856               0.000441588               0.999999994               0.000029057               0.000463598               0.999999994               0.000039054               0.000489256               0.999999994               0.000049440               0.000517357               0.999999994               0.000060123               0.000547211               0.999999994               0.000071023               0.000578285               0.999999994               0.000082132               0.000610488               0.999999994               0.000093310               0.000643537               0.999999994               0.000104706               0.000677474               0.999999994               0.000116152               0.000711945               0.999999994               0.000127427               0.000746713               0.999999994               0.000138305               0.000781435               0.999999994               0.000148789               0.000816158               0.999999994               0.000034882               0.000478381               0.999999994               0.000008895               0.000457237               0.999999994               0.000002301               0.000452149               0.999999994               0.000003984               0.000458281               0.999999994               0.000009767               0.000472173               0.999999994               0.000017336               0.000491454               0.999999994               0.000025869               0.000514527               0.999999994               0.000034875               0.000540227               0.999999994               0.000044091               0.000567790               0.999999994               0.000053319               0.000596689               0.999999994               0.000062489               0.000626598               0.999999994               0.000071497               0.000657354               0.999999994               0.000080425               0.000688860               0.999999994               0.000089264               0.000721017               0.999999994               0.000097877               0.000753620               0.999999994               0.000105910               0.000786395               0.999999994               0.000113025               0.000819272               0.999999994               0.000028330               0.000501279               0.999999994               0.000005063               0.000487368               0.999999994              -0.000002062               0.000484058               0.999999994              -0.000001784               0.000489555               0.999999994               0.000002250               0.000501776               0.999999994               0.000008068               0.000518998               0.999999994               0.000014948               0.000539842               0.999999994               0.000022474               0.000563491               0.999999994               0.000030081               0.000589110               0.999999994               0.000037581               0.000616247               0.999999994               0.000044843               0.000644477               0.999999994               0.000051792               0.000673574               0.999999994               0.000058424               0.000703392               0.999999994               0.000064772               0.000733725               0.999999994               0.000070592               0.000764454               0.999999994               0.000075504               0.000795622               0.999999994               0.000079039               0.000827010               0.999999994               0.000021506               0.000519257               0.999999994               0.000002581               0.000512164               0.999999994              -0.000003985               0.000511232               0.999999994              -0.000004648               0.000516937               0.999999994              -0.000002232               0.000528309               0.999999994               0.000001892               0.000544114               0.999999994               0.000007037               0.000563398               0.999999994               0.000012847               0.000585440               0.999999994               0.000018750               0.000609652               0.999999994               0.000024486               0.000635479               0.999999994               0.000029877               0.000662494               0.999999994               0.000034902               0.000690476               0.999999994               0.000039510               0.000719178               0.999999994               0.000043693               0.000748386               0.999999994               0.000047077               0.000778009               0.999999994               0.000049154               0.000808003               0.999999994               0.000049428               0.000838317               0.999999994               0.000014452               0.000532147               0.999999994               0.000001150               0.000530529               0.999999994              -0.000003858               0.000532011               0.999999994              -0.000004836               0.000538416               0.999999994              -0.000003621               0.000549521               0.999999994              -0.000001090               0.000564545               0.999999994               0.000002324               0.000582842               0.999999994               0.000006339               0.000603884               0.999999994               0.000010419               0.000627116               0.999999994               0.000014321               0.000652050               0.999999994               0.000017898               0.000678348               0.999999994               0.000021177               0.000705691               0.999999994               0.000024046               0.000733877               0.999999994               0.000026385               0.000762673               0.999999994               0.000027949               0.000791978               0.999999994               0.000028181               0.000821611               0.999999994               0.000026452               0.000851416               0.999999994               0.000007262               0.000539902               0.999999994               0.000000417               0.000541776               0.999999994              -0.000002305               0.000545014               0.999999994              -0.000002952               0.000552156               0.999999994              -0.000002491               0.000563279               0.999999994              -0.000001353               0.000577963               0.999999994               0.000000351               0.000595732               0.999999994               0.000002448               0.000616182               0.999999994               0.000004601               0.000638998               0.999999994               0.000006582               0.000663656               0.999999994               0.000008388               0.000689689               0.999999994               0.000009926               0.000716830               0.999999994               0.000011227               0.000744937               0.999999994               0.000012206               0.000773742               0.999999994               0.000012704               0.000803054               0.999999994               0.000012417               0.000832737               0.999999994               0.000010790               0.000862538               0.999999994              -0.000000000               0.000542504               0.999999994               0.000000000               0.000545615               0.999999994               0.000000000               0.000549472               0.999999994               0.000000000               0.000556887               0.999999994               0.000000000               0.000568124               0.999999994              -0.000000000               0.000582673               0.999999994               0.000000000               0.000600250               0.999999994               0.000000000               0.000620583               0.999999994               0.000000000               0.000643261               0.999999994               0.000000000               0.000667850               0.999999994              -0.000000000               0.000693902               0.999999994               0.000000000               0.000721082               0.999999994               0.000000000               0.000749171               0.999999994               0.000000000               0.000777970               0.999999994              -0.000000000               0.000807288               0.999999994              -0.000000000               0.000837004               0.999999994              -0.000000000               0.000866886               0.999999994 </DataArray>
<DataArray type="Float64"                                    Name="defo"                                                      NumberOfComponents=" 3" format="ascii">
             -0.000080191              -0.000000000               0.999999994              -0.000101653              -0.000000000               0.999999994              -0.000111699              -0.000000000               0.999999994              -0.000117456              -0.000000000               0.999999994              -0.000121754              -0.000000000               0.999999994              -0.000125910               0.000000000               0.999999994              -0.000130574               0.000000000               0.999999994              -0.000135958               0.000000000               0.999999994              -0.000142181               0.000000000               0.999999994              -0.000149272               0.000000000               0.999999994              -0.000157272              -0.000000000               0.999999994              -0.000166114               0.000000000               0.999999994              -0.000175726               0.000000000               0.999999994              -0.000186097               0.000000000               0.999999994              -0.000197153               0.000000000               0.999999994              -0.000208770               0.000000000               0.999999994              -0.000220847               0.000000000               0.999999994              -0.000079674               0.000053866               0.999999994              -0.000100114               0.000047017               0.999999994              -0.000109588               0.000044953               0.999999994              -0.000115050               0.000045524               0.999999994              -0.000119283               0.000047597               0.999999994              -0.000123461               0.000050705               0.999999994              -0.000128142               0.000054429               0.999999994              -0.000133591               0.000058643               0.999999994              -0.000139882               0.000063196               0.999999994              -0.000147046               0.000068013               0.999999994              -0.000155085               0.000072976               0.999999994              -0.000163911               0.000078059               0.999999994              -0.000173486               0.000083166               0.999999994              -0.000183793               0.000088144               0.999999994              -0.000194784               0.000092880               0.999999994              -0.000206390               0.000097231               0.999999994              -0.000218529               0.000101004               0.999999994              -0.000078193               0.000107158               0.999999994              -0.000095593               0.000093543               0.999999994              -0.000103351               0.000089729               0.999999994              -0.000107972               0.000091076               0.999999994              -0.000111900               0.000095514               0.999999994              -0.000116119               0.000101895               0.999999994              -0.000121002               0.000109584               0.999999994              -0.000126716               0.000118161               0.999999994              -0.000133283               0.000127380               0.999999994              -0.000140666               0.000137056               0.999999994              -0.000148854               0.000147030               0.999999994              -0.000157733               0.000157276               0.999999994              -0.000167303               0.000167646               0.999999994              -0.000177575               0.000177919               0.999999994              -0.000188536               0.000187978               0.999999994              -0.000200200               0.000197538               0.999999994              -0.000212530               0.000206361               0.999999994              -0.000075820               0.000159315               0.999999994              -0.000088379               0.000139137               0.999999994              -0.000093616               0.000134186               0.999999994              -0.000097168               0.000136872               0.999999994              -0.000100817               0.000144044               0.999999994              -0.000105234               0.000154022               0.999999994              -0.000110606               0.000165860               0.999999994              -0.000116916               0.000178882               0.999999994              -0.000124067               0.000192794               0.999999994              -0.000131982               0.000207293               0.999999994              -0.000140651               0.000222319               0.999999994              -0.000150009               0.000237745               0.999999994              -0.000160035               0.000253494               0.999999994              -0.000170729               0.000269324               0.999999994              -0.000182112               0.000285138               0.999999994              -0.000194213               0.000300756               0.999999994              -0.000206989               0.000315946               0.999999994              -0.000072547               0.000209772               0.999999994              -0.000078845               0.000183532               0.999999994              -0.000081398               0.000178138               0.999999994              -0.000084061               0.000182828               0.999999994              -0.000087874               0.000193103               0.999999994              -0.000093034               0.000206907               0.999999994              -0.000099321               0.000222926               0.999999994              -0.000106578               0.000240381               0.999999994              -0.000114706               0.000258932               0.999999994              -0.000123614               0.000278214               0.999999994              -0.000133250               0.000298104               0.999999994              -0.000143615               0.000318595               0.999999994              -0.000154638               0.000339560               0.999999994              -0.000166292               0.000360925               0.999999994              -0.000178605               0.000382507               0.999999994              -0.000191431               0.000404148               0.999999994              -0.000204670               0.000425530               0.999999994              -0.000068422               0.000257980               0.999999994              -0.000067577               0.000226550               0.999999994              -0.000067806               0.000221421               0.999999994              -0.000070231               0.000228538               0.999999994              -0.000074870               0.000242276               0.999999994              -0.000081281               0.000259924               0.999999994              -0.000088863               0.000280000               0.999999994              -0.000097384               0.000301733               0.999999994              -0.000106776               0.000324730               0.999999994              -0.000116966               0.000348650               0.999999994              -0.000127889               0.000373243               0.999999994              -0.000139444               0.000398642               0.999999994              -0.000151631               0.000424702               0.999999994              -0.000164382               0.000451367               0.999999994              -0.000177569               0.000478469               0.999999994              -0.000191066               0.000505568               0.999999994              -0.000204709               0.000532473               0.999999994              -0.000063495               0.000303470               0.999999994              -0.000055281               0.000268039               0.999999994              -0.000053857               0.000263833               0.999999994              -0.000056892               0.000273601               0.999999994              -0.000062960               0.000290844               0.999999994              -0.000070941               0.000312207               0.999999994              -0.000080095               0.000336178               0.999999994              -0.000090118               0.000361985               0.999999994              -0.000100933               0.000389256               0.999999994              -0.000112510               0.000417637               0.999999994              -0.000124782               0.000446840               0.999999994              -0.000137646               0.000476951               0.999999994              -0.000151067               0.000507905               0.999999994              -0.000164895               0.000539562               0.999999994              -0.000178983               0.000571492               0.999999994              -0.000193109               0.000603345               0.999999994              -0.000207082               0.000634782               0.999999994              -0.000057926               0.000345697               0.999999994              -0.000042740               0.000307832               0.999999994              -0.000040691               0.000304905               0.999999994              -0.000045129               0.000317338               0.999999994              -0.000053008               0.000337930               0.999999994              -0.000062752               0.000362908               0.999999994              -0.000073446               0.000390666               0.999999994              -0.000084923               0.000420465               0.999999994              -0.000097229               0.000451896               0.999999994              -0.000110190               0.000484636               0.999999994              -0.000123772               0.000518302               0.999999994              -0.000138000               0.000553042               0.999999994              -0.000152661               0.000588534               0.999999994              -0.000167522               0.000624414               0.999999994              -0.000182358               0.000660381               0.999999994              -0.000196861               0.000696000               0.999999994              -0.000210926               0.000731087               0.999999994              -0.000052167               0.000383843               0.999999994              -0.000030588               0.000345769               0.999999994              -0.000029197               0.000344205               0.999999994              -0.000035399               0.000359191               0.999999994              -0.000045169               0.000383022               0.999999994              -0.000056517               0.000411634               0.999999994              -0.000068764               0.000443153               0.999999994              -0.000081782               0.000476923               0.999999994              -0.000095429               0.000512447               0.999999994              -0.000109679               0.000549424               0.999999994              -0.000124565               0.000587463               0.999999994              -0.000139995               0.000626405               0.999999994              -0.000155661               0.000665894               0.999999994              -0.000171250               0.000705385               0.999999994              -0.000186454               0.000744614               0.999999994              -0.000201275               0.000783437               0.999999994              -0.000215801               0.000821778               0.999999994              -0.000046894               0.000419223               0.999999994              -0.000021612               0.000385327               0.999999994              -0.000018357               0.000380604               0.999999994              -0.000023271               0.000391595               0.999999994              -0.000031946               0.000411555               0.999999994              -0.000042382               0.000436789               0.999999994              -0.000053596               0.000465252               0.999999994              -0.000065333               0.000496006               0.999999994              -0.000077461               0.000528491               0.999999994              -0.000089987               0.000562399               0.999999994              -0.000102977               0.000597367               0.999999994              -0.000116339               0.000633289               0.999999994              -0.000130046               0.000669918               0.999999994              -0.000143841               0.000706915               0.999999994              -0.000157392               0.000743966               0.999999994              -0.000170576               0.000780821               0.999999994              -0.000183645               0.000817391               0.999999994              -0.000041095               0.000450891               0.999999994              -0.000014412               0.000422792               0.999999994              -0.000009229               0.000417098               0.999999994              -0.000012485               0.000425097               0.999999994              -0.000019856               0.000441588               0.999999994              -0.000029057               0.000463598               0.999999994              -0.000039054               0.000489256               0.999999994              -0.000049440               0.000517357               0.999999994              -0.000060123               0.000547211               0.999999994              -0.000071023               0.000578285               0.999999994              -0.000082132               0.000610488               0.999999994              -0.000093310               0.000643537               0.999999994              -0.000104706               0.000677474               0.999999994              -0.000116152               0.000711945               0.999999994              -0.000127427               0.000746713               0.999999994              -0.000138305               0.000781435               0.999999994              -0.000148789               0.000816158               0.999999994              -0.000034882               0.000478381               0.999999994              -0.000008895               0.000457237               0.999999994              -0.000002301               0.000452149               0.999999994              -0.000003984               0.000458281               0.999999994              -0.000009767               0.000472173               0.999999994              -0.000017336               0.000491454               0.999999994              -0.000025869               0.000514527               0.999999994              -0.000034875               0.000540227               0.999999994              -0.000044091               0.000567790               0.999999994              -0.000053319               0.000596689               0.999999994              -0.000062489               0.000626598               0.999999994              -0.000071497               0.000657354               0.999999994              -0.000080425               0.000688860               0.999999994              -0.000089264               0.000721017               0.999999994              -0.000097877               0.000753620               0.999999994              -0.000105910               0.000786395               0.999999994              -0.000113025               0.000819272               0.999999994              -0.000028330               0.000501279               0.999999994              -0.000005063               0.000487368               0.999999994               0.000002062               0.000484058               0.999999994               0.000001784               0.000489555               0.999999994              -0.000002250               0.000501776               0.999999994              -0.000008068               0.000518998               0.999999994              -0.000014948               0.000539842               0.999999994              -0.000022474               0.000563491               0.999999994              -0.000030081               0.000589110               0.999999994              -0.000037581               0.000616247               0.999999994              -0.000044843               0.000644477               0.999999994              -0.000051792               0.000673574               0.999999994              -0.000058424               0.000703392               0.999999994              -0.000064772               0.000733725               0.999999994              -0.000070592               0.000764454               0.999999994              -0.000075504               0.000795622               0.999999994              -0.000079039               0.000827010               0.999999994              -0.000021506               0.000519257               0.999999994              -0.000002581               0.000512164               0.999999994               0.000003985               0.000511232               0.999999994               0.000004648               0.000516937               0.999999994               0.000002232               0.000528309               0.999999994              -0.000001892               0.000544114               0.999999994              -0.000007037               0.000563398               0.999999994              -0.000012847               0.000585440               0.999999994              -0.000018750               0.000609652               0.999999994              -0.000024486               0.000635479               0.999999994              -0.000029877               0.000662494               0.999999994              -0.000034902               0.000690476               0.999999994              -0.000039510               0.000719178               0.999999994              -0.000043693               0.000748386               0.999999994              -0.000047077               0.000778009               0.999999994              -0.000049154               0.000808003               0.999999994              -0.000049428               0.000838317               0.999999994              -0.000014452               0.000532147               0.999999994              -0.000001150               0.000530529               0.999999994               0.000003858               0.000532011               0.999999994               0.000004836               0.000538416               0.999999994               0.000003621               0.000549521               0.999999994               0.000001090               0.000564545               0.999999994              -0.000002324               0.000582842               0.999999994              -0.000006339               0.000603884               0.999999994              -0.000010419               0.000627116               0.999999994              -0.000014321               0.000652050               0.999999994              -0.000017898               0.000678348               0.999999994              -0.000021177               0.000705691               0.999999994              -0.000024046               0.000733877               0.999999994              -0.000026385               0.000762673               0.999999994              -0.000027949               0.000791978               0.999999994              -0.000028181               0.000821611               0.999999994              -0.000026452               0.000851416               0.999999994              -0.000007262               0.000539902               0.999999994              -0.000000417               0.000541776               0.999999994               0.000002305               0.000545014               0.999999994               0.000002952               0.000552156               0.999999994               0.000002491               0.000563279               0.999999994               0.000001353               0.000577963               0.999999994              -0.000000351               0.000595732               0.999999994              -0.000002448               0.000616182               0.999999994              -0.000004601               0.000638998               0.999999994              -0.000006582               0.000663656               0.999999994              -0.000008388               0.000689689               0.999999994              -0.000009926               0.000716830               0.999999994              -0.000011227               0.000744937               0.999999994              -0.000012206               0.000773742               0.999999994              -0.000012704               0.000803054               0.999999994              -0.000012417               0.000832737               0.999999994              -0.000010790               0.000862538               0.999999994              -0.000000000               0.000542504               0.999999994               0.000000000               0.000545615               0.999999994               0.000000000               0.000549472               0.999999994               0.000000000               0.000556887               0.999999994               0.000000000               0.000568124               0.999999994              -0.000000000               0.000582673               0.999999994               0.000000000               0.000600250               0.999999994               0.000000000               0.000620583               0.999999994               0.000000000               0.000643261               0.999999994               0.000000000               0.000667850               0.999999994              -0.000000000               0.000693902               0.999999994               0.000000000               0.000721082               0.999999994               0.000000000               0.000749171               0.999999994               0.000000000               0.000777970               0.999999994              -0.000000000               0.000807288               0.999999994              -0.000000000               0.000837004               0.999999994              -0.000000000               0.000866886               0.999999994              -0.000080191              -0.000000000               0.999999994              -0.000101653              -0.000000000               0.999999994              -0.000111699              -0.000000000               0.999999994              -0.000117456              -0.000000000               0.999999994              -0.000121754              -0.000000000               0.999999994              -0.000125910               0.000000000               0.999999994              -0.000130574               0.000000000               0.999999994              -0.000135958               0.000000000               0.999999994              -0.000142181               0.000000000               0.999999994              -0.000149272               0.000000000               0.999999994              -0.000157272              -0.000000000               0.999999994              -0.000166114               0.000000000               0.999999994              -0.000175726               0.000000000               0.999999994              -0.000186097               0.000000000               0.999999994              -0.000197153               0.000000000               0.999999994              -0.000208770               0.000000000               0.999999994              -0.000220847               0.000000000               0.999999994              -0.000079674              -0.000053866               0.999999994              -0.000100114              -0.000047017               0.999999994              -0.000109588              -0.000044953               0.999999994              -0.000115050              -0.000045524               0.999999994              -0.000119283              -0.000047597               0.999999994              -0.000123461              -0.000050705               0.999999994              -0.000128142              -0.000054429               0.999999994              -0.000133591              -0.000058643               0.999999994              -0.000139882              -0.000063196               0.999999994              -0.000147046              -0.000068013               0.999999994              -0.000155085              -0.000072976               0.999999994              -0.000163911              -0.000078059               0.999999994              -0.000173486              -0.000083166               0.999999994              -0.000183793              -0.000088144               0.999999994              -0.000194784              -0.000092880               0.999999994              -0.000206390              -0.000097231               0.999999994              -0.000218529              -0.000101004               0.999999994              -0.000078193              -0.000107158               0.999999994              -0.000095593              -0.000093543               0.999999994              -0.000103351              -0.000089729               0.999999994              -0.000107972              -0.000091076               0.999999994              -0.000111900              -0.000095514               0.999999994              -0.000116119              -0.000101895               0.999999994              -0.000121002              -0.000109584               0.999999994              -0.000126716              -0.000118161               0.999999994              -0.000133283              -0.000127380               0.999999994              -0.000140666              -0.000137056               0.999999994              -0.000148854              -0.000147030               0.999999994              -0.000157733              -0.000157276               0.999999994              -0.000167303              -0.000167646               0.999999994              -0.000177575              -0.000177919               0.999999994              -0.000188536              -0.000187978               0.999999994              -0.000200200              -0.000197538               0.999999994              -0.000212530              -0.000206361               0.999999994              -0.000075820              -0.000159315               0.999999994              -0.000088379              -0.000139137               0.999999994              -0.000093616              -0.000134186               0.999999994              -0.000097168              -0.000136872               0.999999994              -0.000100817              -0.000144044               0.999999994              -0.000105234              -0.000154022               0.999999994              -0.000110606              -0.000165860               0.999999994              -0.000116916              -0.000178882               0.999999994              -0.000124067              -0.000192794               0.999999994              -0.000131982              -0.000207293               0.999999994              -0.000140651              -0.000222319               0.999999994              -0.000150009              -0.000237745               0.999999994              -0.000160035              -0.000253494               0.999999994              -0.000170729              -0.000269324               0.999999994              -0.000182112              -0.000285138               0.999999994              -0.000194213              -0.000300756               0.999999994              -0.000206989              -0.000315946               0.999999994              -0.000072547              -0.000209772               0.999999994              -0.000078845              -0.000183532               0.999999994              -0.000081398              -0.000178138               0.999999994              -0.000084061              -0.000182828               0.999999994              -0.000087874              -0.000193103               0.999999994              -0.000093034              -0.000206907               0.999999994              -0.000099321              -0.000222926               0.999999994              -0.000106578              -0.000240381               0.999999994              -0.000114706              -0.000258932               0.999999994              -0.000123614              -0.000278214               0.999999994              -0.000133250              -0.000298104               0.999999994              -0.000143615              -0.000318595               0.999999994              -0.000154638              -0.000339560               0.999999994              -0.000166292              -0.000360925               0.999999994              -0.000178605              -0.000382507               0.999999994              -0.000191431              -0.000404148               0.999999994              -0.000204670              -0.000425530               0.999999994              -0.000068422              -0.000257980               0.999999994              -0.000067577              -0.000226550               0.999999994              -0.000067806              -0.000221421               0.999999994              -0.000070231              -0.000228538               0.999999994              -0.000074870              -0.000242276               0.999999994              -0.000081281              -0.000259924               0.999999994              -0.000088863              -0.000280000               0.999999994              -0.000097384              -0.000301733               0.999999994              -0.000106776              -0.000324730               0.999999994              -0.000116966              -0.000348650               0.999999994              -0.000127889              -0.000373243               0.999999994              -0.000139444              -0.000398642               0.999999994              -0.000151631              -0.000424702               0.999999994              -0.000164382              -0.000451367               0.999999994              -0.000177569              -0.000478469               0.999999994              -0.000191066              -0.000505568               0.999999994              -0.000204709              -0.000532473               0.999999994              -0.000063495              -0.000303470               0.999999994              -0.000055281              -0.000268039               0.999999994              -0.000053857              -0.000263833               0.999999994              -0.000056892              -0.000273601               0.999999994              -0.000062960              -0.000290844               0.999999994              -0.000070941              -0.000312207               0.999999994              -0.000080095              -0.000336178               0.999999994              -0.000090118              -0.000361985               0.999999994              -0.000100933              -0.000389256               0.999999994              -0.000112510              -0.000417637               0.999999994              -0.000124782              -0.000446840               0.999999994              -0.000137646              -0.000476951               0.999999994              -0.000151067              -0.000507905               0.999999994              -0.000164895              -0.000539562               0.999999994              -0.000178983              -0.000571492               0.999999994              -0.000193109              -0.000603345               0.999999994              -0.000207082              -0.000634782               0.999999994              -0.000057926              -0.000345697               0.999999994              -0.000042740              -0.000307832               0.999999994              -0.000040691              -0.000304905               0.999999994              -0.000045129              -0.000317338               0.999999994              -0.000053008              -0.000337930               0.999999994              -0.000062752              -0.000362908               0.999999994              -0.000073446              -0.000390666               0.999999994              -0.000084923              -0.000420465               0.999999994              -0.000097229              -0.000451896               0.999999994              -0.000110190              -0.000484636               0.999999994              -0.000123772              -0.000518302               0.999999994              -0.000138000              -0.000553042               0.999999994              -0.000152661              -0.000588534               0.999999994              -0.000167522              -0.000624414               0.999999994              -0.000182358              -0.000660381               0.999999994              -0.000196861              -0.000696000               0.999999994              -0.000210926              -0.000731087               0.999999994              -0.000052167              -0.000383843               0.999999994              -0.000030588              -0.000345769               0.999999994              -0.000029197              -0.000344205               0.999999994              -0.000035399              -0.000359191               0.999999994              -0.000045169              -0.000383022               0.999999994              -0.000056517              -0.000411634               0.999999994              -0.000068764              -0.000443153               0.999999994              -0.000081782              -0.000476923               0.999999994              -0.000095429              -0.000512447               0.999999994              -0.000109679              -0.000549424               0.999999994              -0.000124565              -0.000587463               0.999999994              -0.000139995              -0.000626405               0.999999994              -0.000155661              -0.000665894               0.999999994              -0.000171250              -0.000705385               0.999999994              -0.000186454              -0.000744614               0.999999994              -0.000201275              -0.000783437               0.999999994              -0.000215801              -0.000821778               0.999999994              -0.000046894              -0.000419223               0.999999994              -0.000021612              -0.000385327               0.999999994              -0.000018357              -0.000380604               0.999999994              -0.000023271              -0.000391595               0.999999994              -0.000031946              -0.000411555               0.999999994              -0.000042382              -0.000436789               0.999999994              -0.000053596              -0.000465252               0.999999994              -0.000065333              -0.000496006               0.999999994              -0.000077461              -0.000528491               0.999999994              -0.000089987              -0.000562399               0.999999994              -0.000102977              -0.000597367               0.999999994              -0.000116339              -0.000633289               0.999999994              -0.000130046              -0.000669918               0.999999994              -0.000143841              -0.000706915               0.999999994              -0.000157392              -0.000743966               0.999999994              -0.000170576              -0.000780821               0.999999994              -0.000183645              -0.000817391               0.999999994              -0.000041095              -0.000450891               0.999999994              -0.000014412              -0.000422792               0.999999994              -0.000009229              -0.000417098               0.999999994              -0.000012485              -0.000425097               0.999999994              -0.000019856              -0.000441588               0.999999994              -0.000029057              -0.000463598               0.999999994              -0.000039054              -0.000489256               0.999999994              -0.000049440              -0.000517357               0.999999994              -0.000060123              -0.000547211               0.999999994              -0.000071023              -0.000578285               0.999999994              -0.000082132              -0.000610488               0.999999994              -0.000093310              -0.000643537               0.999999994              -0.000104706              -0.000677474               0.999999994              -0.000116152              -0.000711945               0.999999994              -0.000127427              -0.000746713               0.999999994              -0.000138305              -0.000781435               0.999999994              -0.000148789              -0.000816158               0.999999994              -0.000034882              -0.000478381               0.999999994              -0.000008895              -0.000457237               0.999999994              -0.000002301              -0.000452149               0.999999994              -0.000003984              -0.000458281               0.999999994              -0.000009767              -0.000472173               0.999999994              -0.000017336              -0.000491454               0.999999994              -0.000025869              -0.000514527               0.999999994              -0.000034875              -0.000540227               0.999999994              -0.000044091              -0.000567790               0.999999994              -0.000053319              -0.000596689               0.999999994              -0.000062489              -0.000626598               0.999999994              -0.000071497              -0.000657354               0.999999994              -0.000080425              -0.000688860               0.999999994              -0.000089264              -0.000721017               0.999999994              -0.000097877              -0.000753620               0.999999994              -0.000105910              -0.000786395               0.999999994              -0.000113025              -0.000819272               0.999999994              -0.000028330              -0.000501279               0.999999994              -0.000005063              -0.000487368               0.999999994               0.000002062              -0.000484058               0.999999994               0.000001784              -0.000489555               0.999999994              -0.000002250              -0.000501776               0.999999994              -0.000008068              -0.000518998               0.999999994              -0.000014948              -0.000539842               0.999999994              -0.000022474              -0.000563491               0.999999994              -0.000030081              -0.000589110               0.999999994              -0.000037581              -0.000616247               0.999999994              -0.000044843              -0.000644477               0.999999994              -0.000051792              -0.000673574               0.999999994              -0.000058424              -0.000703392               0.999999994              -0.000064772              -0.000733725               0.999999994              -0.000070592              -0.000764454               0.999999994              -0.000075504              -0.000795622               0.999999994              -0.000079039              -0.000827010               0.999999994              -0.000021506              -0.000519257               0.999999994              -0.000002581              -0.000512164               0.999999994               0.000003985              -0.000511232               0.999999994               0.000004648              -0.000516937               0.999999994               0.000002232              -0.000528309               0.999999994              -0.000001892              -0.000544114               0.999999994              -0.000007037              -0.000563398               0.999999994              -0.000012847              -0.000585440               0.999999994              -0.000018750              -0.000609652               0.999999994              -0.000024486              -0.000635479               0.999999994              -0.000029877              -0.000662494               0.999999994              -0.000034902              -0.000690476               0.999999994              -0.000039510              -0.000719178               0.999999994              -0.000043693              -0.000748386               0.999999994              -0.000047077              -0.000778009               0.999999994              -0.000049154              -0.000808003               0.999999994              -0.000049428              -0.000838317               0.999999994              -0.000014452              -0.000532147               0.999999994              -0.000001150              -0.000530529               0.999999994               0.000003858              -0.000532011               0.999999994               0.000004836              -0.000538416               0.999999994               0.000003621              -0.000549521               0.999999994               0.000001090              -0.000564545               0.999999994              -0.000002324              -0.000582842               0.999999994              -0.000006339              -0.000603884               0.999999994              -0.000010419              -0.000627116               0.999999994              -0.000014321              -0.000652050               0.999999994              -0.000017898              -0.000678348               0.999999994              -0.000021177              -0.000705691               0.999999994              -0.000024046              -0.000733877               0.999999994              -0.000026385              -0.000762673               0.999999994              -0.000027949              -0.000791978               0.999999994              -0.000028181              -0.000821611               0.999999994              -0.000026452              -0.000851416               0.999999994              -0.000007262              -0.000539902               0.999999994              -0.000000417              -0.000541776               0.999999994               0.000002305              -0.000545014               0.999999994               0.000002952              -0.000552156               0.999999994               0.000002491              -0.000563279               0.999999994               0.000001353              -0.000577963               0.999999994              -0.000000351              -0.000595732               0.999999994              -0.000002448              -0.000616182               0.999999994              -0.000004601              -0.000638998               0.999999994              -0.000006582              -0.000663656               0.999999994              -0.000008388              -0.000689689               0.999999994              -0.000009926              -0.000716830               0.999999994              -0.000011227              -0.000744937               0.999999994              -0.000012206              -0.000773742               0.999999994              -0.000012704              -0.000803054               0.999999994              -0.000012417              -0.000832737               0.999999994              -0.000010790              -0.000862538               0.999999994              -0.000000000              -0.000542504               0.999999994              -0.000000000              -0.000545615               0.999999994              -0.000000000              -0.000549472               0.999999994               0.000000000              -0.000556887               0.999999994              -0.000000000              -0.000568124               0.999999994               0.000000000              -0.000582673               0.999999994               0.000000000              -0.000600250               0.999999994               0.000000000              -0.000620583               0.999999994              -0.000000000              -0.000643261               0.999999994              -0.000000000              -0.000667850               0.999999994              -0.000000000              -0.000693902               0.999999994              -0.000000000              -0.000721082               0.999999994              -0.000000000              -0.000749171               0.999999994               0.000000000              -0.000777970               0.999999994               0.000000000              -0.000807288               0.999999994               0.000000000              -0.000837004               0.999999994              -0.000000000              -0.000866886               0.999999994               0.000080191              -0.000000000               0.999999994               0.000101653              -0.000000000               0.999999994               0.000111699               0.000000000               0.999999994               0.000117456               0.000000000               0.999999994               0.000121754               0.000000000               0.999999994               0.000125910               0.000000000               0.999999994               0.000130574               0.000000000               0.999999994               0.000135958              -0.000000000               0.999999994               0.000142181               0.000000000               0.999999994               0.000149272               0.000000000               0.999999994               0.000157272              -0.000000000               0.999999994               0.000166114              -0.000000000               0.999999994               0.000175726              -0.000000000               0.999999994               0.000186097              -0.000000000               0.999999994               0.000197153              -0.000000000               0.999999994               0.000208770              -0.000000000               0.999999994               0.000220847              -0.000000000               0.999999994               0.000079674              -0.000053866               0.999999994               0.000100114              -0.000047017               0.999999994               0.000109588              -0.000044953               0.999999994               0.000115050              -0.000045524               0.999999994               0.000119283              -0.000047597               0.999999994               0.000123461              -0.000050705               0.999999994               0.000128142              -0.000054429               0.999999994               0.000133591              -0.000058643               0.999999994               0.000139882              -0.000063196               0.999999994               0.000147046              -0.000068013               0.999999994               0.000155085              -0.000072976               0.999999994               0.000163911              -0.000078059               0.999999994               0.000173486              -0.000083166               0.999999994               0.000183793              -0.000088144               0.999999994               0.000194784              -0.000092880               0.999999994               0.000206390              -0.000097231               0.999999994               0.000218529              -0.000101004               0.999999994               0.000078193              -0.000107158               0.999999994               0.000095593              -0.000093543               0.999999994               0.000103351              -0.000089729               0.999999994               0.000107972              -0.000091076               0.999999994               0.000111900              -0.000095514               0.999999994               0.000116119              -0.000101895               0.999999994               0.000121002              -0.000109584               0.999999994               0.000126716              -0.000118161               0.999999994               0.000133283              -0.000127380               0.999999994               0.000140666              -0.000137056               0.999999994               0.000148854              -0.000147030               0.999999994               0.000157733              -0.000157276               0.999999994               0.000167303              -0.000167646               0.999999994               0.000177575              -0.000177919               0.999999994               0.000188536              -0.000187978               0.999999994               0.000200200              -0.000197538               0.999999994               0.000212530              -0.000206361               0.999999994               0.000075820              -0.000159315               0.999999994               0.000088379              -0.000139137               0.999999994               0.000093616              -0.000134186               0.999999994               0.000097168              -0.000136872               0.999999994               0.000100817              -0.000144044               0.999999994               0.000105234              -0.000154022               0.999999994               0.000110606              -0.000165860               0.999999994               0.000116916              -0.000178882               0.999999994               0.000124067              -0.000192794               0.999999994               0.000131982              -0.000207293               0.999999994               0.000140651              -0.000222319               0.999999994               0.000150009              -0.000237745               0.999999994               0.000160035              -0.000253494               0.999999994               0.000170729              -0.000269324               0.999999994               0.000182112              -0.000285138               0.999999994               0.000194213              -0.000300756               0.999999994               0.000206989              -0.000315946               0.999999994               0.000072547              -0.000209772               0.999999994               0.000078845              -0.000183532               0.999999994               0.000081398              -0.000178138               0.999999994               0.000084061              -0.000182828               0.999999994               0.000087874              -0.000193103               0.999999994               0.000093034              -0.000206907               0.999999994               0.000099321              -0.000222926               0.999999994               0.000106578              -0.000240381               0.999999994               0.000114706              -0.000258932               0.999999994               0.000123614              -0.000278214               0.999999994               0.000133250              -0.000298104               0.999999994               0.000143615              -0.000318595               0.999999994               0.000154638              -0.000339560               0.999999994               0.000166292              -0.000360925               0.999999994               0.000178605              -0.000382507               0.999999994               0.000191431              -0.000404148               0.999999994               0.000204670              -0.000425530               0.999999994               0.000068422              -0.000257980               0.999999994               0.000067577              -0.000226550               0.999999994               0.000067806              -0.000221421               0.999999994               0.000070231              -0.000228538               0.999999994               0.000074870              -0.000242276               0.999999994               0.000081281              -0.000259924               0.999999994               0.000088863              -0.000280000               0.999999994               0.000097384              -0.000301733               0.999999994               0.000106776              -0.000324730               0.999999994               0.000116966              -0.000348650               0.999999994               0.000127889              -0.000373243               0.999999994               0.000139444              -0.000398642               0.999999994               0.000151631              -0.000424702               0.999999994               0.000164382              -0.000451367               0.999999994               0.000177569              -0.000478469               0.999999994               0.000191066              -0.000505568               0.999999994               0.000204709              -0.000532473               0.999999994               0.000063495              -0.000303470               0.999999994               0.000055281              -0.000268039               0.999999994               0.000053857              -0.000263833               0.999999994               0.000056892              -0.000273601               0.999999994               0.000062960              -0.000290844               0.999999994               0.000070941              -0.000312207               0.999999994               0.000080095              -0.000336178               0.999999994               0.000090118              -0.000361985               0.999999994               0.000100933              -0.000389256               0.999999994               0.000112510              -0.000417637               0.999999994               0.000124782              -0.000446840               0.999999994               0.000137646              -0.000476951               0.999999994               0.000151067              -0.000507905               0.999999994               0.000164895              -0.000539562               0.999999994               0.000178983              -0.000571492               0.999999994               0.000193109              -0.000603345               0.999999994               0.000207082              -0.000634782               0.999999994               0.000057926              -0.000345697               0.999999994               0.000042740              -0.000307832               0.999999994               0.000040691              -0.000304905               0.999999994               0.000045129              -0.000317338               0.999999994               0.000053008              -0.000337930               0.999999994               0.000062752              -0.000362908               0.999999994               0.000073446              -0.000390666               0.999999994               0.000084923              -0.000420465               0.999999994               0.000097229              -0.000451896               0.999999994               0.000110190              -0.000484636               0.999999994               0.000123772              -0.000518302               0.999999994               0.000138000              -0.000553042               0.999999994               0.000152661              -0.000588534               0.999999994               0.000167522              -0.000624414               0.999999994               0.000182358              -0.000660381               0.999999994               0.000196861              -0.000696000               0.999999994               0.000210926              -0.000731087               0.999999994               0.000052167              -0.000383843               0.999999994               0.000030588              -0.000345769               0.999999994               0.000029197              -0.000344205               0.999999994               0.000035399              -0.000359191               0.999999994               0.000045169              -0.000383022               0.999999994               0.000056517              -0.000411634               0.999999994               0.000068764              -0.000443153               0.999999994               0.000081782              -0.000476923               0.999999994               0.000095429              -0.000512447               0.999999994               0.000109679              -0.000549424               0.999999994               0.000124565              -0.000587463               0.999999994               0.000139995              -0.000626405               0.999999994               0.000155661              -0.000665894               0.999999994               0.000171250              -0.000705385               0.999999994               0.000186454              -0.000744614               0.999999994               0.000201275              -0.000783437               0.999999994               0.000215801              -0.000821778               0.999999994               0.000046894              -0.000419223               0.999999994               0.000021612              -0.000385327               0.999999994               0.000018357              -0.000380604               0.999999994               0.000023271              -0.000391595               0.999999994               0.000031946              -0.000411555               0.999999994               0.000042382              -0.000436789               0.999999994               0.000053596              -0.000465252               0.999999994               0.000065333              -0.000496006               0.999999994               0.000077461              -0.000528491               0.999999994               0.000089987              -0.000562399               0.999999994               0.000102977              -0.000597367               0.999999994               0.000116339              -0.000633289               0.999999994               0.000130046              -0.000669918               0.999999994               0.000143841              -0.000706915               0.999999994               0.000157392              -0.000743966               0.999999994               0.000170576              -0.000780821               0.999999994               0.000183645              -0.000817391               0.999999994               0.000041095              -0.000450891               0.999999994               0.000014412              -0.000422792               0.999999994               0.000009229              -0.000417098               0.999999994               0.000012485              -0.000425097               0.999999994               0.000019856              -0.000441588               0.999999994               0.000029057              -0.000463598               0.999999994               0.000039054              -0.000489256               0.999999994               0.000049440              -0.000517357               0.999999994               0.000060123              -0.000547211               0.999999994               0.000071023              -0.000578285               0.999999994               0.000082132              -0.000610488               0.999999994               0.000093310              -0.000643537               0.999999994               0.000104706              -0.000677474               0.999999994               0.000116152              -0.000711945               0.999999994               0.000127427              -0.000746713               0.999999994               0.000138305              -0.000781435               0.999999994               0.000148789              -0.000816158               0.999999994               0.000034882              -0.000478381               0.999999994               0.000008895              -0.000457237               0.999999994               0.000002301              -0.000452149               0.999999994               0.000003984              -0.000458281               0.999999994               0.000009767              -0.000472173               0.999999994               0.000017336              -0.000491454               0.999999994               0.000025869              -0.000514527               0.999999994               0.000034875              -0.000540227               0.999999994               0.000044091              -0.000567790               0.999999994               0.000053319              -0.000596689               0.999999994               0.000062489              -0.000626598               0.999999994               0.000071497              -0.000657354               0.999999994               0.000080425              -0.000688860               0.999999994               0.000089264              -0.000721017               0.999999994               0.000097877              -0.000753620               0.999999994               0.000105910              -0.000786395               0.999999994               0.000113025              -0.000819272               0.999999994               0.000028330              -0.000501279               0.999999994               0.000005063              -0.000487368               0.999999994              -0.000002062              -0.000484058               0.999999994              -0.000001784              -0.000489555               0.999999994               0.000002250              -0.000501776               0.999999994               0.000008068              -0.000518998               0.999999994               0.000014948              -0.000539842               0.999999994               0.000022474              -0.000563491               0.999999994               0.000030081              -0.000589110               0.999999994               0.000037581              -0.000616247               0.999999994               0.000044843              -0.000644477               0.999999994               0.000051792              -0.000673574               0.999999994               0.000058424              -0.000703392               0.999999994               0.000064772              -0.000733725               0.999999994               0.000070592              -0.000764454               0.999999994               0.000075504              -0.000795622               0.999999994               0.000079039              -0.000827010               0.999999994               0.000021506              -0.000519257               0.999999994               0.000002581              -0.000512164               0.999999994              -0.000003985              -0.000511232               0.999999994              -0.000004648              -0.000516937               0.999999994              -0.000002232              -0.000528309               0.999999994               0.000001892              -0.000544114               0.999999994               0.000007037              -0.000563398               0.999999994               0.000012847              -0.000585440               0.999999994               0.000018750              -0.000609652               0.999999994               0.000024486              -0.000635479               0.999999994               0.000029877              -0.000662494               0.999999994               0.000034902              -0.000690476               0.999999994               0.000039510              -0.000719178               0.999999994               0.000043693              -0.000748386               0.999999994               0.000047077              -0.000778009               0.999999994               0.000049154              -0.000808003               0.999999994               0.000049428              -0.000838317               0.999999994               0.000014452              -0.000532147               0.999999994               0.000001150              -0.000530529               0.999999994              -0.000003858              -0.000532011               0.999999994              -0.000004836              -0.000538416               0.999999994              -0.000003621              -0.000549521               0.999999994              -0.000001090              -0.000564545               0.999999994               0.000002324              -0.000582842               0.999999994               0.000006339              -0.000603884               0.999999994               0.000010419              -0.000627116               0.999999994               0.000014321              -0.000652050               0.999999994               0.000017898              -0.000678348               0.999999994               0.000021177              -0.000705691               0.999999994               0.000024046              -0.000733877               0.999999994               0.000026385              -0.000762673               0.999999994               0.000027949              -0.000791978               0.999999994               0.000028181              -0.000821611               0.999999994               0.000026452              -0.000851416               0.999999994               0.000007262              -0.000539902               0.999999994               0.000000417              -0.000541776               0.999999994              -0.000002305              -0.000545014               0.999999994              -0.000002952              -0.000552156               0.999999994              -0.000002491              -0.000563279               0.999999994              -0.000001353              -0.000577963               0.999999994               0.000000351              -0.000595732               0.999999994               0.000002448              -0.000616182               0.999999994               0.000004601              -0.000638998               0.999999994               0.000006582              -0.000663656               0.999999994               0.000008388              -0.000689689               0.999999994               0.000009926              -0.000716830               0.999999994               0.000011227              -0.000744937               0.999999994               0.000012206              -0.000773742               0.999999994               0.000012704              -0.000803054               0.999999994               0.000012417              -0.000832737               0.999999994               0.000010790              -0.000862538               0.999999994              -0.000000000              -0.000542504               0.999999994              -0.000000000              -0.000545615               0.999999994              -0.000000000              -0.000549472               0.999999994               0.000000000              -0.000556887               0.999999994              -0.000000000              -0.000568124               0.999999994               0.000000000              -0.000582673               0.999999994               0.000000000              -0.000600250               0.999999994               0.000000000              -0.000620583               0.999999994              -0.000000000              -0.000643261               0.999999994              -0.000000000              -0.000667850               0.999999994              -0.000000000              -0.000693902               0.999999994              -0.000000000              -0.000721082               0.999999994              -0.000000000              -0.000749171               0.999999994               0.000000000              -0.000777970               0.999999994               0.000000000              -0.000807288               0.999999994               0.000000000              -0.000837004               0.999999994              -0.000000000              -0.000866886               0.999999994               0.000080191              -0.000000000               0.999999994               0.000101653              -0.000000000               0.999999994               0.000111699               0.000000000               0.999999994               0.000117456               0.000000000               0.999999994               0.000121754               0.000000000               0.999999994               0.000125910               0.000000000               0.999999994               0.000130574               0.000000000               0.999999994               0.000135958              -0.000000000               0.999999994               0.000142181               0.000000000               0.999999994               0.000149272               0.000000000               0.999999994               0.000157272              -0.000000000               0.999999994               0.000166114              -0.000000000               0.999999994               0.000175726              -0.000000000               0.999999994               0.000186097              -0.000000000               0.999999994               0.000197153              -0.000000000               0.999999994               0.000208770              -0.000000000               0.999999994               0.000220847              -0.000000000               0.999999994               0.000079674               0.000053866               0.999999994               0.000100114               0.000047017               0.999999994               0.000109588               0.000044953               0.999999994               0.000115050               0.000045524               0.999999994               0.000119283               0.000047597               0.999999994               0.000123461               0.000050705               0.999999994               0.000128142               0.000054429               0.999999994               0.000133591               0.000058643               0.999999994               0.000139882               0.000063196               0.999999994               0.000147046               0.000068013               0.999999994               0.000155085               0.000072976               0.999999994               0.000163911               0.000078059               0.999999994               0.000173486               0.000083166               0.999999994               0.000183793               0.000088144               0.999999994               0.000194784               0.000092880               0.999999994               0.000206390               0.000097231               0.999999994               0.000218529               0.000101004               0.999999994               0.000078193               0.000107158               0.999999994               0.000095593               0.000093543               0.999999994               0.000103351               0.000089729               0.999999994               0.000107972               0.000091076               0.999999994               0.000111900               0.000095514               0.999999994               0.000116119               0.000101895               0.999999994               0.000121002               0.000109584               0.999999994               0.000126716               0.000118161               0.999999994               0.000133283               0.000127380               0.999999994               0.000140666               0.000137056               0.999999994               0.000148854               0.000147030               0.999999994               0.000157733               0.000157276               0.999999994               0.000167303               0.000167646               0.999999994               0.000177575               0.000177919               0.999999994               0.000188536               0.000187978               0.999999994               0.000200200               0.000197538               0.999999994               0.000212530               0.000206361               0.999999994               0.000075820               0.000159315               0.999999994               0.000088379               0.000139137               0.999999994               0.000093616               0.000134186               0.999999994               0.000097168               0.000136872               0.999999994               0.000100817               0.000144044               0.999999994               0.000105234               0.000154022               0.999999994               0.000110606               0.000165860               0.999999994               0.000116916               0.000178882               0.999999994               0.000124067               0.000192794               0.999999994               0.000131982               0.000207293               0.999999994               0.000140651               0.000222319               0.999999994               0.000150009               0.000237745               0.999999994               0.000160035               0.000253494               0.999999994               0.000170729               0.000269324               0.999999994               0.000182112               0.000285138               0.999999994               0.000194213               0.000300756               0.999999994               0.000206989               0.000315946               0.999999994               0.000072547               0.000209772               0.999999994               0.000078845               0.000183532               0.999999994               0.000081398               0.000178138               0.999999994               0.000084061               0.000182828               0.999999994               0.000087874               0.000193103               0.999999994               0.000093034               0.000206907               0.999999994               0.000099321               0.000222926               0.999999994               0.000106578               0.000240381               0.999999994               0.000114706               0.000258932               0.999999994               0.000123614               0.000278214               0.999999994               0.000133250               0.000298104               0.999999994               0.000143615               0.000318595               0.999999994               0.000154638               0.000339560               0.999999994               0.000166292               0.000360925               0.999999994               0.000178605               0.000382507               0.999999994               0.000191431               0.000404148               0.999999994               0.000204670               0.000425530               0.999999994               0.000068422               0.000257980               0.999999994               0.000067577               0.000226550               0.999999994               0.000067806               0.000221421               0.999999994               0.000070231               0.000228538               0.999999994               0.000074870               0.000242276               0.999999994               0.000081281               0.000259924               0.999999994               0.000088863               0.000280000               0.999999994               0.000097384               0.000301733               0.999999994               0.000106776               0.000324730               0.999999994               0.000116966               0.000348650               0.999999994               0.000127889               0.000373243               0.999999994               0.000139444               0.000398642               0.999999994               0.000151631               0.000424702               0.999999994               0.000164382               0.000451367               0.999999994               0.000177569               0.000478469               0.999999994               0.000191066               0.000505568               0.999999994               0.000204709               0.000532473               0.999999994               0.000063495               0.000303470               0.999999994               0.000055281               0.000268039               0.999999994               0.000053857               0.000263833               0.999999994               0.000056892               0.000273601               0.999999994               0.000062960               0.000290844               0.999999994               0.000070941               0.000312207               0.999999994               0.000080095               0.000336178               0.999999994               0.000090118               0.000361985               0.999999994               0.000100933               0.000389256               0.999999994               0.000112510               0.000417637               0.999999994               0.000124782               0.000446840               0.999999994               0.000137646               0.000476951               0.999999994               0.000151067               0.000507905               0.999999994               0.000164895               0.000539562               0.999999994               0.000178983               0.000571492               0.999999994               0.000193109               0.000603345               0.999999994               0.000207082               0.000634782               0.999999994               0.000057926               0.000345697               0.999999994               0.000042740               0.000307832               0.999999994               0.000040691               0.000304905               0.999999994               0.000045129               0.000317338               0.999999994               0.000053008               0.000337930               0.999999994               0.000062752               0.000362908               0.999999994               0.000073446               0.000390666               0.999999994               0.000084923               0.000420465               0.999999994               0.000097229               0.000451896               0.999999994               0.000110190               0.000484636               0.999999994               0.000123772               0.000518302               0.999999994               0.000138000               0.000553042               0.999999994               0.000152661               0.000588534               0.999999994               0.000167522               0.000624414               0.999999994               0.000182358               0.000660381               0.999999994               0.000196861               0.000696000               0.999999994               0.000210926               0.000731087               0.999999994               0.000052167               0.000383843               0.999999994               0.000030588               0.000345769               0.999999994               0.000029197               0.000344205               0.999999994               0.000035399               0.000359191               0.999999994               0.000045169               0.000383022               0.999999994               0.000056517               0.000411634               0.999999994               0.000068764               0.000443153               0.999999994               0.000081782               0.000476923               0.999999994               0.000095429               0.000512447               0.999999994               0.000109679               0.000549424               0.999999994               0.000124565               0.000587463               0.999999994               0.000139995               0.000626405               0.999999994               0.000155661               0.000665894               0.999999994               0.000171250               0.000705385               0.999999994               0.000186454               0.000744614               0.999999994               0.000201275               0.000783437               0.999999994               0.000215801               0.000821778               0.999999994               0.000046894               0.000419223               0.999999994               0.000021612               0.000385327               0.999999994               0.000018357               0.000380604               0.999999994               0.000023271               0.000391595               0.999999994               0.000031946               0.000411555               0.999999994               0.000042382               0.000436789               0.999999994               0.000053596               0.000465252               0.999999994               0.000065333               0.000496006               0.999999994               0.000077461               0.000528491               0.999999994               0.000089987               0.000562399               0.999999994               0.000102977               0.000597367               0.999999994               0.000116339               0.000633289               0.999999994               0.000130046               0.000669918               0.999999994               0.000143841               0.000706915               0.999999994               0.000157392               0.000743966               0.999999994               0.000170576               0.000780821               0.999999994               0.000183645               0.000817391               0.999999994               0.000041095               0.000450891               0.999999994               0.000014412               0.000422792               0.999999994               0.000009229               0.000417098               0.999999994               0.000012485               0.000425097               0.999999994               0.000019856               0.000441588               0.999999994               0.000029057               0.000463598               0.999999994               0.000039054               0.000489256               0.999999994               0.000049440               0.000517357               0.999999994               0.000060123               0.000547211               0.999999994               0.000071023               0.000578285               0.999999994               0.000082132               0.000610488               0.999999994               0.000093310               0.000643537               0.999999994               0.000104706               0.000677474               0.999999994               0.000116152               0.000711945               0.999999994               0.000127427               0.000746713               0.999999994               0.000138305               0.000781435               0.999999994               0.000148789               0.000816158               0.999999994               0.000034882               0.000478381               0.999999994               0.000008895               0.000457237               0.999999994               0.000002301               0.000452149               0.999999994               0.000003984               0.000458281               0.999999994               0.000009767               0.000472173               0.999999994               0.000017336               0.000491454               0.999999994               0.000025869               0.000514527               0.999999994               0.000034875               0.000540227               0.999999994               0.000044091               0.000567790               0.999999994               0.000053319               0.000596689               0.999999994               0.000062489               0.000626598               0.999999994               0.000071497               0.000657354               0.999999994               0.000080425               0.000688860               0.999999994               0.000089264               0.000721017               0.999999994               0.000097877               0.000753620               0.999999994               0.000105910               0.000786395               0.999999994               0.000113025               0.000819272               0.999999994               0.000028330               0.000501279               0.999999994               0.000005063               0.000487368               0.999999994              -0.000002062               0.000484058               0.999999994              -0.000001784               0.000489555               0.999999994               0.000002250               0.000501776               0.999999994               0.000008068               0.000518998               0.999999994               0.000014948               0.000539842               0.999999994               0.000022474               0.000563491               0.999999994               0.000030081               0.000589110               0.999999994               0.000037581               0.000616247               0.999999994               0.000044843               0.000644477               0.999999994               0.000051792               0.000673574               0.999999994               0.000058424               0.000703392               0.999999994               0.000064772               0.000733725               0.999999994               0.000070592               0.000764454               0.999999994               0.000075504               0.000795622               0.999999994               0.000079039               0.000827010               0.999999994               0.000021506               0.000519257               0.999999994               0.000002581               0.000512164               0.999999994              -0.000003985               0.000511232               0.999999994              -0.000004648               0.000516937               0.999999994              -0.000002232               0.000528309               0.999999994               0.000001892               0.000544114               0.999999994               0.000007037               0.000563398               0.999999994               0.000012847               0.000585440               0.999999994               0.000018750               0.000609652               0.999999994               0.000024486               0.000635479               0.999999994               0.000029877               0.000662494               0.999999994               0.000034902               0.000690476               0.999999994               0.000039510               0.000719178               0.999999994               0.000043693               0.000748386               0.999999994               0.000047077               0.000778009               0.999999994               0.000049154               0.000808003               0.999999994               0.000049428               0.000838317               0.999999994               0.000014452               0.000532147               0.999999994               0.000001150               0.000530529               0.999999994              -0.000003858               0.000532011               0.999999994              -0.000004836               0.000538416               0.999999994              -0.000003621               0.000549521               0.999999994              -0.000001090               0.000564545               0.999999994               0.000002324               0.000582842               0.999999994               0.000006339               0.000603884               0.999999994               0.000010419               0.000627116               0.999999994               0.000014321               0.000652050               0.999999994               0.000017898               0.000678348               0.999999994               0.000021177               0.000705691               0.999999994               0.000024046               0.000733877               0.999999994               0.000026385               0.000762673               0.999999994               0.000027949               0.000791978               0.999999994               0.000028181               0.000821611               0.999999994               0.000026452               0.000851416               0.999999994               0.000007262               0.000539902               0.999999994               0.000000417               0.000541776               0.999999994              -0.000002305               0.000545014               0.999999994              -0.000002952               0.000552156               0.999999994              -0.000002491               0.000563279               0.999999994              -0.000001353               0.000577963               0.999999994               0.000000351               0.000595732               0.999999994               0.000002448               0.000616182               0.999999994               0.000004601               0.000638998               0.999999994               0.000006582               0.000663656               0.999999994               0.000008388               0.000689689               0.999999994               0.000009926               0.000716830               0.999999994               0.000011227               0.000744937               0.999999994               0.000012206               0.000773742               0.999999994               0.000012704               0.000803054               0.999999994               0.000012417               0.000832737               0.999999994               0.000010790               0.000862538               0.999999994              -0.000000000               0.000542504               0.999999994               0.000000000               0.000545615               0.999999994               0.000000000               0.000549472               0.999999994               0.000000000               0.000556887               0.999999994               0.000000000               0.000568124               0.999999994              -0.000000000               0.000582673               0.999999994               0.000000000               0.000600250               0.999999994               0.000000000               0.000620583               0.999999994               0.000000000               0.000643261               0.999999994               0.000000000               0.000667850               0.999999994              -0.000000000               0.000693902               0.999999994               0.000000000               0.000721082               0.999999994               0.000000000               0.000749171               0.999999994               0.000000000               0.000777970               0.999999994              -0.000000000               0.000807288               0.999999994              -0.000000000               0.000837004               0.999999994              -0.000000000               0.000866886               0.999999994 </DataArray>
<DataArray type="Float64"                                    Name="stress"                                                      NumberOfComponents="10" format="ascii">
              0.000891816               0.010044693               0.000000000              -0.000921153               0.003655249               0.002734095               0.000000000               0.000000000               0.000000000               0.000000000               0.000970977               0.008210030              -0.000000000              -0.000662136               0.002957361               0.002295226               0.000000000               0.000000000               0.000000000               0.000000000               0.001346006               0.006737743              -0.000000000              -0.000337465               0.002358380               0.002020915               0.000000000               0.000000000               0.000000000               0.000000000               0.001391266               0.005930379              -0.000000000              -0.000219572               0.002049964               0.001830392               0.000000000               0.000000000               0.000000000               0.000000000               0.001315803               0.005451042               0.000000000              -0.000187953               0.001879647               0.001691693               0.000000000               0.000000000               0.000000000               0.000000000               0.001192981               0.005151440               0.000000000              -0.000196562               0.001782650               0.001586088               0.000000000               0.000000000               0.000000000               0.000000000               0.001055587               0.004953462               0.000000000              -0.000223337               0.001725583               0.001502246               0.000000000               0.000000000               0.000000000               0.000000000               0.000920670               0.004820657              -0.000000000              -0.000257330               0.001692646               0.001435316               0.000000000               0.000000000               0.000000000               0.000000000               0.000791742               0.004728928               0.000000000              -0.000294212               0.001674364               0.001380152               0.000000000               0.000000000               0.000000000               0.000000000               0.000667863               0.004662970               0.000000000              -0.000332422               0.001665115               0.001332693               0.000000000               0.000000000               0.000000000               0.000000000               0.000551845               0.004612868              -0.000000000              -0.000369666               0.001660829               0.001291163               0.000000000               0.000000000               0.000000000               0.000000000               0.000447301               0.004574238               0.000000000              -0.000404041               0.001659411               0.001255370               0.000000000               0.000000000               0.000000000               0.000000000               0.000347805               0.004538481               0.000000000              -0.000436882               0.001658439               0.001221557               0.000000000               0.000000000               0.000000000               0.000000000               0.000251138               0.004497823               0.000000000              -0.000468050               0.001655276               0.001187226               0.000000000               0.000000000               0.000000000               0.000000000               0.000161661               0.004448823              -0.000000000              -0.000495479               0.001648086               0.001152607               0.000000000               0.000000000               0.000000000               0.000000000               0.000079498               0.004386598               0.000000000              -0.000518512               0.001635022               0.001116510               0.000000000               0.000000000               0.000000000               0.000000000               0.000036260               0.004339303               0.000000000              -0.000528814               0.001622691               0.001093877               0.000000000               0.000000000               0.000000000               0.000000000               0.000939700               0.009866448              -0.000735565              -0.000880917               0.003582422               0.002701505               0.000000000               0.000000000               0.000000000               0.000000000               0.000976667               0.008087119              -0.000445690              -0.000644638               0.002910559               0.002265921               0.000000000               0.000000000               0.000000000               0.000000000               0.001306916               0.006675508              -0.000149287              -0.000344344               0.002339928               0.001995584               0.000000000               0.000000000               0.000000000               0.000000000               0.001331603               0.005898787              -0.000015218              -0.000237997               0.002045575               0.001807578               0.000000000               0.000000000               0.000000000               0.000000000               0.001250423               0.005440286               0.000046526              -0.000211127               0.001883786               0.001672659               0.000000000               0.000000000               0.000000000               0.000000000               0.001132272               0.005154299               0.000074040              -0.000219685               0.001791311               0.001571626               0.000000000               0.000000000               0.000000000               0.000000000               0.001002558               0.004967542               0.000085391              -0.000244983               0.001737492               0.001492509               0.000000000               0.000000000               0.000000000               0.000000000               0.000874212               0.004841122               0.000089373              -0.000277310               0.001706128               0.001428818               0.000000000               0.000000000               0.000000000               0.000000000               0.000752275               0.004752972               0.000089526              -0.000312018               0.001688314               0.001376296               0.000000000               0.000000000               0.000000000               0.000000000               0.000635393               0.004688385               0.000087562              -0.000347775               0.001678704               0.001330930               0.000000000               0.000000000               0.000000000               0.000000000               0.000527501               0.004639889               0.000085230              -0.000382172               0.001674005               0.001291833               0.000000000               0.000000000               0.000000000               0.000000000               0.000429768               0.004603408               0.000082711              -0.000414262               0.001672541               0.001258279               0.000000000               0.000000000               0.000000000               0.000000000               0.000335626               0.004571457               0.000076744              -0.000445571               0.001672328               0.001226756               0.000000000               0.000000000               0.000000000               0.000000000               0.000244043               0.004538387               0.000066875              -0.000475781               0.001671374               0.001195593               0.000000000               0.000000000               0.000000000               0.000000000               0.000157449               0.004501540               0.000052315              -0.000503648               0.001668381               0.001164733               0.000000000               0.000000000               0.000000000               0.000000000               0.000076662               0.004456508               0.000030685              -0.000528314               0.001661592               0.001133278               0.000000000               0.000000000               0.000000000               0.000000000               0.000036370               0.004424664               0.000017469              -0.000539443               0.001654687               0.001115244               0.000000000               0.000000000               0.000000000               0.000000000               0.001072778               0.009355299              -0.001390654              -0.000767120               0.003374108               0.002606989               0.000000000               0.000000000               0.000000000               0.000000000               0.000994442               0.007738331              -0.000843670              -0.000594374               0.002777543               0.002183168               0.000000000               0.000000000               0.000000000               0.000000000               0.001201070               0.006504953              -0.000288561              -0.000362717               0.002289202               0.001926485               0.000000000               0.000000000               0.000000000               0.000000000               0.001175916               0.005823025              -0.000041726              -0.000286909               0.002036625               0.001749716               0.000000000               0.000000000               0.000000000               0.000000000               0.001080602               0.005418902               0.000072238              -0.000272136               0.001896995               0.001624859               0.000000000               0.000000000               0.000000000               0.000000000               0.000967532               0.005165480               0.000122772              -0.000282860               0.001816096               0.001533236               0.000000000               0.000000000               0.000000000               0.000000000               0.000854080               0.005000128               0.000141876              -0.000304735               0.001768271               0.001463536               0.000000000               0.000000000               0.000000000               0.000000000               0.000744713               0.004884746               0.000146724              -0.000331325               0.001738674               0.001407349               0.000000000               0.000000000               0.000000000               0.000000000               0.000643133               0.004801941               0.000145408              -0.000359067               0.001720320               0.001361253               0.000000000               0.000000000               0.000000000               0.000000000               0.000546158               0.004738989               0.000141179              -0.000387563               0.001708835               0.001321272               0.000000000               0.000000000               0.000000000               0.000000000               0.000457854               0.004693332               0.000136542              -0.000414970               0.001702752               0.001287782               0.000000000               0.000000000               0.000000000               0.000000000               0.000377406               0.004660463               0.000130911              -0.000441030               0.001700482               0.001259453               0.000000000               0.000000000               0.000000000               0.000000000               0.000297841               0.004635695               0.000119912              -0.000467771               0.001701140               0.001233369               0.000000000               0.000000000               0.000000000               0.000000000               0.000219123               0.004616502               0.000103401              -0.000494891               0.001703782               0.001208892               0.000000000               0.000000000               0.000000000               0.000000000               0.000141617               0.004602053               0.000079787              -0.000522149               0.001708052               0.001185903               0.000000000               0.000000000               0.000000000               0.000000000               0.000067752               0.004592014               0.000045795              -0.000548594               0.001713521               0.001164927               0.000000000               0.000000000               0.000000000               0.000000000               0.000035390               0.004592013               0.000024707              -0.000560729               0.001717565               0.001156836               0.000000000               0.000000000               0.000000000               0.000000000               0.001249895               0.008573186              -0.001896460              -0.000602937               0.003058679               0.002455742               0.000000000               0.000000000               0.000000000               0.000000000               0.001010198               0.007214884              -0.001157789              -0.000523036               0.002579282               0.002056247               0.000000000               0.000000000               0.000000000               0.000000000               0.001044582               0.006254279              -0.000416506              -0.000390066               0.002214761               0.001824695               0.000000000               0.000000000               0.000000000               0.000000000               0.000959743               0.005716222              -0.000098874              -0.000354623               0.002023596               0.001668973               0.000000000               0.000000000               0.000000000               0.000000000               0.000853225               0.005385652               0.000044886              -0.000353246               0.001912948               0.001559702               0.000000000               0.000000000               0.000000000               0.000000000               0.000750575               0.005171471               0.000107832              -0.000364967               0.001845462               0.001480495               0.000000000               0.000000000               0.000000000               0.000000000               0.000657400               0.005023225               0.000131563              -0.000381377               0.001801517               0.001420140               0.000000000               0.000000000               0.000000000               0.000000000               0.000573635               0.004914988               0.000138036              -0.000399259               0.001771400               0.001372140               0.000000000               0.000000000               0.000000000               0.000000000               0.000499055               0.004834699               0.000136361              -0.000417191               0.001750614               0.001333423               0.000000000               0.000000000               0.000000000               0.000000000               0.000427780               0.004771756               0.000131194              -0.000436051               0.001735920               0.001299869               0.000000000               0.000000000               0.000000000               0.000000000               0.000359907               0.004723561               0.000125910              -0.000455479               0.001726331               0.001270852               0.000000000               0.000000000               0.000000000               0.000000000               0.000297325               0.004688882               0.000118788              -0.000474612               0.001721149               0.001246537               0.000000000               0.000000000               0.000000000               0.000000000               0.000236166               0.004665439               0.000106969              -0.000494616               0.001720003               0.001225387               0.000000000               0.000000000               0.000000000               0.000000000               0.000174424               0.004653204               0.000089669              -0.000516240               0.001723133               0.001206892               0.000000000               0.000000000               0.000000000               0.000000000               0.000112144               0.004650634               0.000066975              -0.000539274               0.001729954               0.001190680               0.000000000               0.000000000               0.000000000               0.000000000               0.000052946               0.004658963               0.000036600              -0.000562514               0.001740477               0.001177963               0.000000000               0.000000000               0.000000000               0.000000000               0.000029055               0.004673649               0.000017430              -0.000573309               0.001748970               0.001175661               0.000000000               0.000000000               0.000000000               0.000000000               0.001415063               0.007606456              -0.002214441              -0.000420159               0.002675513               0.002255353               0.000000000               0.000000000               0.000000000               0.000000000               0.001000605               0.006581422              -0.001373569              -0.000447451               0.002342935               0.001895485               0.000000000               0.000000000               0.000000000               0.000000000               0.000851871               0.005950470              -0.000536552              -0.000424356               0.002124922               0.001700566               0.000000000               0.000000000               0.000000000               0.000000000               0.000717557               0.005570858              -0.000192820              -0.000427272               0.001999358               0.001572086               0.000000000               0.000000000               0.000000000               0.000000000               0.000610017               0.005320002              -0.000042287              -0.000436243               0.001918730               0.001482488               0.000000000               0.000000000               0.000000000               0.000000000               0.000529607               0.005141526               0.000025145              -0.000444087               0.001861854               0.001417767               0.000000000               0.000000000               0.000000000               0.000000000               0.000466345               0.005005370               0.000054660              -0.000450791               0.001818704               0.001367913               0.000000000               0.000000000               0.000000000               0.000000000               0.000409117               0.004899625               0.000067860              -0.000459033               0.001786203               0.001327170               0.000000000               0.000000000               0.000000000               0.000000000               0.000356429               0.004817198               0.000071501              -0.000468488               0.001761879               0.001293391               0.000000000               0.000000000               0.000000000               0.000000000               0.000306628               0.004751977               0.000069051              -0.000479011               0.001743647               0.001264636               0.000000000               0.000000000               0.000000000               0.000000000               0.000256059               0.004698215               0.000067579              -0.000491253               0.001729807               0.001238554               0.000000000               0.000000000               0.000000000               0.000000000               0.000207005               0.004658327               0.000066010              -0.000504663               0.001720981               0.001216318               0.000000000               0.000000000               0.000000000               0.000000000               0.000160454               0.004631036               0.000061821              -0.000518708               0.001716566               0.001197858               0.000000000               0.000000000               0.000000000               0.000000000               0.000113583               0.004616087               0.000053729              -0.000534416               0.001716819               0.001182403               0.000000000               0.000000000               0.000000000               0.000000000               0.000069848               0.004611425               0.000040609              -0.000550234               0.001720537               0.001170304               0.000000000               0.000000000               0.000000000               0.000000000               0.000032992               0.004613206               0.000021567              -0.000564277               0.001725812               0.001161535               0.000000000               0.000000000               0.000000000               0.000000000               0.000018129               0.004619339               0.000009386              -0.000570618               0.001729970               0.001159353               0.000000000               0.000000000               0.000000000               0.000000000               0.001518302               0.006550619              -0.002342467              -0.000249466               0.002266672               0.002017206               0.000000000               0.000000000               0.000000000               0.000000000               0.000954075               0.005901438              -0.001496166              -0.000379902               0.002093760               0.001713858               0.000000000               0.000000000               0.000000000               0.000000000               0.000639983               0.005619292              -0.000654126              -0.000462417               0.002027217               0.001564801               0.000000000               0.000000000               0.000000000               0.000000000               0.000479915               0.005389087              -0.000316894              -0.000493667               0.001960900               0.001467233               0.000000000               0.000000000               0.000000000               0.000000000               0.000388282               0.005208887              -0.000169430              -0.000505504               0.001904780               0.001399276               0.000000000               0.000000000               0.000000000               0.000000000               0.000337422               0.005057693              -0.000097273              -0.000505677               0.001854440               0.001348763               0.000000000               0.000000000               0.000000000               0.000000000               0.000306883               0.004931508              -0.000057606              -0.000501356               0.001810938               0.001309582               0.000000000               0.000000000               0.000000000               0.000000000               0.000274984               0.004827186              -0.000032661              -0.000500278               0.001775805               0.001275527               0.000000000               0.000000000               0.000000000               0.000000000               0.000238537               0.004741856              -0.000017130              -0.000503279               0.001748363               0.001245083               0.000000000               0.000000000               0.000000000               0.000000000               0.000201152               0.004673214              -0.000009959              -0.000508718               0.001727295               0.001218577               0.000000000               0.000000000               0.000000000               0.000000000               0.000165162               0.004618038              -0.000002137              -0.000515318               0.001711103               0.001195786               0.000000000               0.000000000               0.000000000               0.000000000               0.000128704               0.004575088               0.000007888              -0.000523621               0.001699554               0.001175933               0.000000000               0.000000000               0.000000000               0.000000000               0.000092578               0.004543348               0.000015956              -0.000533200               0.001692168               0.001158967               0.000000000               0.000000000               0.000000000               0.000000000               0.000060472               0.004520506               0.000021256              -0.000542385               0.001687615               0.001145230               0.000000000               0.000000000               0.000000000               0.000000000               0.000033831               0.004501104               0.000019399              -0.000549950               0.001683670               0.001133720               0.000000000               0.000000000               0.000000000               0.000000000               0.000014880               0.004482384               0.000010684              -0.000554717               0.001679018               0.001124302               0.000000000               0.000000000               0.000000000               0.000000000               0.000006242               0.004470268               0.000006303              -0.000556441               0.001675555               0.001119114               0.000000000               0.000000000               0.000000000               0.000000000               0.001528162               0.005486442              -0.002305023              -0.000112747               0.001866377               0.001753630               0.000000000               0.000000000               0.000000000               0.000000000               0.000874899               0.005224226              -0.001542579              -0.000324942               0.001849705               0.001524763               0.000000000               0.000000000               0.000000000               0.000000000               0.000440924               0.005272315              -0.000773528              -0.000493692               0.001921985               0.001428293               0.000000000               0.000000000               0.000000000               0.000000000               0.000281577               0.005171547              -0.000460276              -0.000540851               0.001904115               0.001363265               0.000000000               0.000000000               0.000000000               0.000000000               0.000220082               0.005047253              -0.000312921              -0.000548374               0.001865192               0.001316818               0.000000000               0.000000000               0.000000000               0.000000000               0.000200346               0.004921524              -0.000231410              -0.000540059               0.001820511               0.001280452               0.000000000               0.000000000               0.000000000               0.000000000               0.000193164               0.004808307              -0.000176426              -0.000528601               0.001778953               0.001250352               0.000000000               0.000000000               0.000000000               0.000000000               0.000178801               0.004710728              -0.000135473              -0.000521789               0.001744157               0.001222367               0.000000000               0.000000000               0.000000000               0.000000000               0.000155850               0.004628619              -0.000104932              -0.000520132               0.001716235               0.001196103               0.000000000               0.000000000               0.000000000               0.000000000               0.000127172               0.004560388              -0.000083917              -0.000522358               0.001694233               0.001171876               0.000000000               0.000000000               0.000000000               0.000000000               0.000097430               0.004504599              -0.000064026              -0.000526537               0.001677030               0.001150493               0.000000000               0.000000000               0.000000000               0.000000000               0.000069678               0.004459712              -0.000043004              -0.000531334               0.001663667               0.001132333               0.000000000               0.000000000               0.000000000               0.000000000               0.000044116               0.004419107              -0.000023569              -0.000535844               0.001651635               0.001115792               0.000000000               0.000000000               0.000000000               0.000000000               0.000022604               0.004376566              -0.000008160              -0.000538593               0.001638372               0.001099779               0.000000000               0.000000000               0.000000000               0.000000000               0.000008523               0.004330950              -0.000000482              -0.000538171               0.001623026               0.001084855               0.000000000               0.000000000               0.000000000               0.000000000               0.000003214               0.004284074               0.000000678              -0.000534303               0.001606111               0.001071809               0.000000000               0.000000000               0.000000000               0.000000000              -0.000002828               0.004250803               0.000003239              -0.000532409               0.001594390               0.001061981               0.000000000               0.000000000               0.000000000               0.000000000               0.001452390               0.004472505              -0.002135362              -0.000014420               0.001495626               0.001481206               0.000000000               0.000000000               0.000000000               0.000000000               0.000773589               0.004583476              -0.001532799              -0.000282840               0.001622090               0.001339250               0.000000000               0.000000000               0.000000000               0.000000000               0.000284551               0.004917210              -0.000895848              -0.000507944               0.001808368               0.001300424               0.000000000               0.000000000               0.000000000               0.000000000               0.000148389               0.004925791              -0.000606197              -0.000560077               0.001828606               0.001268529               0.000000000               0.000000000               0.000000000               0.000000000               0.000118745               0.004853327              -0.000450013              -0.000562135               0.001805138               0.001243003               0.000000000               0.000000000               0.000000000               0.000000000               0.000125028               0.004759381              -0.000353637              -0.000548036               0.001769123               0.001221087               0.000000000               0.000000000               0.000000000               0.000000000               0.000134642               0.004665995              -0.000282437              -0.000532758               0.001732902               0.001200145               0.000000000               0.000000000               0.000000000               0.000000000               0.000128386               0.004580436              -0.000226424              -0.000524408               0.001701599               0.001177191               0.000000000               0.000000000               0.000000000               0.000000000               0.000109948               0.004503963              -0.000180259              -0.000521764               0.001675227               0.001153463               0.000000000               0.000000000               0.000000000               0.000000000               0.000085515               0.004437683              -0.000144709              -0.000522641               0.001653427               0.001130786               0.000000000               0.000000000               0.000000000               0.000000000               0.000054183               0.004378745              -0.000112821              -0.000527023               0.001635242               0.001108218               0.000000000               0.000000000               0.000000000               0.000000000               0.000024927               0.004322979              -0.000081305              -0.000531023               0.001617986               0.001086963               0.000000000               0.000000000               0.000000000               0.000000000               0.000003705               0.004263452              -0.000054720              -0.000531541               0.001598317               0.001066776               0.000000000               0.000000000               0.000000000               0.000000000              -0.000011259               0.004194344              -0.000031405              -0.000528514               0.001574272               0.001045758               0.000000000               0.000000000               0.000000000               0.000000000              -0.000016642               0.004121294              -0.000013540              -0.000521401               0.001547551               0.001026150               0.000000000               0.000000000               0.000000000               0.000000000              -0.000011479               0.004051315              -0.000003404              -0.000510718               0.001520664               0.001009946               0.000000000               0.000000000               0.000000000               0.000000000              -0.000012691               0.004005746               0.000004028              -0.000505476               0.001503727               0.000998251               0.000000000               0.000000000               0.000000000               0.000000000               0.001334332               0.003587059              -0.001881940               0.000051989               0.001178344               0.001230333               0.000000000               0.000000000               0.000000000               0.000000000               0.000690200               0.004002349              -0.001494151              -0.000241470               0.001414592               0.001173123               0.000000000               0.000000000               0.000000000               0.000000000               0.000195095               0.004580600              -0.001029742              -0.000499414               0.001693322               0.001193909               0.000000000               0.000000000               0.000000000               0.000000000               0.000084600               0.004700827              -0.000755391              -0.000555877               0.001752219               0.001196342               0.000000000               0.000000000               0.000000000               0.000000000               0.000075791               0.004684667              -0.000583006              -0.000557161               0.001747260               0.001190100               0.000000000               0.000000000               0.000000000               0.000000000               0.000096639               0.004622677              -0.000468620              -0.000541594               0.001721408               0.001179814               0.000000000               0.000000000               0.000000000               0.000000000               0.000114493               0.004553148              -0.000384608              -0.000526208               0.001693103               0.001166896               0.000000000               0.000000000               0.000000000               0.000000000               0.000116891               0.004486196              -0.000316357              -0.000516939               0.001667697               0.001150758               0.000000000               0.000000000               0.000000000               0.000000000               0.000102532               0.004420193              -0.000257043              -0.000514073               0.001644741               0.001130667               0.000000000               0.000000000               0.000000000               0.000000000               0.000075643               0.004354091              -0.000208124              -0.000515894               0.001623314               0.001107420               0.000000000               0.000000000               0.000000000               0.000000000               0.000041339               0.004289401              -0.000166369              -0.000520672               0.001603343               0.001082672               0.000000000               0.000000000               0.000000000               0.000000000               0.000006856               0.004222584              -0.000126433              -0.000525251               0.001582598               0.001057347               0.000000000               0.000000000               0.000000000               0.000000000              -0.000020400               0.004145690              -0.000091412              -0.000525860               0.001557170               0.001031310               0.000000000               0.000000000               0.000000000               0.000000000              -0.000039247               0.004059558              -0.000059591              -0.000522161               0.001527226               0.001005065               0.000000000               0.000000000               0.000000000               0.000000000              -0.000053207               0.003970301              -0.000030713              -0.000516239               0.001495500               0.000979261               0.000000000               0.000000000               0.000000000               0.000000000              -0.000064027               0.003884781              -0.000009956              -0.000509606               0.001464783               0.000955177               0.000000000               0.000000000               0.000000000               0.000000000              -0.000069300               0.003836360               0.000000079              -0.000505531               0.001447284               0.000941753               0.000000000               0.000000000               0.000000000               0.000000000               0.001163820               0.002745400              -0.001593478               0.000093255               0.000884038               0.000977293               0.000000000               0.000000000               0.000000000               0.000000000               0.000646366               0.003331124              -0.001438595              -0.000174005               0.001168364               0.000994360               0.000000000               0.000000000               0.000000000               0.000000000               0.000190660               0.004084079              -0.001174498              -0.000439012               0.001507683               0.001068671               0.000000000               0.000000000               0.000000000               0.000000000               0.000085691               0.004345993              -0.000927652              -0.000511114               0.001619021               0.001107907               0.000000000               0.000000000               0.000000000               0.000000000               0.000078409               0.004418794              -0.000743233              -0.000522945               0.001647232               0.001124287               0.000000000               0.000000000               0.000000000               0.000000000               0.000100887               0.004416575              -0.000607404              -0.000514238               0.001643590               0.001129352               0.000000000               0.000000000               0.000000000               0.000000000               0.000122030               0.004390551              -0.000505425              -0.000503056               0.001631188               0.001128131               0.000000000               0.000000000               0.000000000               0.000000000               0.000127854               0.004353532              -0.000423137              -0.000496245               0.001616578               0.001120333               0.000000000               0.000000000               0.000000000               0.000000000               0.000118780               0.004308081              -0.000353071              -0.000493967               0.001600668               0.001106702               0.000000000               0.000000000               0.000000000               0.000000000               0.000094285               0.004251944              -0.000292431              -0.000496135               0.001582679               0.001086544               0.000000000               0.000000000               0.000000000               0.000000000               0.000058449               0.004193561              -0.000238287              -0.000502275               0.001565265               0.001062989               0.000000000               0.000000000               0.000000000               0.000000000               0.000015046               0.004134866              -0.000187913              -0.000511215               0.001548680               0.001037465               0.000000000               0.000000000               0.000000000               0.000000000              -0.000028748               0.004068478              -0.000142564              -0.000519339               0.001529259               0.001009920               0.000000000               0.000000000               0.000000000               0.000000000              -0.000069660               0.003991539              -0.000098305              -0.000525063               0.001505521               0.000980457               0.000000000               0.000000000               0.000000000               0.000000000              -0.000107670               0.003906560              -0.000055761              -0.000528695               0.001478405               0.000949710               0.000000000               0.000000000               0.000000000               0.000000000              -0.000145911               0.003819217              -0.000020784              -0.000532117               0.001450432               0.000918315               0.000000000               0.000000000               0.000000000               0.000000000              -0.000168613               0.003771402              -0.000003878              -0.000534654               0.001435339               0.000900686               0.000000000               0.000000000               0.000000000               0.000000000               0.000895519               0.001978148              -0.001277879               0.000088549               0.000629859               0.000718408               0.000000000               0.000000000               0.000000000               0.000000000               0.000593525               0.002666391              -0.001338233              -0.000110729               0.000925697               0.000814969               0.000000000               0.000000000               0.000000000               0.000000000               0.000241240               0.003522762              -0.001276612              -0.000349880               0.001290869               0.000940988               0.000000000               0.000000000               0.000000000               0.000000000               0.000145561               0.003911393              -0.001088727              -0.000434338               0.001448564               0.001014225               0.000000000               0.000000000               0.000000000               0.000000000               0.000130029               0.004088784              -0.000909676              -0.000462336               0.001517026               0.001054690               0.000000000               0.000000000               0.000000000               0.000000000               0.000139062               0.004169462              -0.000757651              -0.000469034               0.001546151               0.001077118               0.000000000               0.000000000               0.000000000               0.000000000               0.000153846               0.004201632              -0.000638163              -0.000467511               0.001556367               0.001088856               0.000000000               0.000000000               0.000000000               0.000000000               0.000161813               0.004204243              -0.000543798              -0.000464850               0.001556350               0.001091501               0.000000000               0.000000000               0.000000000               0.000000000               0.000156527               0.004183900              -0.000465498              -0.000464289               0.001549382               0.001085093               0.000000000               0.000000000               0.000000000               0.000000000               0.000136031               0.004150936              -0.000396164              -0.000467854               0.001539583               0.001071728               0.000000000               0.000000000               0.000000000               0.000000000               0.000100883               0.004112100              -0.000330697              -0.000476180               0.001529413               0.001053233               0.000000000               0.000000000               0.000000000               0.000000000               0.000054083               0.004071859              -0.000269768              -0.000488700               0.001520173               0.001031473               0.000000000               0.000000000               0.000000000               0.000000000              -0.000000777               0.004026586              -0.000213793              -0.000503614               0.001510053               0.001006440               0.000000000               0.000000000               0.000000000               0.000000000              -0.000059969               0.003967130              -0.000158525              -0.000518379               0.001495156               0.000976778               0.000000000               0.000000000               0.000000000               0.000000000              -0.000121229               0.003892438              -0.000102642              -0.000532014               0.001474805               0.000942790               0.000000000               0.000000000               0.000000000               0.000000000              -0.000187061               0.003812827              -0.000047492              -0.000546750               0.001453180               0.000906430               0.000000000               0.000000000               0.000000000               0.000000000              -0.000234659               0.003765301              -0.000015006              -0.000558658               0.001441307               0.000882649               0.000000000               0.000000000               0.000000000               0.000000000               0.000544475               0.001319152              -0.000949377               0.000039283               0.000426618               0.000465901               0.000000000               0.000000000               0.000000000               0.000000000               0.000503878               0.002034542              -0.001176314              -0.000065365               0.000699962               0.000634597               0.000000000               0.000000000               0.000000000               0.000000000               0.000320801               0.002903419              -0.001287792              -0.000242628               0.001048672               0.000806044               0.000000000               0.000000000               0.000000000               0.000000000               0.000257530               0.003385753              -0.001175330              -0.000326646               0.001237455               0.000910809               0.000000000               0.000000000               0.000000000               0.000000000               0.000234259               0.003665380              -0.001019482              -0.000370325               0.001345223               0.000974898               0.000000000               0.000000000               0.000000000               0.000000000               0.000226197               0.003830459              -0.000869617              -0.000393983               0.001408134               0.001014151               0.000000000               0.000000000               0.000000000               0.000000000               0.000226866               0.003926285              -0.000744924              -0.000405710               0.001443985               0.001038275               0.000000000               0.000000000               0.000000000               0.000000000               0.000230742               0.003979588              -0.000643278              -0.000410920               0.001463489               0.001052570               0.000000000               0.000000000               0.000000000               0.000000000               0.000223451               0.004000688              -0.000556123              -0.000416291               0.001472313               0.001056022               0.000000000               0.000000000               0.000000000               0.000000000               0.000202416               0.004002295              -0.000479514              -0.000424380               0.001475545               0.001051165               0.000000000               0.000000000               0.000000000               0.000000000               0.000168030               0.003990980              -0.000407948              -0.000435860               0.001475600               0.001039740               0.000000000               0.000000000               0.000000000               0.000000000               0.000124192               0.003975322              -0.000341952              -0.000450342               0.001475208               0.001024866               0.000000000               0.000000000               0.000000000               0.000000000               0.000069578               0.003952298              -0.000280499              -0.000467944               0.001473401               0.001005456               0.000000000               0.000000000               0.000000000               0.000000000               0.000006689               0.003916400              -0.000219338              -0.000487040               0.001467800               0.000980760               0.000000000               0.000000000               0.000000000               0.000000000              -0.000065146               0.003864223              -0.000152724              -0.000507457               0.001457214               0.000949757               0.000000000               0.000000000               0.000000000               0.000000000              -0.000147490               0.003803394              -0.000077736              -0.000530732               0.001444696               0.000913964               0.000000000               0.000000000               0.000000000               0.000000000              -0.000209974               0.003760119              -0.000031225              -0.000548754               0.001436278               0.000887525               0.000000000               0.000000000               0.000000000               0.000000000               0.000142762               0.000794775              -0.000641547              -0.000045812               0.000280193               0.000234381               0.000000000               0.000000000               0.000000000               0.000000000               0.000379386               0.001467099              -0.000968185              -0.000041119               0.000502734               0.000461615               0.000000000               0.000000000               0.000000000               0.000000000               0.000409641               0.002282832              -0.001197151              -0.000131740               0.000804849               0.000673110               0.000000000               0.000000000               0.000000000               0.000000000               0.000400023               0.002818578              -0.001154815              -0.000202314               0.001006954               0.000804640               0.000000000               0.000000000               0.000000000               0.000000000               0.000377524               0.003174676              -0.001035794              -0.000255263               0.001143302               0.000888039               0.000000000               0.000000000               0.000000000               0.000000000               0.000358537               0.003411655              -0.000907069              -0.000292005               0.001234542               0.000942536               0.000000000               0.000000000               0.000000000               0.000000000               0.000344706               0.003575070              -0.000793763              -0.000317619               0.001297551               0.000979932               0.000000000               0.000000000               0.000000000               0.000000000               0.000336171               0.003689334              -0.000693958              -0.000335102               0.001341466               0.001006364               0.000000000               0.000000000               0.000000000               0.000000000               0.000322319               0.003764044              -0.000603957              -0.000349635               0.001371214               0.001021578               0.000000000               0.000000000               0.000000000               0.000000000               0.000299425               0.003809931              -0.000524225              -0.000363956               0.001391283               0.001027327               0.000000000               0.000000000               0.000000000               0.000000000               0.000267315               0.003835077              -0.000451940              -0.000379141               0.001404726               0.001025586               0.000000000               0.000000000               0.000000000               0.000000000               0.000229860               0.003849840              -0.000386407              -0.000395032               0.001414945               0.001019913               0.000000000               0.000000000               0.000000000               0.000000000               0.000183826               0.003850148              -0.000326184              -0.000412333               0.001420814               0.001008481               0.000000000               0.000000000               0.000000000               0.000000000               0.000128153               0.003834640              -0.000263904              -0.000431272               0.001421958               0.000990686               0.000000000               0.000000000               0.000000000               0.000000000               0.000062418               0.003812812              -0.000190210              -0.000453194               0.001421989               0.000968795               0.000000000               0.000000000               0.000000000               0.000000000              -0.000017269               0.003782250              -0.000101064              -0.000479256               0.001420489               0.000941233               0.000000000               0.000000000               0.000000000               0.000000000              -0.000079819               0.003751688              -0.000046719              -0.000498892               0.001416847               0.000917956               0.000000000               0.000000000               0.000000000               0.000000000              -0.000259825               0.000424502              -0.000383222              -0.000150497               0.000191665               0.000041168               0.000000000               0.000000000               0.000000000               0.000000000               0.000231071               0.001000690              -0.000730690              -0.000038435               0.000346371               0.000307936               0.000000000               0.000000000               0.000000000               0.000000000               0.000481479               0.001714073              -0.001004357              -0.000033706               0.000582587               0.000548881               0.000000000               0.000000000               0.000000000               0.000000000               0.000548374               0.002264843              -0.001012446              -0.000077466               0.000780762               0.000703296               0.000000000               0.000000000               0.000000000               0.000000000               0.000544031               0.002669819              -0.000935726              -0.000129716               0.000933169               0.000803453               0.000000000               0.000000000               0.000000000               0.000000000               0.000519979               0.002966046              -0.000839832              -0.000175764               0.001047260               0.000871496               0.000000000               0.000000000               0.000000000               0.000000000               0.000493951               0.003192661              -0.000749884              -0.000213851               0.001135493               0.000921642               0.000000000               0.000000000               0.000000000               0.000000000               0.000470456               0.003368097              -0.000664707              -0.000244591               0.001204218               0.000959627               0.000000000               0.000000000               0.000000000               0.000000000               0.000446705               0.003498439              -0.000583340              -0.000269790               0.001256065               0.000986274               0.000000000               0.000000000               0.000000000               0.000000000               0.000418535               0.003589522              -0.000508962              -0.000291739               0.001293742               0.001002003               0.000000000               0.000000000               0.000000000               0.000000000               0.000387913               0.003655134              -0.000442866              -0.000311424               0.001322174               0.001010750               0.000000000               0.000000000               0.000000000               0.000000000               0.000357415               0.003703458              -0.000384211              -0.000328901               0.001344107               0.001015206               0.000000000               0.000000000               0.000000000               0.000000000               0.000322857               0.003731783              -0.000330420              -0.000345401               0.001359049               0.001013648               0.000000000               0.000000000               0.000000000               0.000000000               0.000282698               0.003745407              -0.000273512              -0.000362163               0.001369178               0.001007014               0.000000000               0.000000000               0.000000000               0.000000000               0.000238601               0.003752991              -0.000201955              -0.000379648               0.001377534               0.000997886               0.000000000               0.000000000               0.000000000               0.000000000               0.000185995               0.003751201              -0.000109664              -0.000399151               0.001383438               0.000984287               0.000000000               0.000000000               0.000000000               0.000000000               0.000143722               0.003739512              -0.000054421              -0.000413542               0.001384339               0.000970797               0.000000000               0.000000000               0.000000000               0.000000000              -0.000604225               0.000191589              -0.000195601              -0.000250533               0.000147373              -0.000103160               0.000000000               0.000000000               0.000000000               0.000000000               0.000091459               0.000658115              -0.000481488              -0.000047968               0.000235359               0.000187391               0.000000000               0.000000000               0.000000000               0.000000000               0.000528994               0.001257126              -0.000721049               0.000041231               0.000405294               0.000446525               0.000000000               0.000000000               0.000000000               0.000000000               0.000676547               0.001796297              -0.000753260               0.000029167               0.000589037               0.000618204               0.000000000               0.000000000               0.000000000               0.000000000               0.000702564               0.002227041              -0.000712947              -0.000014920               0.000747313               0.000732393               0.000000000               0.000000000               0.000000000               0.000000000               0.000679318               0.002565150              -0.000652914              -0.000065900               0.000877008               0.000811108               0.000000000               0.000000000               0.000000000               0.000000000               0.000642795               0.002840308              -0.000592914              -0.000113991               0.000984757               0.000870766               0.000000000               0.000000000               0.000000000               0.000000000               0.000604512               0.003064910              -0.000531991              -0.000156422               0.001073767               0.000917345               0.000000000               0.000000000               0.000000000               0.000000000               0.000567714               0.003241199              -0.000470649              -0.000192257               0.001144474               0.000952218               0.000000000               0.000000000               0.000000000               0.000000000               0.000532458               0.003375836              -0.000414037              -0.000222308               0.001199370               0.000977063               0.000000000               0.000000000               0.000000000               0.000000000               0.000501980               0.003479892              -0.000364364              -0.000246744               0.001242200               0.000995457               0.000000000               0.000000000               0.000000000               0.000000000               0.000475895               0.003561782              -0.000320299              -0.000266761               0.001276169               0.001009408               0.000000000               0.000000000               0.000000000               0.000000000               0.000453656               0.003623848              -0.000278908              -0.000282859               0.001302224               0.001019364               0.000000000               0.000000000               0.000000000               0.000000000               0.000434698               0.003670051              -0.000234784              -0.000295744               0.001321920               0.001026176               0.000000000               0.000000000               0.000000000               0.000000000               0.000423138               0.003705343              -0.000177704              -0.000304490               0.001336599               0.001032108               0.000000000               0.000000000               0.000000000               0.000000000               0.000419543               0.003726537              -0.000099041              -0.000308488               0.001344996               0.001036508               0.000000000               0.000000000               0.000000000               0.000000000               0.000419514               0.003731842              -0.000052443              -0.000309162               0.001346989               0.001037827               0.000000000               0.000000000               0.000000000               0.000000000              -0.000837231               0.000068232              -0.000078191              -0.000322490               0.000130240              -0.000192250               0.000000000               0.000000000               0.000000000               0.000000000              -0.000009783               0.000452027              -0.000238222              -0.000060172               0.000170731               0.000110559               0.000000000               0.000000000               0.000000000               0.000000000               0.000553793               0.000964270              -0.000376354               0.000087137               0.000292374               0.000379512               0.000000000               0.000000000               0.000000000               0.000000000               0.000760276               0.001482737              -0.000402350               0.000099760               0.000460987               0.000560748               0.000000000               0.000000000               0.000000000               0.000000000               0.000813886               0.001921387              -0.000386726               0.000065033               0.000618778               0.000683811               0.000000000               0.000000000               0.000000000               0.000000000               0.000798796               0.002282647              -0.000358567               0.000014217               0.000756136               0.000770353               0.000000000               0.000000000               0.000000000               0.000000000               0.000753556               0.002586216              -0.000329610              -0.000040693               0.000875628               0.000834934               0.000000000               0.000000000               0.000000000               0.000000000               0.000698938               0.002845283              -0.000298680              -0.000093558               0.000979604               0.000886046               0.000000000               0.000000000               0.000000000               0.000000000               0.000648690               0.003058491              -0.000265794              -0.000139052               0.001065838               0.000926785               0.000000000               0.000000000               0.000000000               0.000000000               0.000605713               0.003222318              -0.000235933              -0.000175647               0.001132644               0.000956997               0.000000000               0.000000000               0.000000000               0.000000000               0.000573072               0.003349286              -0.000209589              -0.000203758               0.001184337               0.000980579               0.000000000               0.000000000               0.000000000               0.000000000               0.000552368               0.003455538              -0.000185903              -0.000224804               0.001226769               0.001001965               0.000000000               0.000000000               0.000000000               0.000000000               0.000542983               0.003542452              -0.000163693              -0.000239187               0.001260534               0.001021347               0.000000000               0.000000000               0.000000000               0.000000000               0.000545156               0.003609453              -0.000139377              -0.000246747               0.001285388               0.001038641               0.000000000               0.000000000               0.000000000               0.000000000               0.000565063               0.003664520              -0.000107568              -0.000246166               0.001303550               0.001057384               0.000000000               0.000000000               0.000000000               0.000000000               0.000610509               0.003706696              -0.000061384              -0.000234396               0.001313685               0.001079289               0.000000000               0.000000000               0.000000000               0.000000000               0.000656579               0.003728590              -0.000034231              -0.000219856               0.001316136               0.001096280               0.000000000               0.000000000               0.000000000               0.000000000              -0.000919814               0.000031859               0.000000000              -0.000348912               0.000126923              -0.000221989               0.000000000               0.000000000               0.000000000               0.000000000              -0.000047424               0.000383658              -0.000000000              -0.000065741               0.000149799               0.000084057               0.000000000               0.000000000               0.000000000               0.000000000               0.000560881               0.000862538              -0.000000000               0.000102512               0.000253339               0.000355851               0.000000000               0.000000000               0.000000000               0.000000000               0.000788251               0.001373330              -0.000000000               0.000123927               0.000416463               0.000540390               0.000000000               0.000000000               0.000000000               0.000000000               0.000852869               0.001812096               0.000000000               0.000093313               0.000572922               0.000666235               0.000000000               0.000000000               0.000000000               0.000000000               0.000843042               0.002178547               0.000000000               0.000043822               0.000711568               0.000755390               0.000000000               0.000000000               0.000000000               0.000000000               0.000795501               0.002494657              -0.000000000              -0.000013519               0.000836051               0.000822531               0.000000000               0.000000000               0.000000000               0.000000000               0.000732228               0.002765867               0.000000000              -0.000071148               0.000945663               0.000874515               0.000000000               0.000000000               0.000000000               0.000000000               0.000673240               0.002989902               0.000000000              -0.000121272               0.001037048               0.000915776               0.000000000               0.000000000               0.000000000               0.000000000               0.000627131               0.003165564              -0.000000000              -0.000160521               0.001108685               0.000948163               0.000000000               0.000000000               0.000000000               0.000000000               0.000594108               0.003301713               0.000000000              -0.000189923               0.001163868               0.000973944               0.000000000               0.000000000               0.000000000               0.000000000               0.000577555               0.003414363               0.000000000              -0.000210212               0.001208180               0.000997968               0.000000000               0.000000000               0.000000000               0.000000000               0.000574800               0.003507522               0.000000000              -0.000222890               0.001243459               0.001020569               0.000000000               0.000000000               0.000000000               0.000000000               0.000586334               0.003581553               0.000000000              -0.000227818               0.001269778               0.001041960               0.000000000               0.000000000               0.000000000               0.000000000               0.000619544               0.003644578              -0.000000000              -0.000223243               0.001289261               0.001066019               0.000000000               0.000000000               0.000000000               0.000000000               0.000685107               0.003697225              -0.000000000              -0.000205238               0.001300809               0.001095571               0.000000000               0.000000000               0.000000000               0.000000000               0.000750956               0.003727640               0.000000000              -0.000184346               0.001303983               0.001119637               0.000000000               0.000000000               0.000000000               0.000000000               0.000000000               0.000000000               0.000000000               0.000000000               0.000000000               0.000000000               0.000000000               0.000000000               0.000000000               0.000000000               0.000000000               0.000000000               0.000000000               0.000000000               0.000000000               0.000000000               0.000000000               0.000000000               0.000000000               0.000000000               0.000000000               0.000000000               0.000000000               0.000000000               0.000000000               0.000000000               0.000000000               0.000000000               0.000000000               0.000000000               0.000000000               0.000000000               0.000000000               0.000000000               0.000000000               0.000000000               0.000000000               0.000000000               0.000000000               0.000000000               0.000000000               0.000000000               0.000000000               0.000000000               0.000000000               0.000000000               0.000000000               0.000000000               0.000000000               0.000000000               0.000000000               0.000000000               0.000000000               0.000000000               0.000000000               0.000000000               0.000000000               0.000000000               0.000000000               0.000000000               0.000000000               0.000000000               0.000000000               0.000000000               0.000000000               0.000000000               0.000000000               0.000000000               0.000000000               0.000000000               0.000000000               0.000000000               0.000000000               0.000000000               0.000000000               0.000000000               0.000000000               0.000000000               0.000000000               0.000000000               0.000000000               0.000000000               0.000000000               0.000000000               0.000000000               0.000000000               0.000000000               0.000000000               0.000000000               0.000000000               0.000000000               0.000000000               0.000000000               0.000000000               0.000000000               0.000000000               0.000000000               0.000000000               0.000000000               0.000000000               0.000000000               0.000000000               0.000000000               0.000000000               0.000000000               0.000000000               0.000000000               0.000000000               0.000000000               0.000000000               0.000000000               0.000000000               0.000000000               0.000000000               0.000000000               0.000000000               0.000000000               0.000000000               0.000000000               0.000000000               0.000000000               0.000000000               0.000000000               0.000000000               0.000000000               0.000000000               0.000000000               0.000000000               0.000000000               0.000000000               0.000000000               0.000000000               0.000000000               0.000000000               0.000000000               0.000000000               0.000000000               0.000000000               0.000000000               0.000000000               0.000000000               0.000000000               0.000000000               0.000000000               0.000000000               0.000000000               0.000000000               0.000000000               0.000000000               0.000000000               0.000000000               0.000000000               0.000000000               0.000000000               0.000000000               0.000000000               0.000000000               0.000000000               0.000000000               0.000000000               0.000000000               0.000000000               0.000000000               0.000000000               0.000000000               0.000000000               0.000000000               0.000000000               0.000000000               0.000000000               0.000939700               0.009866448               0.000735565              -0.000880917               0.003582422               0.002701505               0.000000000               0.000000000               0.000000000               0.000000000               0.000976667               0.008087119               0.000445690              -0.000644638               0.002910559               0.002265921               0.000000000               0.000000000               0.000000000               0.000000000               0.001306916               0.006675508               0.000149287              -0.000344344               0.002339928               0.001995584               0.000000000               0.000000000               0.000000000               0.000000000               0.001331603               0.005898787               0.000015218              -0.000237997               0.002045575               0.001807578               0.000000000               0.000000000               0.000000000               0.000000000               0.001250423               0.005440286              -0.000046526              -0.000211127               0.001883786               0.001672659               0.000000000               0.000000000               0.000000000               0.000000000               0.001132272               0.005154299              -0.000074040              -0.000219685               0.001791311               0.001571626               0.000000000               0.000000000               0.000000000               0.000000000               0.001002558               0.004967542              -0.000085391              -0.000244983               0.001737492               0.001492509               0.000000000               0.000000000               0.000000000               0.000000000               0.000874212               0.004841122              -0.000089373              -0.000277310               0.001706128               0.001428818               0.000000000               0.000000000               0.000000000               0.000000000               0.000752275               0.004752972              -0.000089526              -0.000312018               0.001688314               0.001376296               0.000000000               0.000000000               0.000000000               0.000000000               0.000635393               0.004688385              -0.000087562              -0.000347775               0.001678704               0.001330930               0.000000000               0.000000000               0.000000000               0.000000000               0.000527501               0.004639889              -0.000085230              -0.000382172               0.001674005               0.001291833               0.000000000               0.000000000               0.000000000               0.000000000               0.000429768               0.004603408              -0.000082711              -0.000414262               0.001672541               0.001258279               0.000000000               0.000000000               0.000000000               0.000000000               0.000335626               0.004571457              -0.000076744              -0.000445571               0.001672328               0.001226756               0.000000000               0.000000000               0.000000000               0.000000000               0.000244043               0.004538387              -0.000066875              -0.000475781               0.001671374               0.001195593               0.000000000               0.000000000               0.000000000               0.000000000               0.000157449               0.004501540              -0.000052315              -0.000503648               0.001668381               0.001164733               0.000000000               0.000000000               0.000000000               0.000000000               0.000076662               0.004456508              -0.000030685              -0.000528314               0.001661592               0.001133278               0.000000000               0.000000000               0.000000000               0.000000000               0.000036370               0.004424664              -0.000017469              -0.000539443               0.001654687               0.001115244               0.000000000               0.000000000               0.000000000               0.000000000               0.001072778               0.009355299               0.001390654              -0.000767120               0.003374108               0.002606989               0.000000000               0.000000000               0.000000000               0.000000000               0.000994442               0.007738331               0.000843670              -0.000594374               0.002777543               0.002183168               0.000000000               0.000000000               0.000000000               0.000000000               0.001201070               0.006504953               0.000288561              -0.000362717               0.002289202               0.001926485               0.000000000               0.000000000               0.000000000               0.000000000               0.001175916               0.005823025               0.000041726              -0.000286909               0.002036625               0.001749716               0.000000000               0.000000000               0.000000000               0.000000000               0.001080602               0.005418902              -0.000072238              -0.000272136               0.001896995               0.001624859               0.000000000               0.000000000               0.000000000               0.000000000               0.000967532               0.005165480              -0.000122772              -0.000282860               0.001816096               0.001533236               0.000000000               0.000000000               0.000000000               0.000000000               0.000854080               0.005000128              -0.000141876              -0.000304735               0.001768271               0.001463536               0.000000000               0.000000000               0.000000000               0.000000000               0.000744713               0.004884746              -0.000146724              -0.000331325               0.001738674               0.001407349               0.000000000               0.000000000               0.000000000               0.000000000               0.000643133               0.004801941              -0.000145408              -0.000359067               0.001720320               0.001361253               0.000000000               0.000000000               0.000000000               0.000000000               0.000546158               0.004738989              -0.000141179              -0.000387563               0.001708835               0.001321272               0.000000000               0.000000000               0.000000000               0.000000000               0.000457854               0.004693332              -0.000136542              -0.000414970               0.001702752               0.001287782               0.000000000               0.000000000               0.000000000               0.000000000               0.000377406               0.004660463              -0.000130911              -0.000441030               0.001700482               0.001259453               0.000000000               0.000000000               0.000000000               0.000000000               0.000297841               0.004635695              -0.000119912              -0.000467771               0.001701140               0.001233369               0.000000000               0.000000000               0.000000000               0.000000000               0.000219123               0.004616502              -0.000103401              -0.000494891               0.001703782               0.001208892               0.000000000               0.000000000               0.000000000               0.000000000               0.000141617               0.004602053              -0.000079787              -0.000522149               0.001708052               0.001185903               0.000000000               0.000000000               0.000000000               0.000000000               0.000067752               0.004592014              -0.000045795              -0.000548594               0.001713521               0.001164927               0.000000000               0.000000000               0.000000000               0.000000000               0.000035390               0.004592013              -0.000024707              -0.000560729               0.001717565               0.001156836               0.000000000               0.000000000               0.000000000               0.000000000               0.001249895               0.008573186               0.001896460              -0.000602937               0.003058679               0.002455742               0.000000000               0.000000000               0.000000000               0.000000000               0.001010198               0.007214884               0.001157789              -0.000523036               0.002579282               0.002056247               0.000000000               0.000000000               0.000000000               0.000000000               0.001044582               0.006254279               0.000416506              -0.000390066               0.002214761               0.001824695               0.000000000               0.000000000               0.000000000               0.000000000               0.000959743               0.005716222               0.000098874              -0.000354623               0.002023596               0.001668973               0.000000000               0.000000000               0.000000000               0.000000000               0.000853225               0.005385652              -0.000044886              -0.000353246               0.001912948               0.001559702               0.000000000               0.000000000               0.000000000               0.000000000               0.000750575               0.005171471              -0.000107832              -0.000364967               0.001845462               0.001480495               0.000000000               0.000000000               0.000000000               0.000000000               0.000657400               0.005023225              -0.000131563              -0.000381377               0.001801517               0.001420140               0.000000000               0.000000000               0.000000000               0.000000000               0.000573635               0.004914988              -0.000138036              -0.000399259               0.001771400               0.001372140               0.000000000               0.000000000               0.000000000               0.000000000               0.000499055               0.004834699              -0.000136361              -0.000417191               0.001750614               0.001333423               0.000000000               0.000000000               0.000000000               0.000000000               0.000427780               0.004771756              -0.000131194              -0.000436051               0.001735920               0.001299869               0.000000000               0.000000000               0.000000000               0.000000000               0.000359907               0.004723561              -0.000125910              -0.000455479               0.001726331               0.001270852               0.000000000               0.000000000               0.000000000               0.000000000               0.000297325               0.004688882              -0.000118788              -0.000474612               0.001721149               0.001246537               0.000000000               0.000000000               0.000000000               0.000000000               0.000236166               0.004665439              -0.000106969              -0.000494616               0.001720003               0.001225387               0.000000000               0.000000000               0.000000000               0.000000000               0.000174424               0.004653204              -0.000089669              -0.000516240               0.001723133               0.001206892               0.000000000               0.000000000               0.000000000               0.000000000               0.000112144               0.004650634              -0.000066975              -0.000539274               0.001729954               0.001190680               0.000000000               0.000000000               0.000000000               0.000000000               0.000052946               0.004658963              -0.000036600              -0.000562514               0.001740477               0.001177963               0.000000000               0.000000000               0.000000000               0.000000000               0.000029055               0.004673649              -0.000017430              -0.000573309               0.001748970               0.001175661               0.000000000               0.000000000               0.000000000               0.000000000               0.001415063               0.007606456               0.002214441              -0.000420159               0.002675513               0.002255353               0.000000000               0.000000000               0.000000000               0.000000000               0.001000605               0.006581422               0.001373569              -0.000447451               0.002342935               0.001895485               0.000000000               0.000000000               0.000000000               0.000000000               0.000851871               0.005950470               0.000536552              -0.000424356               0.002124922               0.001700566               0.000000000               0.000000000               0.000000000               0.000000000               0.000717557               0.005570858               0.000192820              -0.000427272               0.001999358               0.001572086               0.000000000               0.000000000               0.000000000               0.000000000               0.000610017               0.005320002               0.000042287              -0.000436243               0.001918730               0.001482488               0.000000000               0.000000000               0.000000000               0.000000000               0.000529607               0.005141526              -0.000025145              -0.000444087               0.001861854               0.001417767               0.000000000               0.000000000               0.000000000               0.000000000               0.000466345               0.005005370              -0.000054660              -0.000450791               0.001818704               0.001367913               0.000000000               0.000000000               0.000000000               0.000000000               0.000409117               0.004899625              -0.000067860              -0.000459033               0.001786203               0.001327170               0.000000000               0.000000000               0.000000000               0.000000000               0.000356429               0.004817198              -0.000071501              -0.000468488               0.001761879               0.001293391               0.000000000               0.000000000               0.000000000               0.000000000               0.000306628               0.004751977              -0.000069051              -0.000479011               0.001743647               0.001264636               0.000000000               0.000000000               0.000000000               0.000000000               0.000256059               0.004698215              -0.000067579              -0.000491253               0.001729807               0.001238554               0.000000000               0.000000000               0.000000000               0.000000000               0.000207005               0.004658327              -0.000066010              -0.000504663               0.001720981               0.001216318               0.000000000               0.000000000               0.000000000               0.000000000               0.000160454               0.004631036              -0.000061821              -0.000518708               0.001716566               0.001197858               0.000000000               0.000000000               0.000000000               0.000000000               0.000113583               0.004616087              -0.000053729              -0.000534416               0.001716819               0.001182403               0.000000000               0.000000000               0.000000000               0.000000000               0.000069848               0.004611425              -0.000040609              -0.000550234               0.001720537               0.001170304               0.000000000               0.000000000               0.000000000               0.000000000               0.000032992               0.004613206              -0.000021567              -0.000564277               0.001725812               0.001161535               0.000000000               0.000000000               0.000000000               0.000000000               0.000018129               0.004619339              -0.000009386              -0.000570618               0.001729970               0.001159353               0.000000000               0.000000000               0.000000000               0.000000000               0.001518302               0.006550619               0.002342467              -0.000249466               0.002266672               0.002017206               0.000000000               0.000000000               0.000000000               0.000000000               0.000954075               0.005901438               0.001496166              -0.000379902               0.002093760               0.001713858               0.000000000               0.000000000               0.000000000               0.000000000               0.000639983               0.005619292               0.000654126              -0.000462417               0.002027217               0.001564801               0.000000000               0.000000000               0.000000000               0.000000000               0.000479915               0.005389087               0.000316894              -0.000493667               0.001960900               0.001467233               0.000000000               0.000000000               0.000000000               0.000000000               0.000388282               0.005208887               0.000169430              -0.000505504               0.001904780               0.001399276               0.000000000               0.000000000               0.000000000               0.000000000               0.000337422               0.005057693               0.000097273              -0.000505677               0.001854440               0.001348763               0.000000000               0.000000000               0.000000000               0.000000000               0.000306883               0.004931508               0.000057606              -0.000501356               0.001810938               0.001309582               0.000000000               0.000000000               0.000000000               0.000000000               0.000274984               0.004827186               0.000032661              -0.000500278               0.001775805               0.001275527               0.000000000               0.000000000               0.000000000               0.000000000               0.000238537               0.004741856               0.000017130              -0.000503279               0.001748363               0.001245083               0.000000000               0.000000000               0.000000000               0.000000000               0.000201152               0.004673214               0.000009959              -0.000508718               0.001727295               0.001218577               0.000000000               0.000000000               0.000000000               0.000000000               0.000165162               0.004618038               0.000002137              -0.000515318               0.001711103               0.001195786               0.000000000               0.000000000               0.000000000               0.000000000               0.000128704               0.004575088              -0.000007888              -0.000523621               0.001699554               0.001175933               0.000000000               0.000000000               0.000000000               0.000000000               0.000092578               0.004543348              -0.000015956              -0.000533200               0.001692168               0.001158967               0.000000000               0.000000000               0.000000000               0.000000000               0.000060472               0.004520506              -0.000021256              -0.000542385               0.001687615               0.001145230               0.000000000               0.000000000               0.000000000               0.000000000               0.000033831               0.004501104              -0.000019399              -0.000549950               0.001683670               0.001133720               0.000000000               0.000000000               0.000000000               0.000000000               0.000014880               0.004482384              -0.000010684              -0.000554717               0.001679018               0.001124302               0.000000000               0.000000000               0.000000000               0.000000000               0.000006242               0.004470268              -0.000006303              -0.000556441               0.001675555               0.001119114               0.000000000               0.000000000               0.000000000               0.000000000               0.001528162               0.005486442               0.002305023              -0.000112747               0.001866377               0.001753630               0.000000000               0.000000000               0.000000000               0.000000000               0.000874899               0.005224226               0.001542579              -0.000324942               0.001849705               0.001524763               0.000000000               0.000000000               0.000000000               0.000000000               0.000440924               0.005272315               0.000773528              -0.000493692               0.001921985               0.001428293               0.000000000               0.000000000               0.000000000               0.000000000               0.000281577               0.005171547               0.000460276              -0.000540851               0.001904115               0.001363265               0.000000000               0.000000000               0.000000000               0.000000000               0.000220082               0.005047253               0.000312921              -0.000548374               0.001865192               0.001316818               0.000000000               0.000000000               0.000000000               0.000000000               0.000200346               0.004921524               0.000231410              -0.000540059               0.001820511               0.001280452               0.000000000               0.000000000               0.000000000               0.000000000               0.000193164               0.004808307               0.000176426              -0.000528601               0.001778953               0.001250352               0.000000000               0.000000000               0.000000000               0.000000000               0.000178801               0.004710728               0.000135473              -0.000521789               0.001744157               0.001222367               0.000000000               0.000000000               0.000000000               0.000000000               0.000155850               0.004628619               0.000104932              -0.000520132               0.001716235               0.001196103               0.000000000               0.000000000               0.000000000               0.000000000               0.000127172               0.004560388               0.000083917              -0.000522358               0.001694233               0.001171876               0.000000000               0.000000000               0.000000000               0.000000000               0.000097430               0.004504599               0.000064026              -0.000526537               0.001677030               0.001150493               0.000000000               0.000000000               0.000000000               0.000000000               0.000069678               0.004459712               0.000043004              -0.000531334               0.001663667               0.001132333               0.000000000               0.000000000               0.000000000               0.000000000               0.000044116               0.004419107               0.000023569              -0.000535844               0.001651635               0.001115792               0.000000000               0.000000000               0.000000000               0.000000000               0.000022604               0.004376566               0.000008160              -0.000538593               0.001638372               0.001099779               0.000000000               0.000000000               0.000000000               0.000000000               0.000008523               0.004330950               0.000000482              -0.000538171               0.001623026               0.001084855               0.000000000               0.000000000               0.000000000               0.000000000               0.000003214               0.004284074              -0.000000678              -0.000534303               0.001606111               0.001071809               0.000000000               0.000000000               0.000000000               0.000000000              -0.000002828               0.004250803              -0.000003239              -0.000532409               0.001594390               0.001061981               0.000000000               0.000000000               0.000000000               0.000000000               0.001452390               0.004472505               0.002135362              -0.000014420               0.001495626               0.001481206               0.000000000               0.000000000               0.000000000               0.000000000               0.000773589               0.004583476               0.001532799              -0.000282840               0.001622090               0.001339250               0.000000000               0.000000000               0.000000000               0.000000000               0.000284551               0.004917210               0.000895848              -0.000507944               0.001808368               0.001300424               0.000000000               0.000000000               0.000000000               0.000000000               0.000148389               0.004925791               0.000606197              -0.000560077               0.001828606               0.001268529               0.000000000               0.000000000               0.000000000               0.000000000               0.000118745               0.004853327               0.000450013              -0.000562135               0.001805138               0.001243003               0.000000000               0.000000000               0.000000000               0.000000000               0.000125028               0.004759381               0.000353637              -0.000548036               0.001769123               0.001221087               0.000000000               0.000000000               0.000000000               0.000000000               0.000134642               0.004665995               0.000282437              -0.000532758               0.001732902               0.001200145               0.000000000               0.000000000               0.000000000               0.000000000               0.000128386               0.004580436               0.000226424              -0.000524408               0.001701599               0.001177191               0.000000000               0.000000000               0.000000000               0.000000000               0.000109948               0.004503963               0.000180259              -0.000521764               0.001675227               0.001153463               0.000000000               0.000000000               0.000000000               0.000000000               0.000085515               0.004437683               0.000144709              -0.000522641               0.001653427               0.001130786               0.000000000               0.000000000               0.000000000               0.000000000               0.000054183               0.004378745               0.000112821              -0.000527023               0.001635242               0.001108218               0.000000000               0.000000000               0.000000000               0.000000000               0.000024927               0.004322979               0.000081305              -0.000531023               0.001617986               0.001086963               0.000000000               0.000000000               0.000000000               0.000000000               0.000003705               0.004263452               0.000054720              -0.000531541               0.001598317               0.001066776               0.000000000               0.000000000               0.000000000               0.000000000              -0.000011259               0.004194344               0.000031405              -0.000528514               0.001574272               0.001045758               0.000000000               0.000000000               0.000000000               0.000000000              -0.000016642               0.004121294               0.000013540              -0.000521401               0.001547551               0.001026150               0.000000000               0.000000000               0.000000000               0.000000000              -0.000011479               0.004051315               0.000003404              -0.000510718               0.001520664               0.001009946               0.000000000               0.000000000               0.000000000               0.000000000              -0.000012691               0.004005746              -0.000004028              -0.000505476               0.001503727               0.000998251               0.000000000               0.000000000               0.000000000               0.000000000               0.001334332               0.003587059               0.001881940               0.000051989               0.001178344               0.001230333               0.000000000               0.000000000               0.000000000               0.000000000               0.000690200               0.004002349               0.001494151              -0.000241470               0.001414592               0.001173123               0.000000000               0.000000000               0.000000000               0.000000000               0.000195095               0.004580600               0.001029742              -0.000499414               0.001693322               0.001193909               0.000000000               0.000000000               0.000000000               0.000000000               0.000084600               0.004700827               0.000755391              -0.000555877               0.001752219               0.001196342               0.000000000               0.000000000               0.000000000               0.000000000               0.000075791               0.004684667               0.000583006              -0.000557161               0.001747260               0.001190100               0.000000000               0.000000000               0.000000000               0.000000000               0.000096639               0.004622677               0.000468620              -0.000541594               0.001721408               0.001179814               0.000000000               0.000000000               0.000000000               0.000000000               0.000114493               0.004553148               0.000384608              -0.000526208               0.001693103               0.001166896               0.000000000               0.000000000               0.000000000               0.000000000               0.000116891               0.004486196               0.000316357              -0.000516939               0.001667697               0.001150758               0.000000000               0.000000000               0.000000000               0.000000000               0.000102532               0.004420193               0.000257043              -0.000514073               0.001644741               0.001130667               0.000000000               0.000000000               0.000000000               0.000000000               0.000075643               0.004354091               0.000208124              -0.000515894               0.001623314               0.001107420               0.000000000               0.000000000               0.000000000               0.000000000               0.000041339               0.004289401               0.000166369              -0.000520672               0.001603343               0.001082672               0.000000000               0.000000000               0.000000000               0.000000000               0.000006856               0.004222584               0.000126433              -0.000525251               0.001582598               0.001057347               0.000000000               0.000000000               0.000000000               0.000000000              -0.000020400               0.004145690               0.000091412              -0.000525860               0.001557170               0.001031310               0.000000000               0.000000000               0.000000000               0.000000000              -0.000039247               0.004059558               0.000059591              -0.000522161               0.001527226               0.001005065               0.000000000               0.000000000               0.000000000               0.000000000              -0.000053207               0.003970301               0.000030713              -0.000516239               0.001495500               0.000979261               0.000000000               0.000000000               0.000000000               0.000000000              -0.000064027               0.003884781               0.000009956              -0.000509606               0.001464783               0.000955177               0.000000000               0.000000000               0.000000000               0.000000000              -0.000069300               0.003836360              -0.000000079              -0.000505531               0.001447284               0.000941753               0.000000000               0.000000000               0.000000000               0.000000000               0.001163820               0.002745400               0.001593478               0.000093255               0.000884038               0.000977293               0.000000000               0.000000000               0.000000000               0.000000000               0.000646366               0.003331124               0.001438595              -0.000174005               0.001168364               0.000994360               0.000000000               0.000000000               0.000000000               0.000000000               0.000190660               0.004084079               0.001174498              -0.000439012               0.001507683               0.001068671               0.000000000               0.000000000               0.000000000               0.000000000               0.000085691               0.004345993               0.000927652              -0.000511114               0.001619021               0.001107907               0.000000000               0.000000000               0.000000000               0.000000000               0.000078409               0.004418794               0.000743233              -0.000522945               0.001647232               0.001124287               0.000000000               0.000000000               0.000000000               0.000000000               0.000100887               0.004416575               0.000607404              -0.000514238               0.001643590               0.001129352               0.000000000               0.000000000               0.000000000               0.000000000               0.000122030               0.004390551               0.000505425              -0.000503056               0.001631188               0.001128131               0.000000000               0.000000000               0.000000000               0.000000000               0.000127854               0.004353532               0.000423137              -0.000496245               0.001616578               0.001120333               0.000000000               0.000000000               0.000000000               0.000000000               0.000118780               0.004308081               0.000353071              -0.000493967               0.001600668               0.001106702               0.000000000               0.000000000               0.000000000               0.000000000               0.000094285               0.004251944               0.000292431              -0.000496135               0.001582679               0.001086544               0.000000000               0.000000000               0.000000000               0.000000000               0.000058449               0.004193561               0.000238287              -0.000502275               0.001565265               0.001062989               0.000000000               0.000000000               0.000000000               0.000000000               0.000015046               0.004134866               0.000187913              -0.000511215               0.001548680               0.001037465               0.000000000               0.000000000               0.000000000               0.000000000              -0.000028748               0.004068478               0.000142564              -0.000519339               0.001529259               0.001009920               0.000000000               0.000000000               0.000000000               0.000000000              -0.000069660               0.003991539               0.000098305              -0.000525063               0.001505521               0.000980457               0.000000000               0.000000000               0.000000000               0.000000000              -0.000107670               0.003906560               0.000055761              -0.000528695               0.001478405               0.000949710               0.000000000               0.000000000               0.000000000               0.000000000              -0.000145911               0.003819217               0.000020784              -0.000532117               0.001450432               0.000918315               0.000000000               0.000000000               0.000000000               0.000000000              -0.000168613               0.003771402               0.000003878              -0.000534654               0.001435339               0.000900686               0.000000000               0.000000000               0.000000000               0.000000000               0.000895519               0.001978148               0.001277879               0.000088549               0.000629859               0.000718408               0.000000000               0.000000000               0.000000000               0.000000000               0.000593525               0.002666391               0.001338233              -0.000110729               0.000925697               0.000814969               0.000000000               0.000000000               0.000000000               0.000000000               0.000241240               0.003522762               0.001276612              -0.000349880               0.001290869               0.000940988               0.000000000               0.000000000               0.000000000               0.000000000               0.000145561               0.003911393               0.001088727              -0.000434338               0.001448564               0.001014225               0.000000000               0.000000000               0.000000000               0.000000000               0.000130029               0.004088784               0.000909676              -0.000462336               0.001517026               0.001054690               0.000000000               0.000000000               0.000000000               0.000000000               0.000139062               0.004169462               0.000757651              -0.000469034               0.001546151               0.001077118               0.000000000               0.000000000               0.000000000               0.000000000               0.000153846               0.004201632               0.000638163              -0.000467511               0.001556367               0.001088856               0.000000000               0.000000000               0.000000000               0.000000000               0.000161813               0.004204243               0.000543798              -0.000464850               0.001556350               0.001091501               0.000000000               0.000000000               0.000000000               0.000000000               0.000156527               0.004183900               0.000465498              -0.000464289               0.001549382               0.001085093               0.000000000               0.000000000               0.000000000               0.000000000               0.000136031               0.004150936               0.000396164              -0.000467854               0.001539583               0.001071728               0.000000000               0.000000000               0.000000000               0.000000000               0.000100883               0.004112100               0.000330697              -0.000476180               0.001529413               0.001053233               0.000000000               0.000000000               0.000000000               0.000000000               0.000054083               0.004071859               0.000269768              -0.000488700               0.001520173               0.001031473               0.000000000               0.000000000               0.000000000               0.000000000              -0.000000777               0.004026586               0.000213793              -0.000503614               0.001510053               0.001006440               0.000000000               0.000000000               0.000000000               0.000000000              -0.000059969               0.003967130               0.000158525              -0.000518379               0.001495156               0.000976778               0.000000000               0.000000000               0.000000000               0.000000000              -0.000121229               0.003892438               0.000102642              -0.000532014               0.001474805               0.000942790               0.000000000               0.000000000               0.000000000               0.000000000              -0.000187061               0.003812827               0.000047492              -0.000546750               0.001453180               0.000906430               0.000000000               0.000000000               0.000000000               0.000000000              -0.000234659               0.003765301               0.000015006              -0.000558658               0.001441307               0.000882649               0.000000000               0.000000000               0.000000000               0.000000000               0.000544475               0.001319152               0.000949377               0.000039283               0.000426618               0.000465901               0.000000000               0.000000000               0.000000000               0.000000000               0.000503878               0.002034542               0.001176314              -0.000065365               0.000699962               0.000634597               0.000000000               0.000000000               0.000000000               0.000000000               0.000320801               0.002903419               0.001287792              -0.000242628               0.001048672               0.000806044               0.000000000               0.000000000               0.000000000               0.000000000               0.000257530               0.003385753               0.001175330              -0.000326646               0.001237455               0.000910809               0.000000000               0.000000000               0.000000000               0.000000000               0.000234259               0.003665380               0.001019482              -0.000370325               0.001345223               0.000974898               0.000000000               0.000000000               0.000000000               0.000000000               0.000226197               0.003830459               0.000869617              -0.000393983               0.001408134               0.001014151               0.000000000               0.000000000               0.000000000               0.000000000               0.000226866               0.003926285               0.000744924              -0.000405710               0.001443985               0.001038275               0.000000000               0.000000000               0.000000000               0.000000000               0.000230742               0.003979588               0.000643278              -0.000410920               0.001463489               0.001052570               0.000000000               0.000000000               0.000000000               0.000000000               0.000223451               0.004000688               0.000556123              -0.000416291               0.001472313               0.001056022               0.000000000               0.000000000               0.000000000               0.000000000               0.000202416               0.004002295               0.000479514              -0.000424380               0.001475545               0.001051165               0.000000000               0.000000000               0.000000000               0.000000000               0.000168030               0.003990980               0.000407948              -0.000435860               0.001475600               0.001039740               0.000000000               0.000000000               0.000000000               0.000000000               0.000124192               0.003975322               0.000341952              -0.000450342               0.001475208               0.001024866               0.000000000               0.000000000               0.000000000               0.000000000               0.000069578               0.003952298               0.000280499              -0.000467944               0.001473401               0.001005456               0.000000000               0.000000000               0.000000000               0.000000000               0.000006689               0.003916400               0.000219338              -0.000487040               0.001467800               0.000980760               0.000000000               0.000000000               0.000000000               0.000000000              -0.000065146               0.003864223               0.000152724              -0.000507457               0.001457214               0.000949757               0.000000000               0.000000000               0.000000000               0.000000000              -0.000147490               0.003803394               0.000077736              -0.000530732               0.001444696               0.000913964               0.000000000               0.000000000               0.000000000               0.000000000              -0.000209974               0.003760119               0.000031225              -0.000548754               0.001436278               0.000887525               0.000000000               0.000000000               0.000000000               0.000000000               0.000142762               0.000794775               0.000641547              -0.000045812               0.000280193               0.000234381               0.000000000               0.000000000               0.000000000               0.000000000               0.000379386               0.001467099               0.000968185              -0.000041119               0.000502734               0.000461615               0.000000000               0.000000000               0.000000000               0.000000000               0.000409641               0.002282832               0.001197151              -0.000131740               0.000804849               0.000673110               0.000000000               0.000000000               0.000000000               0.000000000               0.000400023               0.002818578               0.001154815              -0.000202314               0.001006954               0.000804640               0.000000000               0.000000000               0.000000000               0.000000000               0.000377524               0.003174676               0.001035794              -0.000255263               0.001143302               0.000888039               0.000000000               0.000000000               0.000000000               0.000000000               0.000358537               0.003411655               0.000907069              -0.000292005               0.001234542               0.000942536               0.000000000               0.000000000               0.000000000               0.000000000               0.000344706               0.003575070               0.000793763              -0.000317619               0.001297551               0.000979932               0.000000000               0.000000000               0.000000000               0.000000000               0.000336171               0.003689334               0.000693958              -0.000335102               0.001341466               0.001006364               0.000000000               0.000000000               0.000000000               0.000000000               0.000322319               0.003764044               0.000603957              -0.000349635               0.001371214               0.001021578               0.000000000               0.000000000               0.000000000               0.000000000               0.000299425               0.003809931               0.000524225              -0.000363956               0.001391283               0.001027327               0.000000000               0.000000000               0.000000000               0.000000000               0.000267315               0.003835077               0.000451940              -0.000379141               0.001404726               0.001025586               0.000000000               0.000000000               0.000000000               0.000000000               0.000229860               0.003849840               0.000386407              -0.000395032               0.001414945               0.001019913               0.000000000               0.000000000               0.000000000               0.000000000               0.000183826               0.003850148               0.000326184              -0.000412333               0.001420814               0.001008481               0.000000000               0.000000000               0.000000000               0.000000000               0.000128153               0.003834640               0.000263904              -0.000431272               0.001421958               0.000990686               0.000000000               0.000000000               0.000000000               0.000000000               0.000062418               0.003812812               0.000190210              -0.000453194               0.001421989               0.000968795               0.000000000               0.000000000               0.000000000               0.000000000              -0.000017269               0.003782250               0.000101064              -0.000479256               0.001420489               0.000941233               0.000000000               0.000000000               0.000000000               0.000000000              -0.000079819               0.003751688               0.000046719              -0.000498892               0.001416847               0.000917956               0.000000000               0.000000000               0.000000000               0.000000000              -0.000259825               0.000424502               0.000383222              -0.000150497               0.000191665               0.000041168               0.000000000               0.000000000               0.000000000               0.000000000               0.000231071               0.001000690               0.000730690              -0.000038435               0.000346371               0.000307936               0.000000000               0.000000000               0.000000000               0.000000000               0.000481479               0.001714073               0.001004357              -0.000033706               0.000582587               0.000548881               0.000000000               0.000000000               0.000000000               0.000000000               0.000548374               0.002264843               0.001012446              -0.000077466               0.000780762               0.000703296               0.000000000               0.000000000               0.000000000               0.000000000               0.000544031               0.002669819               0.000935726              -0.000129716               0.000933169               0.000803453               0.000000000               0.000000000               0.000000000               0.000000000               0.000519979               0.002966046               0.000839832              -0.000175764               0.001047260               0.000871496               0.000000000               0.000000000               0.000000000               0.000000000               0.000493951               0.003192661               0.000749884              -0.000213851               0.001135493               0.000921642               0.000000000               0.000000000               0.000000000               0.000000000               0.000470456               0.003368097               0.000664707              -0.000244591               0.001204218               0.000959627               0.000000000               0.000000000               0.000000000               0.000000000               0.000446705               0.003498439               0.000583340              -0.000269790               0.001256065               0.000986274               0.000000000               0.000000000               0.000000000               0.000000000               0.000418535               0.003589522               0.000508962              -0.000291739               0.001293742               0.001002003               0.000000000               0.000000000               0.000000000               0.000000000               0.000387913               0.003655134               0.000442866              -0.000311424               0.001322174               0.001010750               0.000000000               0.000000000               0.000000000               0.000000000               0.000357415               0.003703458               0.000384211              -0.000328901               0.001344107               0.001015206               0.000000000               0.000000000               0.000000000               0.000000000               0.000322857               0.003731783               0.000330420              -0.000345401               0.001359049               0.001013648               0.000000000               0.000000000               0.000000000               0.000000000               0.000282698               0.003745407               0.000273512              -0.000362163               0.001369178               0.001007014               0.000000000               0.000000000               0.000000000               0.000000000               0.000238601               0.003752991               0.000201955              -0.000379648               0.001377534               0.000997886               0.000000000               0.000000000               0.000000000               0.000000000               0.000185995               0.003751201               0.000109664              -0.000399151               0.001383438               0.000984287               0.000000000               0.000000000               0.000000000               0.000000000               0.000143722               0.003739512               0.000054421              -0.000413542               0.001384339               0.000970797               0.000000000               0.000000000               0.000000000               0.000000000              -0.000604225               0.000191589               0.000195601              -0.000250533               0.000147373              -0.000103160               0.000000000               0.000000000               0.000000000               0.000000000               0.000091459               0.000658115               0.000481488              -0.000047968               0.000235359               0.000187391               0.000000000               0.000000000               0.000000000               0.000000000               0.000528994               0.001257126               0.000721049               0.000041231               0.000405294               0.000446525               0.000000000               0.000000000               0.000000000               0.000000000               0.000676547               0.001796297               0.000753260               0.000029167               0.000589037               0.000618204               0.000000000               0.000000000               0.000000000               0.000000000               0.000702564               0.002227041               0.000712947              -0.000014920               0.000747313               0.000732393               0.000000000               0.000000000               0.000000000               0.000000000               0.000679318               0.002565150               0.000652914              -0.000065900               0.000877008               0.000811108               0.000000000               0.000000000               0.000000000               0.000000000               0.000642795               0.002840308               0.000592914              -0.000113991               0.000984757               0.000870766               0.000000000               0.000000000               0.000000000               0.000000000               0.000604512               0.003064910               0.000531991              -0.000156422               0.001073767               0.000917345               0.000000000               0.000000000               0.000000000               0.000000000               0.000567714               0.003241199               0.000470649              -0.000192257               0.001144474               0.000952218               0.000000000               0.000000000               0.000000000               0.000000000               0.000532458               0.003375836               0.000414037              -0.000222308               0.001199370               0.000977063               0.000000000               0.000000000               0.000000000               0.000000000               0.000501980               0.003479892               0.000364364              -0.000246744               0.001242200               0.000995457               0.000000000               0.000000000               0.000000000               0.000000000               0.000475895               0.003561782               0.000320299              -0.000266761               0.001276169               0.001009408               0.000000000               0.000000000               0.000000000               0.000000000               0.000453656               0.003623848               0.000278908              -0.000282859               0.001302224               0.001019364               0.000000000               0.000000000               0.000000000               0.000000000               0.000434698               0.003670051               0.000234784              -0.000295744               0.001321920               0.001026176               0.000000000               0.000000000               0.000000000               0.000000000               0.000423138               0.003705343               0.000177704              -0.000304490               0.001336599               0.001032108               0.000000000               0.000000000               0.000000000               0.000000000               0.000419543               0.003726537               0.000099041              -0.000308488               0.001344996               0.001036508               0.000000000               0.000000000               0.000000000               0.000000000               0.000419514               0.003731842               0.000052443              -0.000309162               0.001346989               0.001037827               0.000000000               0.000000000               0.000000000               0.000000000              -0.000837231               0.000068232               0.000078191              -0.000322490               0.000130240              -0.000192250               0.000000000               0.000000000               0.000000000               0.000000000              -0.000009783               0.000452027               0.000238222              -0.000060172               0.000170731               0.000110559               0.000000000               0.000000000               0.000000000               0.000000000               0.000553793               0.000964270               0.000376354               0.000087137               0.000292374               0.000379512               0.000000000               0.000000000               0.000000000               0.000000000               0.000760276               0.001482737               0.000402350               0.000099760               0.000460987               0.000560748               0.000000000               0.000000000               0.000000000               0.000000000               0.000813886               0.001921387               0.000386726               0.000065033               0.000618778               0.000683811               0.000000000               0.000000000               0.000000000               0.000000000               0.000798796               0.002282647               0.000358567               0.000014217               0.000756136               0.000770353               0.000000000               0.000000000               0.000000000               0.000000000               0.000753556               0.002586216               0.000329610              -0.000040693               0.000875628               0.000834934               0.000000000               0.000000000               0.000000000               0.000000000               0.000698938               0.002845283               0.000298680              -0.000093558               0.000979604               0.000886046               0.000000000               0.000000000               0.000000000               0.000000000               0.000648690               0.003058491               0.000265794              -0.000139052               0.001065838               0.000926785               0.000000000               0.000000000               0.000000000               0.000000000               0.000605713               0.003222318               0.000235933              -0.000175647               0.001132644               0.000956997               0.000000000               0.000000000               0.000000000               0.000000000               0.000573072               0.003349286               0.000209589              -0.000203758               0.001184337               0.000980579               0.000000000               0.000000000               0.000000000               0.000000000               0.000552368               0.003455538               0.000185903              -0.000224804               0.001226769               0.001001965               0.000000000               0.000000000               0.000000000               0.000000000               0.000542983               0.003542452               0.000163693              -0.000239187               0.001260534               0.001021347               0.000000000               0.000000000               0.000000000               0.000000000               0.000545156               0.003609453               0.000139377              -0.000246747               0.001285388               0.001038641               0.000000000               0.000000000               0.000000000               0.000000000               0.000565063               0.003664520               0.000107568              -0.000246166               0.001303550               0.001057384               0.000000000               0.000000000               0.000000000               0.000000000               0.000610509               0.003706696               0.000061384              -0.000234396               0.001313685               0.001079289               0.000000000               0.000000000               0.000000000               0.000000000               0.000656579               0.003728590               0.000034231              -0.000219856               0.001316136               0.001096280               0.000000000               0.000000000               0.000000000               0.000000000              -0.000919814               0.000031859               0.000000000              -0.000348912               0.000126923              -0.000221989               0.000000000               0.000000000               0.000000000               0.000000000              -0.000047424               0.000383658               0.000000000              -0.000065741               0.000149799               0.000084057               0.000000000               0.000000000               0.000000000               0.000000000               0.000560881               0.000862538               0.000000000               0.000102512               0.000253339               0.000355851               0.000000000               0.000000000               0.000000000               0.000000000               0.000788251               0.001373330               0.000000000               0.000123927               0.000416463               0.000540390               0.000000000               0.000000000               0.000000000               0.000000000               0.000852869               0.001812096               0.000000000               0.000093313               0.000572922               0.000666235               0.000000000               0.000000000               0.000000000               0.000000000               0.000843042               0.002178547              -0.000000000               0.000043822               0.000711568               0.000755390               0.000000000               0.000000000               0.000000000               0.000000000               0.000795501               0.002494657              -0.000000000              -0.000013519               0.000836051               0.000822531               0.000000000               0.000000000               0.000000000               0.000000000               0.000732228               0.002765867               0.000000000              -0.000071148               0.000945663               0.000874515               0.000000000               0.000000000               0.000000000               0.000000000               0.000673240               0.002989902               0.000000000              -0.000121272               0.001037048               0.000915776               0.000000000               0.000000000               0.000000000               0.000000000               0.000627131               0.003165564              -0.000000000              -0.000160521               0.001108685               0.000948163               0.000000000               0.000000000               0.000000000               0.000000000               0.000594108               0.003301713              -0.000000000              -0.000189923               0.001163868               0.000973944               0.000000000               0.000000000               0.000000000               0.000000000               0.000577555               0.003414363              -0.000000000              -0.000210212               0.001208180               0.000997968               0.000000000               0.000000000               0.000000000               0.000000000               0.000574800               0.003507522              -0.000000000              -0.000222890               0.001243459               0.001020569               0.000000000               0.000000000               0.000000000               0.000000000               0.000586334               0.003581553              -0.000000000              -0.000227818               0.001269778               0.001041960               0.000000000               0.000000000               0.000000000               0.000000000               0.000619544               0.003644578              -0.000000000              -0.000223243               0.001289261               0.001066019               0.000000000               0.000000000               0.000000000               0.000000000               0.000685107               0.003697225               0.000000000              -0.000205238               0.001300809               0.001095571               0.000000000               0.000000000               0.000000000               0.000000000               0.000750956               0.003727640               0.000000000              -0.000184346               0.001303983               0.001119637               0.000000000               0.000000000               0.000000000               0.000000000               0.000891816               0.010044693              -0.000000000              -0.000921153               0.003655249               0.002734095               0.000000000               0.000000000               0.000000000               0.000000000               0.000970977               0.008210030              -0.000000000              -0.000662136               0.002957361               0.002295226               0.000000000               0.000000000               0.000000000               0.000000000               0.001346006               0.006737743              -0.000000000              -0.000337465               0.002358380               0.002020915               0.000000000               0.000000000               0.000000000               0.000000000               0.001391266               0.005930379              -0.000000000              -0.000219572               0.002049964               0.001830392               0.000000000               0.000000000               0.000000000               0.000000000               0.001315803               0.005451042              -0.000000000              -0.000187953               0.001879647               0.001691693               0.000000000               0.000000000               0.000000000               0.000000000               0.001192981               0.005151440              -0.000000000              -0.000196562               0.001782650               0.001586088               0.000000000               0.000000000               0.000000000               0.000000000               0.001055587               0.004953462               0.000000000              -0.000223337               0.001725583               0.001502246               0.000000000               0.000000000               0.000000000               0.000000000               0.000920670               0.004820657               0.000000000              -0.000257330               0.001692646               0.001435316               0.000000000               0.000000000               0.000000000               0.000000000               0.000791742               0.004728928              -0.000000000              -0.000294212               0.001674364               0.001380152               0.000000000               0.000000000               0.000000000               0.000000000               0.000667863               0.004662970               0.000000000              -0.000332422               0.001665115               0.001332693               0.000000000               0.000000000               0.000000000               0.000000000               0.000551845               0.004612868               0.000000000              -0.000369666               0.001660829               0.001291163               0.000000000               0.000000000               0.000000000               0.000000000               0.000447301               0.004574238              -0.000000000              -0.000404041               0.001659411               0.001255370               0.000000000               0.000000000               0.000000000               0.000000000               0.000347805               0.004538481              -0.000000000              -0.000436882               0.001658439               0.001221557               0.000000000               0.000000000               0.000000000               0.000000000               0.000251138               0.004497823              -0.000000000              -0.000468050               0.001655276               0.001187226               0.000000000               0.000000000               0.000000000               0.000000000               0.000161661               0.004448823              -0.000000000              -0.000495479               0.001648086               0.001152607               0.000000000               0.000000000               0.000000000               0.000000000               0.000079498               0.004386598              -0.000000000              -0.000518512               0.001635022               0.001116510               0.000000000               0.000000000               0.000000000               0.000000000               0.000036260               0.004339303              -0.000000000              -0.000528814               0.001622691               0.001093877               0.000000000               0.000000000               0.000000000               0.000000000               0.000939700               0.009866448              -0.000735565              -0.000880917               0.003582422               0.002701505               0.000000000               0.000000000               0.000000000               0.000000000               0.000976667               0.008087119              -0.000445690              -0.000644638               0.002910559               0.002265921               0.000000000               0.000000000               0.000000000               0.000000000               0.001306916               0.006675508              -0.000149287              -0.000344344               0.002339928               0.001995584               0.000000000               0.000000000               0.000000000               0.000000000               0.001331603               0.005898787              -0.000015218              -0.000237997               0.002045575               0.001807578               0.000000000               0.000000000               0.000000000               0.000000000               0.001250423               0.005440286               0.000046526              -0.000211127               0.001883786               0.001672659               0.000000000               0.000000000               0.000000000               0.000000000               0.001132272               0.005154299               0.000074040              -0.000219685               0.001791311               0.001571626               0.000000000               0.000000000               0.000000000               0.000000000               0.001002558               0.004967542               0.000085391              -0.000244983               0.001737492               0.001492509               0.000000000               0.000000000               0.000000000               0.000000000               0.000874212               0.004841122               0.000089373              -0.000277310               0.001706128               0.001428818               0.000000000               0.000000000               0.000000000               0.000000000               0.000752275               0.004752972               0.000089526              -0.000312018               0.001688314               0.001376296               0.000000000               0.000000000               0.000000000               0.000000000               0.000635393               0.004688385               0.000087562              -0.000347775               0.001678704               0.001330930               0.000000000               0.000000000               0.000000000               0.000000000               0.000527501               0.004639889               0.000085230              -0.000382172               0.001674005               0.001291833               0.000000000               0.000000000               0.000000000               0.000000000               0.000429768               0.004603408               0.000082711              -0.000414262               0.001672541               0.001258279               0.000000000               0.000000000               0.000000000               0.000000000               0.000335626               0.004571457               0.000076744              -0.000445571               0.001672328               0.001226756               0.000000000               0.000000000               0.000000000               0.000000000               0.000244043               0.004538387               0.000066875              -0.000475781               0.001671374               0.001195593               0.000000000               0.000000000               0.000000000               0.000000000               0.000157449               0.004501540               0.000052315              -0.000503648               0.001668381               0.001164733               0.000000000               0.000000000               0.000000000               0.000000000               0.000076662               0.004456508               0.000030685              -0.000528314               0.001661592               0.001133278               0.000000000               0.000000000               0.000000000               0.000000000               0.000036370               0.004424664               0.000017469              -0.000539443               0.001654687               0.001115244               0.000000000               0.000000000               0.000000000               0.000000000               0.001072778               0.009355299              -0.001390654              -0.000767120               0.003374108               0.002606989               0.000000000               0.000000000               0.000000000               0.000000000               0.000994442               0.007738331              -0.000843670              -0.000594374               0.002777543               0.002183168               0.000000000               0.000000000               0.000000000               0.000000000               0.001201070               0.006504953              -0.000288561              -0.000362717               0.002289202               0.001926485               0.000000000               0.000000000               0.000000000               0.000000000               0.001175916               0.005823025              -0.000041726              -0.000286909               0.002036625               0.001749716               0.000000000               0.000000000               0.000000000               0.000000000               0.001080602               0.005418902               0.000072238              -0.000272136               0.001896995               0.001624859               0.000000000               0.000000000               0.000000000               0.000000000               0.000967532               0.005165480               0.000122772              -0.000282860               0.001816096               0.001533236               0.000000000               0.000000000               0.000000000               0.000000000               0.000854080               0.005000128               0.000141876              -0.000304735               0.001768271               0.001463536               0.000000000               0.000000000               0.000000000               0.000000000               0.000744713               0.004884746               0.000146724              -0.000331325               0.001738674               0.001407349               0.000000000               0.000000000               0.000000000               0.000000000               0.000643133               0.004801941               0.000145408              -0.000359067               0.001720320               0.001361253               0.000000000               0.000000000               0.000000000               0.000000000               0.000546158               0.004738989               0.000141179              -0.000387563               0.001708835               0.001321272               0.000000000               0.000000000               0.000000000               0.000000000               0.000457854               0.004693332               0.000136542              -0.000414970               0.001702752               0.001287782               0.000000000               0.000000000               0.000000000               0.000000000               0.000377406               0.004660463               0.000130911              -0.000441030               0.001700482               0.001259453               0.000000000               0.000000000               0.000000000               0.000000000               0.000297841               0.004635695               0.000119912              -0.000467771               0.001701140               0.001233369               0.000000000               0.000000000               0.000000000               0.000000000               0.000219123               0.004616502               0.000103401              -0.000494891               0.001703782               0.001208892               0.000000000               0.000000000               0.000000000               0.000000000               0.000141617               0.004602053               0.000079787              -0.000522149               0.001708052               0.001185903               0.000000000               0.000000000               0.000000000               0.000000000               0.000067752               0.004592014               0.000045795              -0.000548594               0.001713521               0.001164927               0.000000000               0.000000000               0.000000000               0.000000000               0.000035390               0.004592013               0.000024707              -0.000560729               0.001717565               0.001156836               0.000000000               0.000000000               0.000000000               0.000000000               0.001249895               0.008573186              -0.001896460              -0.000602937               0.003058679               0.002455742               0.000000000               0.000000000               0.000000000               0.000000000               0.001010198               0.007214884              -0.001157789              -0.000523036               0.002579282               0.002056247               0.000000000               0.000000000               0.000000000               0.000000000               0.001044582               0.006254279              -0.000416506              -0.000390066               0.002214761               0.001824695               0.000000000               0.000000000               0.000000000               0.000000000               0.000959743               0.005716222              -0.000098874              -0.000354623               0.002023596               0.001668973               0.000000000               0.000000000               0.000000000               0.000000000               0.000853225               0.005385652               0.000044886              -0.000353246               0.001912948               0.001559702               0.000000000               0.000000000               0.000000000               0.000000000               0.000750575               0.005171471               0.000107832              -0.000364967               0.001845462               0.001480495               0.000000000               0.000000000               0.000000000               0.000000000               0.000657400               0.005023225               0.000131563              -0.000381377               0.001801517               0.001420140               0.000000000               0.000000000               0.000000000               0.000000000               0.000573635               0.004914988               0.000138036              -0.000399259               0.001771400               0.001372140               0.000000000               0.000000000               0.000000000               0.000000000               0.000499055               0.004834699               0.000136361              -0.000417191               0.001750614               0.001333423               0.000000000               0.000000000               0.000000000               0.000000000               0.000427780               0.004771756               0.000131194              -0.000436051               0.001735920               0.001299869               0.000000000               0.000000000               0.000000000               0.000000000               0.000359907               0.004723561               0.000125910              -0.000455479               0.001726331               0.001270852               0.000000000               0.000000000               0.000000000               0.000000000               0.000297325               0.004688882               0.000118788              -0.000474612               0.001721149               0.001246537               0.000000000               0.000000000               0.000000000               0.000000000               0.000236166               0.004665439               0.000106969              -0.000494616               0.001720003               0.001225387               0.000000000               0.000000000               0.000000000               0.000000000               0.000174424               0.004653204               0.000089669              -0.000516240               0.001723133               0.001206892               0.000000000               0.000000000               0.000000000               0.000000000               0.000112144               0.004650634               0.000066975              -0.000539274               0.001729954               0.001190680               0.000000000               0.000000000               0.000000000               0.000000000               0.000052946               0.004658963               0.000036600              -0.000562514               0.001740477               0.001177963               0.000000000               0.000000000               0.000000000               0.000000000               0.000029055               0.004673649               0.000017430              -0.000573309               0.001748970               0.001175661               0.000000000               0.000000000               0.000000000               0.000000000               0.001415063               0.007606456              -0.002214441              -0.000420159               0.002675513               0.002255353               0.000000000               0.000000000               0.000000000               0.000000000               0.001000605               0.006581422              -0.001373569              -0.000447451               0.002342935               0.001895485               0.000000000               0.000000000               0.000000000               0.000000000               0.000851871               0.005950470              -0.000536552              -0.000424356               0.002124922               0.001700566               0.000000000               0.000000000               0.000000000               0.000000000               0.000717557               0.005570858              -0.000192820              -0.000427272               0.001999358               0.001572086               0.000000000               0.000000000               0.000000000               0.000000000               0.000610017               0.005320002              -0.000042287              -0.000436243               0.001918730               0.001482488               0.000000000               0.000000000               0.000000000               0.000000000               0.000529607               0.005141526               0.000025145              -0.000444087               0.001861854               0.001417767               0.000000000               0.000000000               0.000000000               0.000000000               0.000466345               0.005005370               0.000054660              -0.000450791               0.001818704               0.001367913               0.000000000               0.000000000               0.000000000               0.000000000               0.000409117               0.004899625               0.000067860              -0.000459033               0.001786203               0.001327170               0.000000000               0.000000000               0.000000000               0.000000000               0.000356429               0.004817198               0.000071501              -0.000468488               0.001761879               0.001293391               0.000000000               0.000000000               0.000000000               0.000000000               0.000306628               0.004751977               0.000069051              -0.000479011               0.001743647               0.001264636               0.000000000               0.000000000               0.000000000               0.000000000               0.000256059               0.004698215               0.000067579              -0.000491253               0.001729807               0.001238554               0.000000000               0.000000000               0.000000000               0.000000000               0.000207005               0.004658327               0.000066010              -0.000504663               0.001720981               0.001216318               0.000000000               0.000000000               0.000000000               0.000000000               0.000160454               0.004631036               0.000061821              -0.000518708               0.001716566               0.001197858               0.000000000               0.000000000               0.000000000               0.000000000               0.000113583               0.004616087               0.000053729              -0.000534416               0.001716819               0.001182403               0.000000000               0.000000000               0.000000000               0.000000000               0.000069848               0.004611425               0.000040609              -0.000550234               0.001720537               0.001170304               0.000000000               0.000000000               0.000000000               0.000000000               0.000032992               0.004613206               0.000021567              -0.000564277               0.001725812               0.001161535               0.000000000               0.000000000               0.000000000               0.000000000               0.000018129               0.004619339               0.000009386              -0.000570618               0.001729970               0.001159353               0.000000000               0.000000000               0.000000000               0.000000000               0.001518302               0.006550619              -0.002342467              -0.000249466               0.002266672               0.002017206               0.000000000               0.000000000               0.000000000               0.000000000               0.000954075               0.005901438              -0.001496166              -0.000379902               0.002093760               0.001713858               0.000000000               0.000000000               0.000000000               0.000000000               0.000639983               0.005619292              -0.000654126              -0.000462417               0.002027217               0.001564801               0.000000000               0.000000000               0.000000000               0.000000000               0.000479915               0.005389087              -0.000316894              -0.000493667               0.001960900               0.001467233               0.000000000               0.000000000               0.000000000               0.000000000               0.000388282               0.005208887              -0.000169430              -0.000505504               0.001904780               0.001399276               0.000000000               0.000000000               0.000000000               0.000000000               0.000337422               0.005057693              -0.000097273              -0.000505677               0.001854440               0.001348763               0.000000000               0.000000000               0.000000000               0.000000000               0.000306883               0.004931508              -0.000057606              -0.000501356               0.001810938               0.001309582               0.000000000               0.000000000               0.000000000               0.000000000               0.000274984               0.004827186              -0.000032661              -0.000500278               0.001775805               0.001275527               0.000000000               0.000000000               0.000000000               0.000000000               0.000238537               0.004741856              -0.000017130              -0.000503279               0.001748363               0.001245083               0.000000000               0.000000000               0.000000000               0.000000000               0.000201152               0.004673214              -0.000009959              -0.000508718               0.001727295               0.001218577               0.000000000               0.000000000               0.000000000               0.000000000               0.000165162               0.004618038              -0.000002137              -0.000515318               0.001711103               0.001195786               0.000000000               0.000000000               0.000000000               0.000000000               0.000128704               0.004575088               0.000007888              -0.000523621               0.001699554               0.001175933               0.000000000               0.000000000               0.000000000               0.000000000               0.000092578               0.004543348               0.000015956              -0.000533200               0.001692168               0.001158967               0.000000000               0.000000000               0.000000000               0.000000000               0.000060472               0.004520506               0.000021256              -0.000542385               0.001687615               0.001145230               0.000000000               0.000000000               0.000000000               0.000000000               0.000033831               0.004501104               0.000019399              -0.000549950               0.001683670               0.001133720               0.000000000               0.000000000               0.000000000               0.000000000               0.000014880               0.004482384               0.000010684              -0.000554717               0.001679018               0.001124302               0.000000000               0.000000000               0.000000000               0.000000000               0.000006242               0.004470268               0.000006303              -0.000556441               0.001675555               0.001119114               0.000000000               0.000000000               0.000000000               0.000000000               0.001528162               0.005486442              -0.002305023              -0.000112747               0.001866377               0.001753630               0.000000000               0.000000000               0.000000000               0.000000000               0.000874899               0.005224226              -0.001542579              -0.000324942               0.001849705               0.001524763               0.000000000               0.000000000               0.000000000               0.000000000               0.000440924               0.005272315              -0.000773528              -0.000493692               0.001921985               0.001428293               0.000000000               0.000000000               0.000000000               0.000000000               0.000281577               0.005171547              -0.000460276              -0.000540851               0.001904115               0.001363265               0.000000000               0.000000000               0.000000000               0.000000000               0.000220082               0.005047253              -0.000312921              -0.000548374               0.001865192               0.001316818               0.000000000               0.000000000               0.000000000               0.000000000               0.000200346               0.004921524              -0.000231410              -0.000540059               0.001820511               0.001280452               0.000000000               0.000000000               0.000000000               0.000000000               0.000193164               0.004808307              -0.000176426              -0.000528601               0.001778953               0.001250352               0.000000000               0.000000000               0.000000000               0.000000000               0.000178801               0.004710728              -0.000135473              -0.000521789               0.001744157               0.001222367               0.000000000               0.000000000               0.000000000               0.000000000               0.000155850               0.004628619              -0.000104932              -0.000520132               0.001716235               0.001196103               0.000000000               0.000000000               0.000000000               0.000000000               0.000127172               0.004560388              -0.000083917              -0.000522358               0.001694233               0.001171876               0.000000000               0.000000000               0.000000000               0.000000000               0.000097430               0.004504599              -0.000064026              -0.000526537               0.001677030               0.001150493               0.000000000               0.000000000               0.000000000               0.000000000               0.000069678               0.004459712              -0.000043004              -0.000531334               0.001663667               0.001132333               0.000000000               0.000000000               0.000000000               0.000000000               0.000044116               0.004419107              -0.000023569              -0.000535844               0.001651635               0.001115792               0.000000000               0.000000000               0.000000000               0.000000000               0.000022604               0.004376566              -0.000008160              -0.000538593               0.001638372               0.001099779               0.000000000               0.000000000               0.000000000               0.000000000               0.000008523               0.004330950              -0.000000482              -0.000538171               0.001623026               0.001084855               0.000000000               0.000000000               0.000000000               0.000000000               0.000003214               0.004284074               0.000000678              -0.000534303               0.001606111               0.001071809               0.000000000               0.000000000               0.000000000               0.000000000              -0.000002828               0.004250803               0.000003239              -0.000532409               0.001594390               0.001061981               0.000000000               0.000000000               0.000000000               0.000000000               0.001452390               0.004472505              -0.002135362              -0.000014420               0.001495626               0.001481206               0.000000000               0.000000000               0.000000000               0.000000000               0.000773589               0.004583476              -0.001532799              -0.000282840               0.001622090               0.001339250               0.000000000               0.000000000               0.000000000               0.000000000               0.000284551               0.004917210              -0.000895848              -0.000507944               0.001808368               0.001300424               0.000000000               0.000000000               0.000000000               0.000000000               0.000148389               0.004925791              -0.000606197              -0.000560077               0.001828606               0.001268529               0.000000000               0.000000000               0.000000000               0.000000000               0.000118745               0.004853327              -0.000450013              -0.000562135               0.001805138               0.001243003               0.000000000               0.000000000               0.000000000               0.000000000               0.000125028               0.004759381              -0.000353637              -0.000548036               0.001769123               0.001221087               0.000000000               0.000000000               0.000000000               0.000000000               0.000134642               0.004665995              -0.000282437              -0.000532758               0.001732902               0.001200145               0.000000000               0.000000000               0.000000000               0.000000000               0.000128386               0.004580436              -0.000226424              -0.000524408               0.001701599               0.001177191               0.000000000               0.000000000               0.000000000               0.000000000               0.000109948               0.004503963              -0.000180259              -0.000521764               0.001675227               0.001153463               0.000000000               0.000000000               0.000000000               0.000000000               0.000085515               0.004437683              -0.000144709              -0.000522641               0.001653427               0.001130786               0.000000000               0.000000000               0.000000000               0.000000000               0.000054183               0.004378745              -0.000112821              -0.000527023               0.001635242               0.001108218               0.000000000               0.000000000               0.000000000               0.000000000               0.000024927               0.004322979              -0.000081305              -0.000531023               0.001617986               0.001086963               0.000000000               0.000000000               0.000000000               0.000000000               0.000003705               0.004263452              -0.000054720              -0.000531541               0.001598317               0.001066776               0.000000000               0.000000000               0.000000000               0.000000000              -0.000011259               0.004194344              -0.000031405              -0.000528514               0.001574272               0.001045758               0.000000000               0.000000000               0.000000000               0.000000000              -0.000016642               0.004121294              -0.000013540              -0.000521401               0.001547551               0.001026150               0.000000000               0.000000000               0.000000000               0.000000000              -0.000011479               0.004051315              -0.000003404              -0.000510718               0.001520664               0.001009946               0.000000000               0.000000000               0.000000000               0.000000000              -0.000012691               0.004005746               0.000004028              -0.000505476               0.001503727               0.000998251               0.000000000               0.000000000               0.000000000               0.000000000               0.001334332               0.003587059              -0.001881940               0.000051989               0.001178344               0.001230333               0.000000000               0.000000000               0.000000000               0.000000000               0.000690200               0.004002349              -0.001494151              -0.000241470               0.001414592               0.001173123               0.000000000               0.000000000               0.000000000               0.000000000               0.000195095               0.004580600              -0.001029742              -0.000499414               0.001693322               0.001193909               0.000000000               0.000000000               0.000000000               0.000000000               0.000084600               0.004700827              -0.000755391              -0.000555877               0.001752219               0.001196342               0.000000000               0.000000000               0.000000000               0.000000000               0.000075791               0.004684667              -0.000583006              -0.000557161               0.001747260               0.001190100               0.000000000               0.000000000               0.000000000               0.000000000               0.000096639               0.004622677              -0.000468620              -0.000541594               0.001721408               0.001179814               0.000000000               0.000000000               0.000000000               0.000000000               0.000114493               0.004553148              -0.000384608              -0.000526208               0.001693103               0.001166896               0.000000000               0.000000000               0.000000000               0.000000000               0.000116891               0.004486196              -0.000316357              -0.000516939               0.001667697               0.001150758               0.000000000               0.000000000               0.000000000               0.000000000               0.000102532               0.004420193              -0.000257043              -0.000514073               0.001644741               0.001130667               0.000000000               0.000000000               0.000000000               0.000000000               0.000075643               0.004354091              -0.000208124              -0.000515894               0.001623314               0.001107420               0.000000000               0.000000000               0.000000000               0.000000000               0.000041339               0.004289401              -0.000166369              -0.000520672               0.001603343               0.001082672               0.000000000               0.000000000               0.000000000               0.000000000               0.000006856               0.004222584              -0.000126433              -0.000525251               0.001582598               0.001057347               0.000000000               0.000000000               0.000000000               0.000000000              -0.000020400               0.004145690              -0.000091412              -0.000525860               0.001557170               0.001031310               0.000000000               0.000000000               0.000000000               0.000000000              -0.000039247               0.004059558              -0.000059591              -0.000522161               0.001527226               0.001005065               0.000000000               0.000000000               0.000000000               0.000000000              -0.000053207               0.003970301              -0.000030713              -0.000516239               0.001495500               0.000979261               0.000000000               0.000000000               0.000000000               0.000000000              -0.000064027               0.003884781              -0.000009956              -0.000509606               0.001464783               0.000955177               0.000000000               0.000000000               0.000000000               0.000000000              -0.000069300               0.003836360               0.000000079              -0.000505531               0.001447284               0.000941753               0.000000000               0.000000000               0.000000000               0.000000000               0.001163820               0.002745400              -0.001593478               0.000093255               0.000884038               0.000977293               0.000000000               0.000000000               0.000000000               0.000000000               0.000646366               0.003331124              -0.001438595              -0.000174005               0.001168364               0.000994360               0.000000000               0.000000000               0.000000000               0.000000000               0.000190660               0.004084079              -0.001174498              -0.000439012               0.001507683               0.001068671               0.000000000               0.000000000               0.000000000               0.000000000               0.000085691               0.004345993              -0.000927652              -0.000511114               0.001619021               0.001107907               0.000000000               0.000000000               0.000000000               0.000000000               0.000078409               0.004418794              -0.000743233              -0.000522945               0.001647232               0.001124287               0.000000000               0.000000000               0.000000000               0.000000000               0.000100887               0.004416575              -0.000607404              -0.000514238               0.001643590               0.001129352               0.000000000               0.000000000               0.000000000               0.000000000               0.000122030               0.004390551              -0.000505425              -0.000503056               0.001631188               0.001128131               0.000000000               0.000000000               0.000000000               0.000000000               0.000127854               0.004353532              -0.000423137              -0.000496245               0.001616578               0.001120333               0.000000000               0.000000000               0.000000000               0.000000000               0.000118780               0.004308081              -0.000353071              -0.000493967               0.001600668               0.001106702               0.000000000               0.000000000               0.000000000               0.000000000               0.000094285               0.004251944              -0.000292431              -0.000496135               0.001582679               0.001086544               0.000000000               0.000000000               0.000000000               0.000000000               0.000058449               0.004193561              -0.000238287              -0.000502275               0.001565265               0.001062989               0.000000000               0.000000000               0.000000000               0.000000000               0.000015046               0.004134866              -0.000187913              -0.000511215               0.001548680               0.001037465               0.000000000               0.000000000               0.000000000               0.000000000              -0.000028748               0.004068478              -0.000142564              -0.000519339               0.001529259               0.001009920               0.000000000               0.000000000               0.000000000               0.000000000              -0.000069660               0.003991539              -0.000098305              -0.000525063               0.001505521               0.000980457               0.000000000               0.000000000               0.000000000               0.000000000              -0.000107670               0.003906560              -0.000055761              -0.000528695               0.001478405               0.000949710               0.000000000               0.000000000               0.000000000               0.000000000              -0.000145911               0.003819217              -0.000020784              -0.000532117               0.001450432               0.000918315               0.000000000               0.000000000               0.000000000               0.000000000              -0.000168613               0.003771402              -0.000003878              -0.000534654               0.001435339               0.000900686               0.000000000               0.000000000               0.000000000               0.000000000               0.000895519               0.001978148              -0.001277879               0.000088549               0.000629859               0.000718408               0.000000000               0.000000000               0.000000000               0.000000000               0.000593525               0.002666391              -0.001338233              -0.000110729               0.000925697               0.000814969               0.000000000               0.000000000               0.000000000               0.000000000               0.000241240               0.003522762              -0.001276612              -0.000349880               0.001290869               0.000940988               0.000000000               0.000000000               0.000000000               0.000000000               0.000145561               0.003911393              -0.001088727              -0.000434338               0.001448564               0.001014225               0.000000000               0.000000000               0.000000000               0.000000000               0.000130029               0.004088784              -0.000909676              -0.000462336               0.001517026               0.001054690               0.000000000               0.000000000               0.000000000               0.000000000               0.000139062               0.004169462              -0.000757651              -0.000469034               0.001546151               0.001077118               0.000000000               0.000000000               0.000000000               0.000000000               0.000153846               0.004201632              -0.000638163              -0.000467511               0.001556367               0.001088856               0.000000000               0.000000000               0.000000000               0.000000000               0.000161813               0.004204243              -0.000543798              -0.000464850               0.001556350               0.001091501               0.000000000               0.000000000               0.000000000               0.000000000               0.000156527               0.004183900              -0.000465498              -0.000464289               0.001549382               0.001085093               0.000000000               0.000000000               0.000000000               0.000000000               0.000136031               0.004150936              -0.000396164              -0.000467854               0.001539583               0.001071728               0.000000000               0.000000000               0.000000000               0.000000000               0.000100883               0.004112100              -0.000330697              -0.000476180               0.001529413               0.001053233               0.000000000               0.000000000               0.000000000               0.000000000               0.000054083               0.004071859              -0.000269768              -0.000488700               0.001520173               0.001031473               0.000000000               0.000000000               0.000000000               0.000000000              -0.000000777               0.004026586              -0.000213793              -0.000503614               0.001510053               0.001006440               0.000000000               0.000000000               0.000000000               0.000000000              -0.000059969               0.003967130              -0.000158525              -0.000518379               0.001495156               0.000976778               0.000000000               0.000000000               0.000000000               0.000000000              -0.000121229               0.003892438              -0.000102642              -0.000532014               0.001474805               0.000942790               0.000000000               0.000000000               0.000000000               0.000000000              -0.000187061               0.003812827              -0.000047492              -0.000546750               0.001453180               0.000906430               0.000000000               0.000000000               0.000000000               0.000000000              -0.000234659               0.003765301              -0.000015006              -0.000558658               0.001441307               0.000882649               0.000000000               0.000000000               0.000000000               0.000000000               0.000544475               0.001319152              -0.000949377               0.000039283               0.000426618               0.000465901               0.000000000               0.000000000               0.000000000               0.000000000               0.000503878               0.002034542              -0.001176314              -0.000065365               0.000699962               0.000634597               0.000000000               0.000000000               0.000000000               0.000000000               0.000320801               0.002903419              -0.001287792              -0.000242628               0.001048672               0.000806044               0.000000000               0.000000000               0.000000000               0.000000000               0.000257530               0.003385753              -0.001175330              -0.000326646               0.001237455               0.000910809               0.000000000               0.000000000               0.000000000               0.000000000               0.000234259               0.003665380              -0.001019482              -0.000370325               0.001345223               0.000974898               0.000000000               0.000000000               0.000000000               0.000000000               0.000226197               0.003830459              -0.000869617              -0.000393983               0.001408134               0.001014151               0.000000000               0.000000000               0.000000000               0.000000000               0.000226866               0.003926285              -0.000744924              -0.000405710               0.001443985               0.001038275               0.000000000               0.000000000               0.000000000               0.000000000               0.000230742               0.003979588              -0.000643278              -0.000410920               0.001463489               0.001052570               0.000000000               0.000000000               0.000000000               0.000000000               0.000223451               0.004000688              -0.000556123              -0.000416291               0.001472313               0.001056022               0.000000000               0.000000000               0.000000000               0.000000000               0.000202416               0.004002295              -0.000479514              -0.000424380               0.001475545               0.001051165               0.000000000               0.000000000               0.000000000               0.000000000               0.000168030               0.003990980              -0.000407948              -0.000435860               0.001475600               0.001039740               0.000000000               0.000000000               0.000000000               0.000000000               0.000124192               0.003975322              -0.000341952              -0.000450342               0.001475208               0.001024866               0.000000000               0.000000000               0.000000000               0.000000000               0.000069578               0.003952298              -0.000280499              -0.000467944               0.001473401               0.001005456               0.000000000               0.000000000               0.000000000               0.000000000               0.000006689               0.003916400              -0.000219338              -0.000487040               0.001467800               0.000980760               0.000000000               0.000000000               0.000000000               0.000000000              -0.000065146               0.003864223              -0.000152724              -0.000507457               0.001457214               0.000949757               0.000000000               0.000000000               0.000000000               0.000000000              -0.000147490               0.003803394              -0.000077736              -0.000530732               0.001444696               0.000913964               0.000000000               0.000000000               0.000000000               0.000000000              -0.000209974               0.003760119              -0.000031225              -0.000548754               0.001436278               0.000887525               0.000000000               0.000000000               0.000000000               0.000000000               0.000142762               0.000794775              -0.000641547              -0.000045812               0.000280193               0.000234381               0.000000000               0.000000000               0.000000000               0.000000000               0.000379386               0.001467099              -0.000968185              -0.000041119               0.000502734               0.000461615               0.000000000               0.000000000               0.000000000               0.000000000               0.000409641               0.002282832              -0.001197151              -0.000131740               0.000804849               0.000673110               0.000000000               0.000000000               0.000000000               0.000000000               0.000400023               0.002818578              -0.001154815              -0.000202314               0.001006954               0.000804640               0.000000000               0.000000000               0.000000000               0.000000000               0.000377524               0.003174676              -0.001035794              -0.000255263               0.001143302               0.000888039               0.000000000               0.000000000               0.000000000               0.000000000               0.000358537               0.003411655              -0.000907069              -0.000292005               0.001234542               0.000942536               0.000000000               0.000000000               0.000000000               0.000000000               0.000344706               0.003575070              -0.000793763              -0.000317619               0.001297551               0.000979932               0.000000000               0.000000000               0.000000000               0.000000000               0.000336171               0.003689334              -0.000693958              -0.000335102               0.001341466               0.001006364               0.000000000               0.000000000               0.000000000               0.000000000               0.000322319               0.003764044              -0.000603957              -0.000349635               0.001371214               0.001021578               0.000000000               0.000000000               0.000000000               0.000000000               0.000299425               0.003809931              -0.000524225              -0.000363956               0.001391283               0.001027327               0.000000000               0.000000000               0.000000000               0.000000000               0.000267315               0.003835077              -0.000451940              -0.000379141               0.001404726               0.001025586               0.000000000               0.000000000               0.000000000               0.000000000               0.000229860               0.003849840              -0.000386407              -0.000395032               0.001414945               0.001019913               0.000000000               0.000000000               0.000000000               0.000000000               0.000183826               0.003850148              -0.000326184              -0.000412333               0.001420814               0.001008481               0.000000000               0.000000000               0.000000000               0.000000000               0.000128153               0.003834640              -0.000263904              -0.000431272               0.001421958               0.000990686               0.000000000               0.000000000               0.000000000               0.000000000               0.000062418               0.003812812              -0.000190210              -0.000453194               0.001421989               0.000968795               0.000000000               0.000000000               0.000000000               0.000000000              -0.000017269               0.003782250              -0.000101064              -0.000479256               0.001420489               0.000941233               0.000000000               0.000000000               0.000000000               0.000000000              -0.000079819               0.003751688              -0.000046719              -0.000498892               0.001416847               0.000917956               0.000000000               0.000000000               0.000000000               0.000000000              -0.000259825               0.000424502              -0.000383222              -0.000150497               0.000191665               0.000041168               0.000000000               0.000000000               0.000000000               0.000000000               0.000231071               0.001000690              -0.000730690              -0.000038435               0.000346371               0.000307936               0.000000000               0.000000000               0.000000000               0.000000000               0.000481479               0.001714073              -0.001004357              -0.000033706               0.000582587               0.000548881               0.000000000               0.000000000               0.000000000               0.000000000               0.000548374               0.002264843              -0.001012446              -0.000077466               0.000780762               0.000703296               0.000000000               0.000000000               0.000000000               0.000000000               0.000544031               0.002669819              -0.000935726              -0.000129716               0.000933169               0.000803453               0.000000000               0.000000000               0.000000000               0.000000000               0.000519979               0.002966046              -0.000839832              -0.000175764               0.001047260               0.000871496               0.000000000               0.000000000               0.000000000               0.000000000               0.000493951               0.003192661              -0.000749884              -0.000213851               0.001135493               0.000921642               0.000000000               0.000000000               0.000000000               0.000000000               0.000470456               0.003368097              -0.000664707              -0.000244591               0.001204218               0.000959627               0.000000000               0.000000000               0.000000000               0.000000000               0.000446705               0.003498439              -0.000583340              -0.000269790               0.001256065               0.000986274               0.000000000               0.000000000               0.000000000               0.000000000               0.000418535               0.003589522              -0.000508962              -0.000291739               0.001293742               0.001002003               0.000000000               0.000000000               0.000000000               0.000000000               0.000387913               0.003655134              -0.000442866              -0.000311424               0.001322174               0.001010750               0.000000000               0.000000000               0.000000000               0.000000000               0.000357415               0.003703458              -0.000384211              -0.000328901               0.001344107               0.001015206               0.000000000               0.000000000               0.000000000               0.000000000               0.000322857               0.003731783              -0.000330420              -0.000345401               0.001359049               0.001013648               0.000000000               0.000000000               0.000000000               0.000000000               0.000282698               0.003745407              -0.000273512              -0.000362163               0.001369178               0.001007014               0.000000000               0.000000000               0.000000000               0.000000000               0.000238601               0.003752991              -0.000201955              -0.000379648               0.001377534               0.000997886               0.000000000               0.000000000               0.000000000               0.000000000               0.000185995               0.003751201              -0.000109664              -0.000399151               0.001383438               0.000984287               0.000000000               0.000000000               0.000000000               0.000000000               0.000143722               0.003739512              -0.000054421              -0.000413542               0.001384339               0.000970797               0.000000000               0.000000000               0.000000000               0.000000000              -0.000604225               0.000191589              -0.000195601              -0.000250533               0.000147373              -0.000103160               0.000000000               0.000000000               0.000000000               0.000000000               0.000091459               0.000658115              -0.000481488              -0.000047968               0.000235359               0.000187391               0.000000000               0.000000000               0.000000000               0.000000000               0.000528994               0.001257126              -0.000721049               0.000041231               0.000405294               0.000446525               0.000000000               0.000000000               0.000000000               0.000000000               0.000676547               0.001796297              -0.000753260               0.000029167               0.000589037               0.000618204               0.000000000               0.000000000               0.000000000               0.000000000               0.000702564               0.002227041              -0.000712947              -0.000014920               0.000747313               0.000732393               0.000000000               0.000000000               0.000000000               0.000000000               0.000679318               0.002565150              -0.000652914              -0.000065900               0.000877008               0.000811108               0.000000000               0.000000000               0.000000000               0.000000000               0.000642795               0.002840308              -0.000592914              -0.000113991               0.000984757               0.000870766               0.000000000               0.000000000               0.000000000               0.000000000               0.000604512               0.003064910              -0.000531991              -0.000156422               0.001073767               0.000917345               0.000000000               0.000000000               0.000000000               0.000000000               0.000567714               0.003241199              -0.000470649              -0.000192257               0.001144474               0.000952218               0.000000000               0.000000000               0.000000000               0.000000000               0.000532458               0.003375836              -0.000414037              -0.000222308               0.001199370               0.000977063               0.000000000               0.000000000               0.000000000               0.000000000               0.000501980               0.003479892              -0.000364364              -0.000246744               0.001242200               0.000995457               0.000000000               0.000000000               0.000000000               0.000000000               0.000475895               0.003561782              -0.000320299              -0.000266761               0.001276169               0.001009408               0.000000000               0.000000000               0.000000000               0.000000000               0.000453656               0.003623848              -0.000278908              -0.000282859               0.001302224               0.001019364               0.000000000               0.000000000               0.000000000               0.000000000               0.000434698               0.003670051              -0.000234784              -0.000295744               0.001321920               0.001026176               0.000000000               0.000000000               0.000000000               0.000000000               0.000423138               0.003705343              -0.000177704              -0.000304490               0.001336599               0.001032108               0.000000000               0.000000000               0.000000000               0.000000000               0.000419543               0.003726537              -0.000099041              -0.000308488               0.001344996               0.001036508               0.000000000               0.000000000               0.000000000               0.000000000               0.000419514               0.003731842              -0.000052443              -0.000309162               0.001346989               0.001037827               0.000000000               0.000000000               0.000000000               0.000000000              -0.000837231               0.000068232              -0.000078191              -0.000322490               0.000130240              -0.000192250               0.000000000               0.000000000               0.000000000               0.000000000              -0.000009783               0.000452027              -0.000238222              -0.000060172               0.000170731               0.000110559               0.000000000               0.000000000               0.000000000               0.000000000               0.000553793               0.000964270              -0.000376354               0.000087137               0.000292374               0.000379512               0.000000000               0.000000000               0.000000000               0.000000000               0.000760276               0.001482737              -0.000402350               0.000099760               0.000460987               0.000560748               0.000000000               0.000000000               0.000000000               0.000000000               0.000813886               0.001921387              -0.000386726               0.000065033               0.000618778               0.000683811               0.000000000               0.000000000               0.000000000               0.000000000               0.000798796               0.002282647              -0.000358567               0.000014217               0.000756136               0.000770353               0.000000000               0.000000000               0.000000000               0.000000000               0.000753556               0.002586216              -0.000329610              -0.000040693               0.000875628               0.000834934               0.000000000               0.000000000               0.000000000               0.000000000               0.000698938               0.002845283              -0.000298680              -0.000093558               0.000979604               0.000886046               0.000000000               0.000000000               0.000000000               0.000000000               0.000648690               0.003058491              -0.000265794              -0.000139052               0.001065838               0.000926785               0.000000000               0.000000000               0.000000000               0.000000000               0.000605713               0.003222318              -0.000235933              -0.000175647               0.001132644               0.000956997               0.000000000               0.000000000               0.000000000               0.000000000               0.000573072               0.003349286              -0.000209589              -0.000203758               0.001184337               0.000980579               0.000000000               0.000000000               0.000000000               0.000000000               0.000552368               0.003455538              -0.000185903              -0.000224804               0.001226769               0.001001965               0.000000000               0.000000000               0.000000000               0.000000000               0.000542983               0.003542452              -0.000163693              -0.000239187               0.001260534               0.001021347               0.000000000               0.000000000               0.000000000               0.000000000               0.000545156               0.003609453              -0.000139377              -0.000246747               0.001285388               0.001038641               0.000000000               0.000000000               0.000000000               0.000000000               0.000565063               0.003664520              -0.000107568              -0.000246166               0.001303550               0.001057384               0.000000000               0.000000000               0.000000000               0.000000000               0.000610509               0.003706696              -0.000061384              -0.000234396               0.001313685               0.001079289               0.000000000               0.000000000               0.000000000               0.000000000               0.000656579               0.003728590              -0.000034231              -0.000219856               0.001316136               0.001096280               0.000000000               0.000000000               0.000000000               0.000000000               0.000000000               0.000000000               0.000000000               0.000000000               0.000000000               0.000000000               0.000000000               0.000000000               0.000000000               0.000000000               0.000000000               0.000000000               0.000000000               0.000000000               0.000000000               0.000000000               0.000000000               0.000000000               0.000000000               0.000000000               0.000000000               0.000000000               0.000000000               0.000000000               0.000000000               0.000000000               0.000000000               0.000000000               0.000000000               0.000000000               0.000000000               0.000000000               0.000000000               0.000000000               0.000000000               0.000000000               0.000000000               0.000000000               0.000000000               0.000000000               0.000000000               0.000000000               0.000000000               0.000000000               0.000000000               0.000000000               0.000000000               0.000000000               0.000000000               0.000000000               0.000000000               0.000000000               0.000000000               0.000000000               0.000000000               0.000000000               0.000000000               0.000000000               0.000000000               0.000000000               0.000000000               0.000000000               0.000000000               0.000000000               0.000000000               0.000000000               0.000000000               0.000000000               0.000000000               0.000000000               0.000000000               0.000000000               0.000000000               0.000000000               0.000000000               0.000000000               0.000000000               0.000000000               0.000000000               0.000000000               0.000000000               0.000000000               0.000000000               0.000000000               0.000000000               0.000000000               0.000000000               0.000000000               0.000000000               0.000000000               0.000000000               0.000000000               0.000000000               0.000000000               0.000000000               0.000000000               0.000000000               0.000000000               0.000000000               0.000000000               0.000000000               0.000000000               0.000000000               0.000000000               0.000000000               0.000000000               0.000000000               0.000000000               0.000000000               0.000000000               0.000000000               0.000000000               0.000000000               0.000000000               0.000000000               0.000000000               0.000000000               0.000000000               0.000000000               0.000000000               0.000000000               0.000000000               0.000000000               0.000000000               0.000000000               0.000000000               0.000000000               0.000000000               0.000000000               0.000000000               0.000000000               0.000000000               0.000000000               0.000000000               0.000000000               0.000000000               0.000000000               0.000000000               0.000000000               0.000000000               0.000000000               0.000000000               0.000000000               0.000000000               0.000000000               0.000000000               0.000000000               0.000000000               0.000000000               0.000000000               0.000000000               0.000000000               0.000000000               0.000000000               0.000000000               0.000000000               0.000000000               0.000000000               0.000000000               0.000000000               0.000000000               0.000000000               0.000000000               0.000000000               0.000000000               0.000000000               0.000000000               0.000000000               0.000000000               0.000000000               0.000000000               0.000000000               0.000000000               0.000000000               0.000000000               0.000000000               0.000000000               0.000000000               0.000000000               0.000000000               0.000000000               0.000000000               0.000000000               0.000000000               0.000000000               0.000000000               0.000000000               0.000000000               0.000000000               0.000000000               0.000000000               0.000000000               0.000000000               0.000000000               0.000000000               0.000000000               0.000000000               0.000000000               0.000000000               0.000000000               0.000000000               0.000000000               0.000000000               0.000000000               0.000000000               0.000000000               0.000000000               0.000000000               0.000000000               0.000000000               0.000000000               0.000000000               0.000000000               0.000000000               0.000000000               0.000000000               0.000000000               0.000000000               0.000000000               0.000000000               0.000000000               0.000000000               0.000000000               0.000000000               0.000000000               0.000000000               0.000000000               0.000000000               0.000000000               0.000000000               0.000000000               0.000000000               0.000000000               0.000000000               0.000000000               0.000000000               0.000000000               0.000000000               0.000000000               0.000000000               0.000000000               0.000000000               0.000000000               0.000000000               0.000000000               0.000000000               0.000000000               0.000000000               0.000000000               0.000000000               0.000000000               0.000000000               0.000000000               0.000000000               0.000000000               0.000000000               0.000000000               0.000000000               0.000000000               0.000000000               0.000000000               0.000000000               0.000000000               0.000000000               0.000000000               0.000000000               0.000000000               0.000000000               0.000000000               0.000000000               0.000000000               0.000000000               0.000000000               0.000000000               0.000000000               0.000000000               0.000000000               0.000000000               0.000000000               0.000000000               0.000000000               0.000000000               0.000000000               0.000000000               0.000000000               0.000000000               0.000000000               0.000000000               0.000000000               0.000000000               0.000000000               0.000000000               0.000000000               0.000000000               0.000000000               0.000000000               0.000000000               0.000000000               0.000000000               0.000000000               0.000000000               0.000000000               0.000000000               0.000000000               0.000000000               0.000000000               0.000000000               0.000000000               0.000000000               0.000000000               0.000000000               0.000000000               0.000000000               0.000000000               0.000000000               0.000000000               0.000000000               0.000000000               0.000000000               0.000000000               0.000000000               0.000000000               0.000000000               0.000000000               0.000000000               0.000000000               0.000000000               0.000000000               0.000000000               0.000000000               0.000000000               0.000000000               0.000000000               0.000000000               0.000000000               0.000000000               0.000000000               0.000000000               0.000000000               0.000000000               0.000939700               0.009866448               0.000735565              -0.000880917               0.003582422               0.002701505               0.000000000               0.000000000               0.000000000               0.000000000               0.000976667               0.008087119               0.000445690              -0.000644638               0.002910559               0.002265921               0.000000000               0.000000000               0.000000000               0.000000000               0.001306916               0.006675508               0.000149287              -0.000344344               0.002339928               0.001995584               0.000000000               0.000000000               0.000000000               0.000000000               0.001331603               0.005898787               0.000015218              -0.000237997               0.002045575               0.001807578               0.000000000               0.000000000               0.000000000               0.000000000               0.001250423               0.005440286              -0.000046526              -0.000211127               0.001883786               0.001672659               0.000000000               0.000000000               0.000000000               0.000000000               0.001132272               0.005154299              -0.000074040              -0.000219685               0.001791311               0.001571626               0.000000000               0.000000000               0.000000000               0.000000000               0.001002558               0.004967542              -0.000085391              -0.000244983               0.001737492               0.001492509               0.000000000               0.000000000               0.000000000               0.000000000               0.000874212               0.004841122              -0.000089373              -0.000277310               0.001706128               0.001428818               0.000000000               0.000000000               0.000000000               0.000000000               0.000752275               0.004752972              -0.000089526              -0.000312018               0.001688314               0.001376296               0.000000000               0.000000000               0.000000000               0.000000000               0.000635393               0.004688385              -0.000087562              -0.000347775               0.001678704               0.001330930               0.000000000               0.000000000               0.000000000               0.000000000               0.000527501               0.004639889              -0.000085230              -0.000382172               0.001674005               0.001291833               0.000000000               0.000000000               0.000000000               0.000000000               0.000429768               0.004603408              -0.000082711              -0.000414262               0.001672541               0.001258279               0.000000000               0.000000000               0.000000000               0.000000000               0.000335626               0.004571457              -0.000076744              -0.000445571               0.001672328               0.001226756               0.000000000               0.000000000               0.000000000               0.000000000               0.000244043               0.004538387              -0.000066875              -0.000475781               0.001671374               0.001195593               0.000000000               0.000000000               0.000000000               0.000000000               0.000157449               0.004501540              -0.000052315              -0.000503648               0.001668381               0.001164733               0.000000000               0.000000000               0.000000000               0.000000000               0.000076662               0.004456508              -0.000030685              -0.000528314               0.001661592               0.001133278               0.000000000               0.000000000               0.000000000               0.000000000               0.000036370               0.004424664              -0.000017469              -0.000539443               0.001654687               0.001115244               0.000000000               0.000000000               0.000000000               0.000000000               0.001072778               0.009355299               0.001390654              -0.000767120               0.003374108               0.002606989               0.000000000               0.000000000               0.000000000               0.000000000               0.000994442               0.007738331               0.000843670              -0.000594374               0.002777543               0.002183168               0.000000000               0.000000000               0.000000000               0.000000000               0.001201070               0.006504953               0.000288561              -0.000362717               0.002289202               0.001926485               0.000000000               0.000000000               0.000000000               0.000000000               0.001175916               0.005823025               0.000041726              -0.000286909               0.002036625               0.001749716               0.000000000               0.000000000               0.000000000               0.000000000               0.001080602               0.005418902              -0.000072238              -0.000272136               0.001896995               0.001624859               0.000000000               0.000000000               0.000000000               0.000000000               0.000967532               0.005165480              -0.000122772              -0.000282860               0.001816096               0.001533236               0.000000000               0.000000000               0.000000000               0.000000000               0.000854080               0.005000128              -0.000141876              -0.000304735               0.001768271               0.001463536               0.000000000               0.000000000               0.000000000               0.000000000               0.000744713               0.004884746              -0.000146724              -0.000331325               0.001738674               0.001407349               0.000000000               0.000000000               0.000000000               0.000000000               0.000643133               0.004801941              -0.000145408              -0.000359067               0.001720320               0.001361253               0.000000000               0.000000000               0.000000000               0.000000000               0.000546158               0.004738989              -0.000141179              -0.000387563               0.001708835               0.001321272               0.000000000               0.000000000               0.000000000               0.000000000               0.000457854               0.004693332              -0.000136542              -0.000414970               0.001702752               0.001287782               0.000000000               0.000000000               0.000000000               0.000000000               0.000377406               0.004660463              -0.000130911              -0.000441030               0.001700482               0.001259453               0.000000000               0.000000000               0.000000000               0.000000000               0.000297841               0.004635695              -0.000119912              -0.000467771               0.001701140               0.001233369               0.000000000               0.000000000               0.000000000               0.000000000               0.000219123               0.004616502              -0.000103401              -0.000494891               0.001703782               0.001208892               0.000000000               0.000000000               0.000000000               0.000000000               0.000141617               0.004602053              -0.000079787              -0.000522149               0.001708052               0.001185903               0.000000000               0.000000000               0.000000000               0.000000000               0.000067752               0.004592014              -0.000045795              -0.000548594               0.001713521               0.001164927               0.000000000               0.000000000               0.000000000               0.000000000               0.000035390               0.004592013              -0.000024707              -0.000560729               0.001717565               0.001156836               0.000000000               0.000000000               0.000000000               0.000000000               0.001249895               0.008573186               0.001896460              -0.000602937               0.003058679               0.002455742               0.000000000               0.000000000               0.000000000               0.000000000               0.001010198               0.007214884               0.001157789              -0.000523036               0.002579282               0.002056247               0.000000000               0.000000000               0.000000000               0.000000000               0.001044582               0.006254279               0.000416506              -0.000390066               0.002214761               0.001824695               0.000000000               0.000000000               0.000000000               0.000000000               0.000959743               0.005716222               0.000098874              -0.000354623               0.002023596               0.001668973               0.000000000               0.000000000               0.000000000               0.000000000               0.000853225               0.005385652              -0.000044886              -0.000353246               0.001912948               0.001559702               0.000000000               0.000000000               0.000000000               0.000000000               0.000750575               0.005171471              -0.000107832              -0.000364967               0.001845462               0.001480495               0.000000000               0.000000000               0.000000000               0.000000000               0.000657400               0.005023225              -0.000131563              -0.000381377               0.001801517               0.001420140               0.000000000               0.000000000               0.000000000               0.000000000               0.000573635               0.004914988              -0.000138036              -0.000399259               0.001771400               0.001372140               0.000000000               0.000000000               0.000000000               0.000000000               0.000499055               0.004834699              -0.000136361              -0.000417191               0.001750614               0.001333423               0.000000000               0.000000000               0.000000000               0.000000000               0.000427780               0.004771756              -0.000131194              -0.000436051               0.001735920               0.001299869               0.000000000               0.000000000               0.000000000               0.000000000               0.000359907               0.004723561              -0.000125910              -0.000455479               0.001726331               0.001270852               0.000000000               0.000000000               0.000000000               0.000000000               0.000297325               0.004688882              -0.000118788              -0.000474612               0.001721149               0.001246537               0.000000000               0.000000000               0.000000000               0.000000000               0.000236166               0.004665439              -0.000106969              -0.000494616               0.001720003               0.001225387               0.000000000               0.000000000               0.000000000               0.000000000               0.000174424               0.004653204              -0.000089669              -0.000516240               0.001723133               0.001206892               0.000000000               0.000000000               0.000000000               0.000000000               0.000112144               0.004650634              -0.000066975              -0.000539274               0.001729954               0.001190680               0.000000000               0.000000000               0.000000000               0.000000000               0.000052946               0.004658963              -0.000036600              -0.000562514               0.001740477               0.001177963               0.000000000               0.000000000               0.000000000               0.000000000               0.000029055               0.004673649              -0.000017430              -0.000573309               0.001748970               0.001175661               0.000000000               0.000000000               0.000000000               0.000000000               0.001415063               0.007606456               0.002214441              -0.000420159               0.002675513               0.002255353               0.000000000               0.000000000               0.000000000               0.000000000               0.001000605               0.006581422               0.001373569              -0.000447451               0.002342935               0.001895485               0.000000000               0.000000000               0.000000000               0.000000000               0.000851871               0.005950470               0.000536552              -0.000424356               0.002124922               0.001700566               0.000000000               0.000000000               0.000000000               0.000000000               0.000717557               0.005570858               0.000192820              -0.000427272               0.001999358               0.001572086               0.000000000               0.000000000               0.000000000               0.000000000               0.000610017               0.005320002               0.000042287              -0.000436243               0.001918730               0.001482488               0.000000000               0.000000000               0.000000000               0.000000000               0.000529607               0.005141526              -0.000025145              -0.000444087               0.001861854               0.001417767               0.000000000               0.000000000               0.000000000               0.000000000               0.000466345               0.005005370              -0.000054660              -0.000450791               0.001818704               0.001367913               0.000000000               0.000000000               0.000000000               0.000000000               0.000409117               0.004899625              -0.000067860              -0.000459033               0.001786203               0.001327170               0.000000000               0.000000000               0.000000000               0.000000000               0.000356429               0.004817198              -0.000071501              -0.000468488               0.001761879               0.001293391               0.000000000               0.000000000               0.000000000               0.000000000               0.000306628               0.004751977              -0.000069051              -0.000479011               0.001743647               0.001264636               0.000000000               0.000000000               0.000000000               0.000000000               0.000256059               0.004698215              -0.000067579              -0.000491253               0.001729807               0.001238554               0.000000000               0.000000000               0.000000000               0.000000000               0.000207005               0.004658327              -0.000066010              -0.000504663               0.001720981               0.001216318               0.000000000               0.000000000               0.000000000               0.000000000               0.000160454               0.004631036              -0.000061821              -0.000518708               0.001716566               0.001197858               0.000000000               0.000000000               0.000000000               0.000000000               0.000113583               0.004616087              -0.000053729              -0.000534416               0.001716819               0.001182403               0.000000000               0.000000000               0.000000000               0.000000000               0.000069848               0.004611425              -0.000040609              -0.000550234               0.001720537               0.001170304               0.000000000               0.000000000               0.000000000               0.000000000               0.000032992               0.004613206              -0.000021567              -0.000564277               0.001725812               0.001161535               0.000000000               0.000000000               0.000000000               0.000000000               0.000018129               0.004619339              -0.000009386              -0.000570618               0.001729970               0.001159353               0.000000000               0.000000000               0.000000000               0.000000000               0.001518302               0.006550619               0.002342467              -0.000249466               0.002266672               0.002017206               0.000000000               0.000000000               0.000000000               0.000000000               0.000954075               0.005901438               0.001496166              -0.000379902               0.002093760               0.001713858               0.000000000               0.000000000               0.000000000               0.000000000               0.000639983               0.005619292               0.000654126              -0.000462417               0.002027217               0.001564801               0.000000000               0.000000000               0.000000000               0.000000000               0.000479915               0.005389087               0.000316894              -0.000493667               0.001960900               0.001467233               0.000000000               0.000000000               0.000000000               0.000000000               0.000388282               0.005208887               0.000169430              -0.000505504               0.001904780               0.001399276               0.000000000               0.000000000               0.000000000               0.000000000               0.000337422               0.005057693               0.000097273              -0.000505677               0.001854440               0.001348763               0.000000000               0.000000000               0.000000000               0.000000000               0.000306883               0.004931508               0.000057606              -0.000501356               0.001810938               0.001309582               0.000000000               0.000000000               0.000000000               0.000000000               0.000274984               0.004827186               0.000032661              -0.000500278               0.001775805               0.001275527               0.000000000               0.000000000               0.000000000               0.000000000               0.000238537               0.004741856               0.000017130              -0.000503279               0.001748363               0.001245083               0.000000000               0.000000000               0.000000000               0.000000000               0.000201152               0.004673214               0.000009959              -0.000508718               0.001727295               0.001218577               0.000000000               0.000000000               0.000000000               0.000000000               0.000165162               0.004618038               0.000002137              -0.000515318               0.001711103               0.001195786               0.000000000               0.000000000               0.000000000               0.000000000               0.000128704               0.004575088              -0.000007888              -0.000523621               0.001699554               0.001175933               0.000000000               0.000000000               0.000000000               0.000000000               0.000092578               0.004543348              -0.000015956              -0.000533200               0.001692168               0.001158967               0.000000000               0.000000000               0.000000000               0.000000000               0.000060472               0.004520506              -0.000021256              -0.000542385               0.001687615               0.001145230               0.000000000               0.000000000               0.000000000               0.000000000               0.000033831               0.004501104              -0.000019399              -0.000549950               0.001683670               0.001133720               0.000000000               0.000000000               0.000000000               0.000000000               0.000014880               0.004482384              -0.000010684              -0.000554717               0.001679018               0.001124302               0.000000000               0.000000000               0.000000000               0.000000000               0.000006242               0.004470268              -0.000006303              -0.000556441               0.001675555               0.001119114               0.000000000               0.000000000               0.000000000               0.000000000               0.001528162               0.005486442               0.002305023              -0.000112747               0.001866377               0.001753630               0.000000000               0.000000000               0.000000000               0.000000000               0.000874899               0.005224226               0.001542579              -0.000324942               0.001849705               0.001524763               0.000000000               0.000000000               0.000000000               0.000000000               0.000440924               0.005272315               0.000773528              -0.000493692               0.001921985               0.001428293               0.000000000               0.000000000               0.000000000               0.000000000               0.000281577               0.005171547               0.000460276              -0.000540851               0.001904115               0.001363265               0.000000000               0.000000000               0.000000000               0.000000000               0.000220082               0.005047253               0.000312921              -0.000548374               0.001865192               0.001316818               0.000000000               0.000000000               0.000000000               0.000000000               0.000200346               0.004921524               0.000231410              -0.000540059               0.001820511               0.001280452               0.000000000               0.000000000               0.000000000               0.000000000               0.000193164               0.004808307               0.000176426              -0.000528601               0.001778953               0.001250352               0.000000000               0.000000000               0.000000000               0.000000000               0.000178801               0.004710728               0.000135473              -0.000521789               0.001744157               0.001222367               0.000000000               0.000000000               0.000000000               0.000000000               0.000155850               0.004628619               0.000104932              -0.000520132               0.001716235               0.001196103               0.000000000               0.000000000               0.000000000               0.000000000               0.000127172               0.004560388               0.000083917              -0.000522358               0.001694233               0.001171876               0.000000000               0.000000000               0.000000000               0.000000000               0.000097430               0.004504599               0.000064026              -0.000526537               0.001677030               0.001150493               0.000000000               0.000000000               0.000000000               0.000000000               0.000069678               0.004459712               0.000043004              -0.000531334               0.001663667               0.001132333               0.000000000               0.000000000               0.000000000               0.000000000               0.000044116               0.004419107               0.000023569              -0.000535844               0.001651635               0.001115792               0.000000000               0.000000000               0.000000000               0.000000000               0.000022604               0.004376566               0.000008160              -0.000538593               0.001638372               0.001099779               0.000000000               0.000000000               0.000000000               0.000000000               0.000008523               0.004330950               0.000000482              -0.000538171               0.001623026               0.001084855               0.000000000               0.000000000               0.000000000               0.000000000               0.000003214               0.004284074              -0.000000678              -0.000534303               0.001606111               0.001071809               0.000000000               0.000000000               0.000000000               0.000000000              -0.000002828               0.004250803              -0.000003239              -0.000532409               0.001594390               0.001061981               0.000000000               0.000000000               0.000000000               0.000000000               0.001452390               0.004472505               0.002135362              -0.000014420               0.001495626               0.001481206               0.000000000               0.000000000               0.000000000               0.000000000               0.000773589               0.004583476               0.001532799              -0.000282840               0.001622090               0.001339250               0.000000000               0.000000000               0.000000000               0.000000000               0.000284551               0.004917210               0.000895848              -0.000507944               0.001808368               0.001300424               0.000000000               0.000000000               0.000000000               0.000000000               0.000148389               0.004925791               0.000606197              -0.000560077               0.001828606               0.001268529               0.000000000               0.000000000               0.000000000               0.000000000               0.000118745               0.004853327               0.000450013              -0.000562135               0.001805138               0.001243003               0.000000000               0.000000000               0.000000000               0.000000000               0.000125028               0.004759381               0.000353637              -0.000548036               0.001769123               0.001221087               0.000000000               0.000000000               0.000000000               0.000000000               0.000134642               0.004665995               0.000282437              -0.000532758               0.001732902               0.001200145               0.000000000               0.000000000               0.000000000               0.000000000               0.000128386               0.004580436               0.000226424              -0.000524408               0.001701599               0.001177191               0.000000000               0.000000000               0.000000000               0.000000000               0.000109948               0.004503963               0.000180259              -0.000521764               0.001675227               0.001153463               0.000000000               0.000000000               0.000000000               0.000000000               0.000085515               0.004437683               0.000144709              -0.000522641               0.001653427               0.001130786               0.000000000               0.000000000               0.000000000               0.000000000               0.000054183               0.004378745               0.000112821              -0.000527023               0.001635242               0.001108218               0.000000000               0.000000000               0.000000000               0.000000000               0.000024927               0.004322979               0.000081305              -0.000531023               0.001617986               0.001086963               0.000000000               0.000000000               0.000000000               0.000000000               0.000003705               0.004263452               0.000054720              -0.000531541               0.001598317               0.001066776               0.000000000               0.000000000               0.000000000               0.000000000              -0.000011259               0.004194344               0.000031405              -0.000528514               0.001574272               0.001045758               0.000000000               0.000000000               0.000000000               0.000000000              -0.000016642               0.004121294               0.000013540              -0.000521401               0.001547551               0.001026150               0.000000000               0.000000000               0.000000000               0.000000000              -0.000011479               0.004051315               0.000003404              -0.000510718               0.001520664               0.001009946               0.000000000               0.000000000               0.000000000               0.000000000              -0.000012691               0.004005746              -0.000004028              -0.000505476               0.001503727               0.000998251               0.000000000               0.000000000               0.000000000               0.000000000               0.001334332               0.003587059               0.001881940               0.000051989               0.001178344               0.001230333               0.000000000               0.000000000               0.000000000               0.000000000               0.000690200               0.004002349               0.001494151              -0.000241470               0.001414592               0.001173123               0.000000000               0.000000000               0.000000000               0.000000000               0.000195095               0.004580600               0.001029742              -0.000499414               0.001693322               0.001193909               0.000000000               0.000000000               0.000000000               0.000000000               0.000084600               0.004700827               0.000755391              -0.000555877               0.001752219               0.001196342               0.000000000               0.000000000               0.000000000               0.000000000               0.000075791               0.004684667               0.000583006              -0.000557161               0.001747260               0.001190100               0.000000000               0.000000000               0.000000000               0.000000000               0.000096639               0.004622677               0.000468620              -0.000541594               0.001721408               0.001179814               0.000000000               0.000000000               0.000000000               0.000000000               0.000114493               0.004553148               0.000384608              -0.000526208               0.001693103               0.001166896               0.000000000               0.000000000               0.000000000               0.000000000               0.000116891               0.004486196               0.000316357              -0.000516939               0.001667697               0.001150758               0.000000000               0.000000000               0.000000000               0.000000000               0.000102532               0.004420193               0.000257043              -0.000514073               0.001644741               0.001130667               0.000000000               0.000000000               0.000000000               0.000000000               0.000075643               0.004354091               0.000208124              -0.000515894               0.001623314               0.001107420               0.000000000               0.000000000               0.000000000               0.000000000               0.000041339               0.004289401               0.000166369              -0.000520672               0.001603343               0.001082672               0.000000000               0.000000000               0.000000000               0.000000000               0.000006856               0.004222584               0.000126433              -0.000525251               0.001582598               0.001057347               0.000000000               0.000000000               0.000000000               0.000000000              -0.000020400               0.004145690               0.000091412              -0.000525860               0.001557170               0.001031310               0.000000000               0.000000000               0.000000000               0.000000000              -0.000039247               0.004059558               0.000059591              -0.000522161               0.001527226               0.001005065               0.000000000               0.000000000               0.000000000               0.000000000              -0.000053207               0.003970301               0.000030713              -0.000516239               0.001495500               0.000979261               0.000000000               0.000000000               0.000000000               0.000000000              -0.000064027               0.003884781               0.000009956              -0.000509606               0.001464783               0.000955177               0.000000000               0.000000000               0.000000000               0.000000000              -0.000069300               0.003836360              -0.000000079              -0.000505531               0.001447284               0.000941753               0.000000000               0.000000000               0.000000000               0.000000000               0.001163820               0.002745400               0.001593478               0.000093255               0.000884038               0.000977293               0.000000000               0.000000000               0.000000000               0.000000000               0.000646366               0.003331124               0.001438595              -0.000174005               0.001168364               0.000994360               0.000000000               0.000000000               0.000000000               0.000000000               0.000190660               0.004084079               0.001174498              -0.000439012               0.001507683               0.001068671               0.000000000               0.000000000               0.000000000               0.000000000               0.000085691               0.004345993               0.000927652              -0.000511114               0.001619021               0.001107907               0.000000000               0.000000000               0.000000000               0.000000000               0.000078409               0.004418794               0.000743233              -0.000522945               0.001647232               0.001124287               0.000000000               0.000000000               0.000000000               0.000000000               0.000100887               0.004416575               0.000607404              -0.000514238               0.001643590               0.001129352               0.000000000               0.000000000               0.000000000               0.000000000               0.000122030               0.004390551               0.000505425              -0.000503056               0.001631188               0.001128131               0.000000000               0.000000000               0.000000000               0.000000000               0.000127854               0.004353532               0.000423137              -0.000496245               0.001616578               0.001120333               0.000000000               0.000000000               0.000000000               0.000000000               0.000118780               0.004308081               0.000353071              -0.000493967               0.001600668               0.001106702               0.000000000               0.000000000               0.000000000               0.000000000               0.000094285               0.004251944               0.000292431              -0.000496135               0.001582679               0.001086544               0.000000000               0.000000000               0.000000000               0.000000000               0.000058449               0.004193561               0.000238287              -0.000502275               0.001565265               0.001062989               0.000000000               0.000000000               0.000000000               0.000000000               0.000015046               0.004134866               0.000187913              -0.000511215               0.001548680               0.001037465               0.000000000               0.000000000               0.000000000               0.000000000              -0.000028748               0.004068478               0.000142564              -0.000519339               0.001529259               0.001009920               0.000000000               0.000000000               0.000000000               0.000000000              -0.000069660               0.003991539               0.000098305              -0.000525063               0.001505521               0.000980457               0.000000000               0.000000000               0.000000000               0.000000000              -0.000107670               0.003906560               0.000055761              -0.000528695               0.001478405               0.000949710               0.000000000               0.000000000               0.000000000               0.000000000              -0.000145911               0.003819217               0.000020784              -0.000532117               0.001450432               0.000918315               0.000000000               0.000000000               0.000000000               0.000000000              -0.000168613               0.003771402               0.000003878              -0.000534654               0.001435339               0.000900686               0.000000000               0.000000000               0.000000000               0.000000000               0.000895519               0.001978148               0.001277879               0.000088549               0.000629859               0.000718408               0.000000000               0.000000000               0.000000000               0.000000000               0.000593525               0.002666391               0.001338233              -0.000110729               0.000925697               0.000814969               0.000000000               0.000000000               0.000000000               0.000000000               0.000241240               0.003522762               0.001276612              -0.000349880               0.001290869               0.000940988               0.000000000               0.000000000               0.000000000               0.000000000               0.000145561               0.003911393               0.001088727              -0.000434338               0.001448564               0.001014225               0.000000000               0.000000000               0.000000000               0.000000000               0.000130029               0.004088784               0.000909676              -0.000462336               0.001517026               0.001054690               0.000000000               0.000000000               0.000000000               0.000000000               0.000139062               0.004169462               0.000757651              -0.000469034               0.001546151               0.001077118               0.000000000               0.000000000               0.000000000               0.000000000               0.000153846               0.004201632               0.000638163              -0.000467511               0.001556367               0.001088856               0.000000000               0.000000000               0.000000000               0.000000000               0.000161813               0.004204243               0.000543798              -0.000464850               0.001556350               0.001091501               0.000000000               0.000000000               0.000000000               0.000000000               0.000156527               0.004183900               0.000465498              -0.000464289               0.001549382               0.001085093               0.000000000               0.000000000               0.000000000               0.000000000               0.000136031               0.004150936               0.000396164              -0.000467854               0.001539583               0.001071728               0.000000000               0.000000000               0.000000000               0.000000000               0.000100883               0.004112100               0.000330697              -0.000476180               0.001529413               0.001053233               0.000000000               0.000000000               0.000000000               0.000000000               0.000054083               0.004071859               0.000269768              -0.000488700               0.001520173               0.001031473               0.000000000               0.000000000               0.000000000               0.000000000              -0.000000777               0.004026586               0.000213793              -0.000503614               0.001510053               0.001006440               0.000000000               0.000000000               0.000000000               0.000000000              -0.000059969               0.003967130               0.000158525              -0.000518379               0.001495156               0.000976778               0.000000000               0.000000000               0.000000000               0.000000000              -0.000121229               0.003892438               0.000102642              -0.000532014               0.001474805               0.000942790               0.000000000               0.000000000               0.000000000               0.000000000              -0.000187061               0.003812827               0.000047492              -0.000546750               0.001453180               0.000906430               0.000000000               0.000000000               0.000000000               0.000000000              -0.000234659               0.003765301               0.000015006              -0.000558658               0.001441307               0.000882649               0.000000000               0.000000000               0.000000000               0.000000000               0.000544475               0.001319152               0.000949377               0.000039283               0.000426618               0.000465901               0.000000000               0.000000000               0.000000000               0.000000000               0.000503878               0.002034542               0.001176314              -0.000065365               0.000699962               0.000634597               0.000000000               0.000000000               0.000000000               0.000000000               0.000320801               0.002903419               0.001287792              -0.000242628               0.001048672               0.000806044               0.000000000               0.000000000               0.000000000               0.000000000               0.000257530               0.003385753               0.001175330              -0.000326646               0.001237455               0.000910809               0.000000000               0.000000000               0.000000000               0.000000000               0.000234259               0.003665380               0.001019482              -0.000370325               0.001345223               0.000974898               0.000000000               0.000000000               0.000000000               0.000000000               0.000226197               0.003830459               0.000869617              -0.000393983               0.001408134               0.001014151               0.000000000               0.000000000               0.000000000               0.000000000               0.000226866               0.003926285               0.000744924              -0.000405710               0.001443985               0.001038275               0.000000000               0.000000000               0.000000000               0.000000000               0.000230742               0.003979588               0.000643278              -0.000410920               0.001463489               0.001052570               0.000000000               0.000000000               0.000000000               0.000000000               0.000223451               0.004000688               0.000556123              -0.000416291               0.001472313               0.001056022               0.000000000               0.000000000               0.000000000               0.000000000               0.000202416               0.004002295               0.000479514              -0.000424380               0.001475545               0.001051165               0.000000000               0.000000000               0.000000000               0.000000000               0.000168030               0.003990980               0.000407948              -0.000435860               0.001475600               0.001039740               0.000000000               0.000000000               0.000000000               0.000000000               0.000124192               0.003975322               0.000341952              -0.000450342               0.001475208               0.001024866               0.000000000               0.000000000               0.000000000               0.000000000               0.000069578               0.003952298               0.000280499              -0.000467944               0.001473401               0.001005456               0.000000000               0.000000000               0.000000000               0.000000000               0.000006689               0.003916400               0.000219338              -0.000487040               0.001467800               0.000980760               0.000000000               0.000000000               0.000000000               0.000000000              -0.000065146               0.003864223               0.000152724              -0.000507457               0.001457214               0.000949757               0.000000000               0.000000000               0.000000000               0.000000000              -0.000147490               0.003803394               0.000077736              -0.000530732               0.001444696               0.000913964               0.000000000               0.000000000               0.000000000               0.000000000              -0.000209974               0.003760119               0.000031225              -0.000548754               0.001436278               0.000887525               0.000000000               0.000000000               0.000000000               0.000000000               0.000142762               0.000794775               0.000641547              -0.000045812               0.000280193               0.000234381               0.000000000               0.000000000               0.000000000               0.000000000               0.000379386               0.001467099               0.000968185              -0.000041119               0.000502734               0.000461615               0.000000000               0.000000000               0.000000000               0.000000000               0.000409641               0.002282832               0.001197151              -0.000131740               0.000804849               0.000673110               0.000000000               0.000000000               0.000000000               0.000000000               0.000400023               0.002818578               0.001154815              -0.000202314               0.001006954               0.000804640               0.000000000               0.000000000               0.000000000               0.000000000               0.000377524               0.003174676               0.001035794              -0.000255263               0.001143302               0.000888039               0.000000000               0.000000000               0.000000000               0.000000000               0.000358537               0.003411655               0.000907069              -0.000292005               0.001234542               0.000942536               0.000000000               0.000000000               0.000000000               0.000000000               0.000344706               0.003575070               0.000793763              -0.000317619               0.001297551               0.000979932               0.000000000               0.000000000               0.000000000               0.000000000               0.000336171               0.003689334               0.000693958              -0.000335102               0.001341466               0.001006364               0.000000000               0.000000000               0.000000000               0.000000000               0.000322319               0.003764044               0.000603957              -0.000349635               0.001371214               0.001021578               0.000000000               0.000000000               0.000000000               0.000000000               0.000299425               0.003809931               0.000524225              -0.000363956               0.001391283               0.001027327               0.000000000               0.000000000               0.000000000               0.000000000               0.000267315               0.003835077               0.000451940              -0.000379141               0.001404726               0.001025586               0.000000000               0.000000000               0.000000000               0.000000000               0.000229860               0.003849840               0.000386407              -0.000395032               0.001414945               0.001019913               0.000000000               0.000000000               0.000000000               0.000000000               0.000183826               0.003850148               0.000326184              -0.000412333               0.001420814               0.001008481               0.000000000               0.000000000               0.000000000               0.000000000               0.000128153               0.003834640               0.000263904              -0.000431272               0.001421958               0.000990686               0.000000000               0.000000000               0.000000000               0.000000000               0.000062418               0.003812812               0.000190210              -0.000453194               0.001421989               0.000968795               0.000000000               0.000000000               0.000000000               0.000000000              -0.000017269               0.003782250               0.000101064              -0.000479256               0.001420489               0.000941233               0.000000000               0.000000000               0.000000000               0.000000000              -0.000079819               0.003751688               0.000046719              -0.000498892               0.001416847               0.000917956               0.000000000               0.000000000               0.000000000               0.000000000              -0.000259825               0.000424502               0.000383222              -0.000150497               0.000191665               0.000041168               0.000000000               0.000000000               0.000000000               0.000000000               0.000231071               0.001000690               0.000730690              -0.000038435               0.000346371               0.000307936               0.000000000               0.000000000               0.000000000               0.000000000               0.000481479               0.001714073               0.001004357              -0.000033706               0.000582587               0.000548881               0.000000000               0.000000000               0.000000000               0.000000000               0.000548374               0.002264843               0.001012446              -0.000077466               0.000780762               0.000703296               0.000000000               0.000000000               0.000000000               0.000000000               0.000544031               0.002669819               0.000935726              -0.000129716               0.000933169               0.000803453               0.000000000               0.000000000               0.000000000               0.000000000               0.000519979               0.002966046               0.000839832              -0.000175764               0.001047260               0.000871496               0.000000000               0.000000000               0.000000000               0.000000000               0.000493951               0.003192661               0.000749884              -0.000213851               0.001135493               0.000921642               0.000000000               0.000000000               0.000000000               0.000000000               0.000470456               0.003368097               0.000664707              -0.000244591               0.001204218               0.000959627               0.000000000               0.000000000               0.000000000               0.000000000               0.000446705               0.003498439               0.000583340              -0.000269790               0.001256065               0.000986274               0.000000000               0.000000000               0.000000000               0.000000000               0.000418535               0.003589522               0.000508962              -0.000291739               0.001293742               0.001002003               0.000000000               0.000000000               0.000000000               0.000000000               0.000387913               0.003655134               0.000442866              -0.000311424               0.001322174               0.001010750               0.000000000               0.000000000               0.000000000               0.000000000               0.000357415               0.003703458               0.000384211              -0.000328901               0.001344107               0.001015206               0.000000000               0.000000000               0.000000000               0.000000000               0.000322857               0.003731783               0.000330420              -0.000345401               0.001359049               0.001013648               0.000000000               0.000000000               0.000000000               0.000000000               0.000282698               0.003745407               0.000273512              -0.000362163               0.001369178               0.001007014               0.000000000               0.000000000               0.000000000               0.000000000               0.000238601               0.003752991               0.000201955              -0.000379648               0.001377534               0.000997886               0.000000000               0.000000000               0.000000000               0.000000000               0.000185995               0.003751201               0.000109664              -0.000399151               0.001383438               0.000984287               0.000000000               0.000000000               0.000000000               0.000000000               0.000143722               0.003739512               0.000054421              -0.000413542               0.001384339               0.000970797               0.000000000               0.000000000               0.000000000               0.000000000              -0.000604225               0.000191589               0.000195601              -0.000250533               0.000147373              -0.000103160               0.000000000               0.000000000               0.000000000               0.000000000               0.000091459               0.000658115               0.000481488              -0.000047968               0.000235359               0.000187391               0.000000000               0.000000000               0.000000000               0.000000000               0.000528994               0.001257126               0.000721049               0.000041231               0.000405294               0.000446525               0.000000000               0.000000000               0.000000000               0.000000000               0.000676547               0.001796297               0.000753260               0.000029167               0.000589037               0.000618204               0.000000000               0.000000000               0.000000000               0.000000000               0.000702564               0.002227041               0.000712947              -0.000014920               0.000747313               0.000732393               0.000000000               0.000000000               0.000000000               0.000000000               0.000679318               0.002565150               0.000652914              -0.000065900               0.000877008               0.000811108               0.000000000               0.000000000               0.000000000               0.000000000               0.000642795               0.002840308               0.000592914              -0.000113991               0.000984757               0.000870766               0.000000000               0.000000000               0.000000000               0.000000000               0.000604512               0.003064910               0.000531991              -0.000156422               0.001073767               0.000917345               0.000000000               0.000000000               0.000000000               0.000000000               0.000567714               0.003241199               0.000470649              -0.000192257               0.001144474               0.000952218               0.000000000               0.000000000               0.000000000               0.000000000               0.000532458               0.003375836               0.000414037              -0.000222308               0.001199370               0.000977063               0.000000000               0.000000000               0.000000000               0.000000000               0.000501980               0.003479892               0.000364364              -0.000246744               0.001242200               0.000995457               0.000000000               0.000000000               0.000000000               0.000000000               0.000475895               0.003561782               0.000320299              -0.000266761               0.001276169               0.001009408               0.000000000               0.000000000               0.000000000               0.000000000               0.000453656               0.003623848               0.000278908              -0.000282859               0.001302224               0.001019364               0.000000000               0.000000000               0.000000000               0.000000000               0.000434698               0.003670051               0.000234784              -0.000295744               0.001321920               0.001026176               0.000000000               0.000000000               0.000000000               0.000000000               0.000423138               0.003705343               0.000177704              -0.000304490               0.001336599               0.001032108               0.000000000               0.000000000               0.000000000               0.000000000               0.000419543               0.003726537               0.000099041              -0.000308488               0.001344996               0.001036508               0.000000000               0.000000000               0.000000000               0.000000000               0.000419514               0.003731842               0.000052443              -0.000309162               0.001346989               0.001037827               0.000000000               0.000000000               0.000000000               0.000000000              -0.000837231               0.000068232               0.000078191              -0.000322490               0.000130240              -0.000192250               0.000000000               0.000000000               0.000000000               0.000000000              -0.000009783               0.000452027               0.000238222              -0.000060172               0.000170731               0.000110559               0.000000000               0.000000000               0.000000000               0.000000000               0.000553793               0.000964270               0.000376354               0.000087137               0.000292374               0.000379512               0.000000000               0.000000000               0.000000000               0.000000000               0.000760276               0.001482737               0.000402350               0.000099760               0.000460987               0.000560748               0.000000000               0.000000000               0.000000000               0.000000000               0.000813886               0.001921387               0.000386726               0.000065033               0.000618778               0.000683811               0.000000000               0.000000000               0.000000000               0.000000000               0.000798796               0.002282647               0.000358567               0.000014217               0.000756136               0.000770353               0.000000000               0.000000000               0.000000000               0.000000000               0.000753556               0.002586216               0.000329610              -0.000040693               0.000875628               0.000834934               0.000000000               0.000000000               0.000000000               0.000000000               0.000698938               0.002845283               0.000298680              -0.000093558               0.000979604               0.000886046               0.000000000               0.000000000               0.000000000               0.000000000               0.000648690               0.003058491               0.000265794              -0.000139052               0.001065838               0.000926785               0.000000000               0.000000000               0.000000000               0.000000000               0.000605713               0.003222318               0.000235933              -0.000175647               0.001132644               0.000956997               0.000000000               0.000000000               0.000000000               0.000000000               0.000573072               0.003349286               0.000209589              -0.000203758               0.001184337               0.000980579               0.000000000               0.000000000               0.000000000               0.000000000               0.000552368               0.003455538               0.000185903              -0.000224804               0.001226769               0.001001965               0.000000000               0.000000000               0.000000000               0.000000000               0.000542983               0.003542452               0.000163693              -0.000239187               0.001260534               0.001021347               0.000000000               0.000000000               0.000000000               0.000000000               0.000545156               0.003609453               0.000139377              -0.000246747               0.001285388               0.001038641               0.000000000               0.000000000               0.000000000               0.000000000               0.000565063               0.003664520               0.000107568              -0.000246166               0.001303550               0.001057384               0.000000000               0.000000000               0.000000000               0.000000000               0.000610509               0.003706696               0.000061384              -0.000234396               0.001313685               0.001079289               0.000000000               0.000000000               0.000000000               0.000000000               0.000656579               0.003728590               0.000034231              -0.000219856               0.001316136               0.001096280               0.000000000               0.000000000               0.000000000               0.000000000               0.000000000               0.000000000               0.000000000               0.000000000               0.000000000               0.000000000               0.000000000               0.000000000               0.000000000               0.000000000               0.000000000               0.000000000               0.000000000               0.000000000               0.000000000               0.000000000               0.000000000               0.000000000               0.000000000               0.000000000               0.000000000               0.000000000               0.000000000               0.000000000               0.000000000               0.000000000               0.000000000               0.000000000               0.000000000               0.000000000               0.000000000               0.000000000               0.000000000               0.000000000               0.000000000               0.000000000               0.000000000               0.000000000               0.000000000               0.000000000               0.000000000               0.000000000               0.000000000               0.000000000               0.000000000               0.000000000               0.000000000               0.000000000               0.000000000               0.000000000               0.000000000               0.000000000               0.000000000               0.000000000               0.000000000               0.000000000               0.000000000               0.000000000               0.000000000               0.000000000               0.000000000               0.000000000               0.000000000               0.000000000               0.000000000               0.000000000               0.000000000               0.000000000               0.000000000               0.000000000               0.000000000               0.000000000               0.000000000               0.000000000               0.000000000               0.000000000               0.000000000               0.000000000               0.000000000               0.000000000               0.000000000               0.000000000               0.000000000               0.000000000               0.000000000               0.000000000               0.000000000               0.000000000               0.000000000               0.000000000               0.000000000               0.000000000               0.000000000               0.000000000               0.000000000               0.000000000               0.000000000               0.000000000               0.000000000               0.000000000               0.000000000               0.000000000               0.000000000               0.000000000               0.000000000               0.000000000               0.000000000               0.000000000               0.000000000               0.000000000               0.000000000               0.000000000               0.000000000               0.000000000               0.000000000               0.000000000               0.000000000               0.000000000               0.000000000               0.000000000               0.000000000               0.000000000               0.000000000               0.000000000               0.000000000               0.000000000               0.000000000               0.000000000               0.000000000               0.000000000               0.000000000               0.000000000               0.000000000               0.000000000               0.000000000               0.000000000               0.000000000               0.000000000               0.000000000               0.000000000               0.000000000               0.000000000               0.000000000               0.000000000               0.000000000               0.000000000               0.000000000               0.000000000               0.000000000               0.000000000               0.000000000               0.000000000               0.000000000               0.000000000               0.000000000               0.000000000               0.000000000               0.000000000               0.000000000               0.000000000               0.000000000               0.000000000               0.000000000               0.000000000               0.000000000               0.000000000               0.000000000               0.000000000               0.000000000               0.000000000 </DataArray>
</PointData>
</Piece>
</UnstructuredGrid> </VTKFile>
