<?xml version="1.0"?>
<VTKFile type="UnstructuredGrid" version="0.1">
<UnstructuredGrid>
<Piece NumberOfPoints="      1156" NumberOfCells="      1024">
<Points>
<DataArray type="Float64"                                    Name="coordinates"                                                      NumberOfComponents=" 3" format="ascii">
              0.133000000               0.000000000               0.000000000               0.155937500               0.000000000               0.000000000               0.178875000               0.000000000               0.000000000               0.201812500               0.000000000               0.000000000               0.224750000               0.000000000               0.000000000               0.247687500               0.000000000               0.000000000               0.270625000               0.000000000               0.000000000               0.293562500               0.000000000               0.000000000               0.316500000               0.000000000               0.000000000               0.339437500               0.000000000               0.000000000               0.362375000               0.000000000               0.000000000               0.385312500               0.000000000               0.000000000               0.408250000               0.000000000               0.000000000               0.431187500               0.000000000               0.000000000               0.454125000               0.000000000               0.000000000               0.477062500               0.000000000               0.000000000               0.500000000               0.000000000               0.000000000               0.132359569               0.013036280               0.000000000               0.155337096               0.016127762               0.000000000               0.178314623               0.019219245               0.000000000               0.201292150               0.022310727               0.000000000               0.224269676               0.025402210               0.000000000               0.247247203               0.028493692               0.000000000               0.270224730               0.031585175               0.000000000               0.293202257               0.034676657               0.000000000               0.316179784               0.037768140               0.000000000               0.339157311               0.040859622               0.000000000               0.362134838               0.043951105               0.000000000               0.385112365               0.047042587               0.000000000               0.408089892               0.050134070               0.000000000               0.431067419               0.053225552               0.000000000               0.454044946               0.056317035               0.000000000               0.477022473               0.059408517               0.000000000               0.500000000               0.062500000               0.000000000               0.130444442               0.025947013               0.000000000               0.153541665               0.032137825               0.000000000               0.176638887               0.038328636               0.000000000               0.199736109               0.044519448               0.000000000               0.222833332               0.050710260               0.000000000               0.245930554               0.056901071               0.000000000               0.269027776               0.063091883               0.000000000               0.292124999               0.069282695               0.000000000               0.315222221               0.075473506               0.000000000               0.338319444               0.081664318               0.000000000               0.361416666               0.087855130               0.000000000               0.384513888               0.094045942               0.000000000               0.407611111               0.100236753               0.000000000               0.430708333               0.106427565               0.000000000               0.453805555               0.112618377               0.000000000               0.476902778               0.118809188               0.000000000               0.500000000               0.125000000               0.000000000               0.127273065               0.038607862               0.000000000               0.150568498               0.047913621               0.000000000               0.173863932               0.057219379               0.000000000               0.197159365               0.066525138               0.000000000               0.220454798               0.075830897               0.000000000               0.243750232               0.085136655               0.000000000               0.267045665               0.094442414               0.000000000               0.290341099               0.103748172               0.000000000               0.313636532               0.113053931               0.000000000               0.336931966               0.122359690               0.000000000               0.360227399               0.131665448               0.000000000               0.383522833               0.140971207               0.000000000               0.406818266               0.150276966               0.000000000               0.430113700               0.159582724               0.000000000               0.453409133               0.168888483               0.000000000               0.476704567               0.178194241               0.000000000               0.500000000               0.187500000               0.000000000               0.122875978               0.050896897               0.000000000               0.146446229               0.063340840               0.000000000               0.170016481               0.075784784               0.000000000               0.193586732               0.088228728               0.000000000               0.217156983               0.100672672               0.000000000               0.240727235               0.113116616               0.000000000               0.264297486               0.125560560               0.000000000               0.287867738               0.138004504               0.000000000               0.311437989               0.150448448               0.000000000               0.335008240               0.162892392               0.000000000               0.358578492               0.175336336               0.000000000               0.382148743               0.187780280               0.000000000               0.405718994               0.200224224               0.000000000               0.429289246               0.212668168               0.000000000               0.452859497               0.225112112               0.000000000               0.476429749               0.237556056               0.000000000               0.500000000               0.250000000               0.000000000               0.117295528               0.062695766               0.000000000               0.141214558               0.078308531               0.000000000               0.165133587               0.093921295               0.000000000               0.189052617               0.109534060               0.000000000               0.212971646               0.125146824               0.000000000               0.236890676               0.140759589               0.000000000               0.260809705               0.156372354               0.000000000               0.284728735               0.171985118               0.000000000               0.308647764               0.187597883               0.000000000               0.332566794               0.203210648               0.000000000               0.356485823               0.218823412               0.000000000               0.380404853               0.234436177               0.000000000               0.404323882               0.250048941               0.000000000               0.428242912               0.265661706               0.000000000               0.452161941               0.281274471               0.000000000               0.476080971               0.296887235               0.000000000               0.500000000               0.312500000               0.000000000               0.110585458               0.073890841               0.000000000               0.134923867               0.092710163               0.000000000               0.159262276               0.111529486               0.000000000               0.183600685               0.130348808               0.000000000               0.207939094               0.149168131               0.000000000               0.232277503               0.167987453               0.000000000               0.256615912               0.186806776               0.000000000               0.280954320               0.205626098               0.000000000               0.305292729               0.224445420               0.000000000               0.329631138               0.243264743               0.000000000               0.353969547               0.262084065               0.000000000               0.378307956               0.280903388               0.000000000               0.402646365               0.299722710               0.000000000               0.426984773               0.318542033               0.000000000               0.451323182               0.337361355               0.000000000               0.475661591               0.356180678               0.000000000               0.500000000               0.375000000               0.000000000               0.102810390               0.084374307               0.000000000               0.127634741               0.106444663               0.000000000               0.152459092               0.128515018               0.000000000               0.177283442               0.150585374               0.000000000               0.202107793               0.172655730               0.000000000               0.226932143               0.194726086               0.000000000               0.251756494               0.216796442               0.000000000               0.276580845               0.238866798               0.000000000               0.301405195               0.260937153               0.000000000               0.326229546               0.283007509               0.000000000               0.351053896               0.305077865               0.000000000               0.375878247               0.327148221               0.000000000               0.400702598               0.349218577               0.000000000               0.425526948               0.371288933               0.000000000               0.450351299               0.393359288               0.000000000               0.475175649               0.415429644               0.000000000               0.500000000               0.437500000               0.000000000               0.094045202               0.094045202               0.000000000               0.119417377               0.119417377               0.000000000               0.144789552               0.144789552               0.000000000               0.170161727               0.170161727               0.000000000               0.195533901               0.195533901               0.000000000               0.220906076               0.220906076               0.000000000               0.246278251               0.246278251               0.000000000               0.271650426               0.271650426               0.000000000               0.297022601               0.297022601               0.000000000               0.322394776               0.322394776               0.000000000               0.347766951               0.347766951               0.000000000               0.373139126               0.373139126               0.000000000               0.398511300               0.398511300               0.000000000               0.423883475               0.423883475               0.000000000               0.449255650               0.449255650               0.000000000               0.474627825               0.474627825               0.000000000               0.500000000               0.500000000               0.000000000               0.084374307               0.102810390               0.000000000               0.106444663               0.127634741               0.000000000               0.128515018               0.152459092               0.000000000               0.150585374               0.177283442               0.000000000               0.172655730               0.202107793               0.000000000               0.194726086               0.226932143               0.000000000               0.216796442               0.251756494               0.000000000               0.238866798               0.276580845               0.000000000               0.260937153               0.301405195               0.000000000               0.283007509               0.326229546               0.000000000               0.305077865               0.351053896               0.000000000               0.327148221               0.375878247               0.000000000               0.349218577               0.400702598               0.000000000               0.371288933               0.425526948               0.000000000               0.393359288               0.450351299               0.000000000               0.415429644               0.475175649               0.000000000               0.437500000               0.500000000               0.000000000               0.073890841               0.110585458               0.000000000               0.092710163               0.134923867               0.000000000               0.111529486               0.159262276               0.000000000               0.130348808               0.183600685               0.000000000               0.149168131               0.207939094               0.000000000               0.167987453               0.232277503               0.000000000               0.186806776               0.256615912               0.000000000               0.205626098               0.280954320               0.000000000               0.224445420               0.305292729               0.000000000               0.243264743               0.329631138               0.000000000               0.262084065               0.353969547               0.000000000               0.280903388               0.378307956               0.000000000               0.299722710               0.402646365               0.000000000               0.318542033               0.426984773               0.000000000               0.337361355               0.451323182               0.000000000               0.356180678               0.475661591               0.000000000               0.375000000               0.500000000               0.000000000               0.062695766               0.117295528               0.000000000               0.078308531               0.141214558               0.000000000               0.093921295               0.165133587               0.000000000               0.109534060               0.189052617               0.000000000               0.125146824               0.212971646               0.000000000               0.140759589               0.236890676               0.000000000               0.156372354               0.260809705               0.000000000               0.171985118               0.284728735               0.000000000               0.187597883               0.308647764               0.000000000               0.203210648               0.332566794               0.000000000               0.218823412               0.356485823               0.000000000               0.234436177               0.380404853               0.000000000               0.250048941               0.404323882               0.000000000               0.265661706               0.428242912               0.000000000               0.281274471               0.452161941               0.000000000               0.296887235               0.476080971               0.000000000               0.312500000               0.500000000               0.000000000               0.050896897               0.122875978               0.000000000               0.063340840               0.146446229               0.000000000               0.075784784               0.170016481               0.000000000               0.088228728               0.193586732               0.000000000               0.100672672               0.217156983               0.000000000               0.113116616               0.240727235               0.000000000               0.125560560               0.264297486               0.000000000               0.138004504               0.287867738               0.000000000               0.150448448               0.311437989               0.000000000               0.162892392               0.335008240               0.000000000               0.175336336               0.358578492               0.000000000               0.187780280               0.382148743               0.000000000               0.200224224               0.405718994               0.000000000               0.212668168               0.429289246               0.000000000               0.225112112               0.452859497               0.000000000               0.237556056               0.476429749               0.000000000               0.250000000               0.500000000               0.000000000               0.038607862               0.127273065               0.000000000               0.047913621               0.150568498               0.000000000               0.057219379               0.173863932               0.000000000               0.066525138               0.197159365               0.000000000               0.075830897               0.220454798               0.000000000               0.085136655               0.243750232               0.000000000               0.094442414               0.267045665               0.000000000               0.103748172               0.290341099               0.000000000               0.113053931               0.313636532               0.000000000               0.122359690               0.336931966               0.000000000               0.131665448               0.360227399               0.000000000               0.140971207               0.383522833               0.000000000               0.150276966               0.406818266               0.000000000               0.159582724               0.430113700               0.000000000               0.168888483               0.453409133               0.000000000               0.178194241               0.476704567               0.000000000               0.187500000               0.500000000               0.000000000               0.025947013               0.130444442               0.000000000               0.032137825               0.153541665               0.000000000               0.038328636               0.176638887               0.000000000               0.044519448               0.199736109               0.000000000               0.050710260               0.222833332               0.000000000               0.056901071               0.245930554               0.000000000               0.063091883               0.269027776               0.000000000               0.069282695               0.292124999               0.000000000               0.075473506               0.315222221               0.000000000               0.081664318               0.338319444               0.000000000               0.087855130               0.361416666               0.000000000               0.094045942               0.384513888               0.000000000               0.100236753               0.407611111               0.000000000               0.106427565               0.430708333               0.000000000               0.112618377               0.453805555               0.000000000               0.118809188               0.476902778               0.000000000               0.125000000               0.500000000               0.000000000               0.013036280               0.132359569               0.000000000               0.016127762               0.155337096               0.000000000               0.019219245               0.178314623               0.000000000               0.022310727               0.201292150               0.000000000               0.025402210               0.224269676               0.000000000               0.028493692               0.247247203               0.000000000               0.031585175               0.270224730               0.000000000               0.034676657               0.293202257               0.000000000               0.037768140               0.316179784               0.000000000               0.040859622               0.339157311               0.000000000               0.043951105               0.362134838               0.000000000               0.047042587               0.385112365               0.000000000               0.050134070               0.408089892               0.000000000               0.053225552               0.431067419               0.000000000               0.056317035               0.454044946               0.000000000               0.059408517               0.477022473               0.000000000               0.062500000               0.500000000               0.000000000               0.000000000               0.133000000               0.000000000               0.000000000               0.155937500               0.000000000               0.000000000               0.178875000               0.000000000               0.000000000               0.201812500               0.000000000               0.000000000               0.224750000               0.000000000               0.000000000               0.247687500               0.000000000               0.000000000               0.270625000               0.000000000               0.000000000               0.293562500               0.000000000               0.000000000               0.316500000               0.000000000               0.000000000               0.339437500               0.000000000               0.000000000               0.362375000               0.000000000               0.000000000               0.385312500               0.000000000               0.000000000               0.408250000               0.000000000               0.000000000               0.431187500               0.000000000               0.000000000               0.454125000               0.000000000               0.000000000               0.477062500               0.000000000               0.000000000               0.500000000               0.000000000               0.133000000               0.000000000               0.000000000               0.155937500               0.000000000               0.000000000               0.178875000               0.000000000               0.000000000               0.201812500               0.000000000               0.000000000               0.224750000               0.000000000               0.000000000               0.247687500               0.000000000               0.000000000               0.270625000               0.000000000               0.000000000               0.293562500               0.000000000               0.000000000               0.316500000               0.000000000               0.000000000               0.339437500               0.000000000               0.000000000               0.362375000               0.000000000               0.000000000               0.385312500               0.000000000               0.000000000               0.408250000               0.000000000               0.000000000               0.431187500               0.000000000               0.000000000               0.454125000               0.000000000               0.000000000               0.477062500               0.000000000               0.000000000               0.500000000               0.000000000               0.000000000               0.132359569              -0.013036280               0.000000000               0.155337096              -0.016127762               0.000000000               0.178314623              -0.019219245               0.000000000               0.201292150              -0.022310727               0.000000000               0.224269676              -0.025402210               0.000000000               0.247247203              -0.028493692               0.000000000               0.270224730              -0.031585175               0.000000000               0.293202257              -0.034676657               0.000000000               0.316179784              -0.037768140               0.000000000               0.339157311              -0.040859622               0.000000000               0.362134838              -0.043951105               0.000000000               0.385112365              -0.047042587               0.000000000               0.408089892              -0.050134070               0.000000000               0.431067419              -0.053225552               0.000000000               0.454044946              -0.056317035               0.000000000               0.477022473              -0.059408517               0.000000000               0.500000000              -0.062500000               0.000000000               0.130444442              -0.025947013               0.000000000               0.153541665              -0.032137825               0.000000000               0.176638887              -0.038328636               0.000000000               0.199736109              -0.044519448               0.000000000               0.222833332              -0.050710260               0.000000000               0.245930554              -0.056901071               0.000000000               0.269027776              -0.063091883               0.000000000               0.292124999              -0.069282695               0.000000000               0.315222221              -0.075473506               0.000000000               0.338319444              -0.081664318               0.000000000               0.361416666              -0.087855130               0.000000000               0.384513888              -0.094045942               0.000000000               0.407611111              -0.100236753               0.000000000               0.430708333              -0.106427565               0.000000000               0.453805555              -0.112618377               0.000000000               0.476902778              -0.118809188               0.000000000               0.500000000              -0.125000000               0.000000000               0.127273065              -0.038607862               0.000000000               0.150568498              -0.047913621               0.000000000               0.173863932              -0.057219379               0.000000000               0.197159365              -0.066525138               0.000000000               0.220454798              -0.075830897               0.000000000               0.243750232              -0.085136655               0.000000000               0.267045665              -0.094442414               0.000000000               0.290341099              -0.103748172               0.000000000               0.313636532              -0.113053931               0.000000000               0.336931966              -0.122359690               0.000000000               0.360227399              -0.131665448               0.000000000               0.383522833              -0.140971207               0.000000000               0.406818266              -0.150276966               0.000000000               0.430113700              -0.159582724               0.000000000               0.453409133              -0.168888483               0.000000000               0.476704567              -0.178194241               0.000000000               0.500000000              -0.187500000               0.000000000               0.122875978              -0.050896897               0.000000000               0.146446229              -0.063340840               0.000000000               0.170016481              -0.075784784               0.000000000               0.193586732              -0.088228728               0.000000000               0.217156983              -0.100672672               0.000000000               0.240727235              -0.113116616               0.000000000               0.264297486              -0.125560560               0.000000000               0.287867738              -0.138004504               0.000000000               0.311437989              -0.150448448               0.000000000               0.335008240              -0.162892392               0.000000000               0.358578492              -0.175336336               0.000000000               0.382148743              -0.187780280               0.000000000               0.405718994              -0.200224224               0.000000000               0.429289246              -0.212668168               0.000000000               0.452859497              -0.225112112               0.000000000               0.476429749              -0.237556056               0.000000000               0.500000000              -0.250000000               0.000000000               0.117295528              -0.062695766               0.000000000               0.141214558              -0.078308531               0.000000000               0.165133587              -0.093921295               0.000000000               0.189052617              -0.109534060               0.000000000               0.212971646              -0.125146824               0.000000000               0.236890676              -0.140759589               0.000000000               0.260809705              -0.156372354               0.000000000               0.284728735              -0.171985118               0.000000000               0.308647764              -0.187597883               0.000000000               0.332566794              -0.203210648               0.000000000               0.356485823              -0.218823412               0.000000000               0.380404853              -0.234436177               0.000000000               0.404323882              -0.250048941               0.000000000               0.428242912              -0.265661706               0.000000000               0.452161941              -0.281274471               0.000000000               0.476080971              -0.296887235               0.000000000               0.500000000              -0.312500000               0.000000000               0.110585458              -0.073890841               0.000000000               0.134923867              -0.092710163               0.000000000               0.159262276              -0.111529486               0.000000000               0.183600685              -0.130348808               0.000000000               0.207939094              -0.149168131               0.000000000               0.232277503              -0.167987453               0.000000000               0.256615912              -0.186806776               0.000000000               0.280954320              -0.205626098               0.000000000               0.305292729              -0.224445420               0.000000000               0.329631138              -0.243264743               0.000000000               0.353969547              -0.262084065               0.000000000               0.378307956              -0.280903388               0.000000000               0.402646365              -0.299722710               0.000000000               0.426984773              -0.318542033               0.000000000               0.451323182              -0.337361355               0.000000000               0.475661591              -0.356180678               0.000000000               0.500000000              -0.375000000               0.000000000               0.102810390              -0.084374307               0.000000000               0.127634741              -0.106444663               0.000000000               0.152459092              -0.128515018               0.000000000               0.177283442              -0.150585374               0.000000000               0.202107793              -0.172655730               0.000000000               0.226932143              -0.194726086               0.000000000               0.251756494              -0.216796442               0.000000000               0.276580845              -0.238866798               0.000000000               0.301405195              -0.260937153               0.000000000               0.326229546              -0.283007509               0.000000000               0.351053896              -0.305077865               0.000000000               0.375878247              -0.327148221               0.000000000               0.400702598              -0.349218577               0.000000000               0.425526948              -0.371288933               0.000000000               0.450351299              -0.393359288               0.000000000               0.475175649              -0.415429644               0.000000000               0.500000000              -0.437500000               0.000000000               0.094045202              -0.094045202               0.000000000               0.119417377              -0.119417377               0.000000000               0.144789552              -0.144789552               0.000000000               0.170161727              -0.170161727               0.000000000               0.195533901              -0.195533901               0.000000000               0.220906076              -0.220906076               0.000000000               0.246278251              -0.246278251               0.000000000               0.271650426              -0.271650426               0.000000000               0.297022601              -0.297022601               0.000000000               0.322394776              -0.322394776               0.000000000               0.347766951              -0.347766951               0.000000000               0.373139126              -0.373139126               0.000000000               0.398511300              -0.398511300               0.000000000               0.423883475              -0.423883475               0.000000000               0.449255650              -0.449255650               0.000000000               0.474627825              -0.474627825               0.000000000               0.500000000              -0.500000000               0.000000000               0.084374307              -0.102810390               0.000000000               0.106444663              -0.127634741               0.000000000               0.128515018              -0.152459092               0.000000000               0.150585374              -0.177283442               0.000000000               0.172655730              -0.202107793               0.000000000               0.194726086              -0.226932143               0.000000000               0.216796442              -0.251756494               0.000000000               0.238866798              -0.276580845               0.000000000               0.260937153              -0.301405195               0.000000000               0.283007509              -0.326229546               0.000000000               0.305077865              -0.351053896               0.000000000               0.327148221              -0.375878247               0.000000000               0.349218577              -0.400702598               0.000000000               0.371288933              -0.425526948               0.000000000               0.393359288              -0.450351299               0.000000000               0.415429644              -0.475175649               0.000000000               0.437500000              -0.500000000               0.000000000               0.073890841              -0.110585458               0.000000000               0.092710163              -0.134923867               0.000000000               0.111529486              -0.159262276               0.000000000               0.130348808              -0.183600685               0.000000000               0.149168131              -0.207939094               0.000000000               0.167987453              -0.232277503               0.000000000               0.186806776              -0.256615912               0.000000000               0.205626098              -0.280954320               0.000000000               0.224445420              -0.305292729               0.000000000               0.243264743              -0.329631138               0.000000000               0.262084065              -0.353969547               0.000000000               0.280903388              -0.378307956               0.000000000               0.299722710              -0.402646365               0.000000000               0.318542033              -0.426984773               0.000000000               0.337361355              -0.451323182               0.000000000               0.356180678              -0.475661591               0.000000000               0.375000000              -0.500000000               0.000000000               0.062695766              -0.117295528               0.000000000               0.078308531              -0.141214558               0.000000000               0.093921295              -0.165133587               0.000000000               0.109534060              -0.189052617               0.000000000               0.125146824              -0.212971646               0.000000000               0.140759589              -0.236890676               0.000000000               0.156372354              -0.260809705               0.000000000               0.171985118              -0.284728735               0.000000000               0.187597883              -0.308647764               0.000000000               0.203210648              -0.332566794               0.000000000               0.218823412              -0.356485823               0.000000000               0.234436177              -0.380404853               0.000000000               0.250048941              -0.404323882               0.000000000               0.265661706              -0.428242912               0.000000000               0.281274471              -0.452161941               0.000000000               0.296887235              -0.476080971               0.000000000               0.312500000              -0.500000000               0.000000000               0.050896897              -0.122875978               0.000000000               0.063340840              -0.146446229               0.000000000               0.075784784              -0.170016481               0.000000000               0.088228728              -0.193586732               0.000000000               0.100672672              -0.217156983               0.000000000               0.113116616              -0.240727235               0.000000000               0.125560560              -0.264297486               0.000000000               0.138004504              -0.287867738               0.000000000               0.150448448              -0.311437989               0.000000000               0.162892392              -0.335008240               0.000000000               0.175336336              -0.358578492               0.000000000               0.187780280              -0.382148743               0.000000000               0.200224224              -0.405718994               0.000000000               0.212668168              -0.429289246               0.000000000               0.225112112              -0.452859497               0.000000000               0.237556056              -0.476429749               0.000000000               0.250000000              -0.500000000               0.000000000               0.038607862              -0.127273065               0.000000000               0.047913621              -0.150568498               0.000000000               0.057219379              -0.173863932               0.000000000               0.066525138              -0.197159365               0.000000000               0.075830897              -0.220454798               0.000000000               0.085136655              -0.243750232               0.000000000               0.094442414              -0.267045665               0.000000000               0.103748172              -0.290341099               0.000000000               0.113053931              -0.313636532               0.000000000               0.122359690              -0.336931966               0.000000000               0.131665448              -0.360227399               0.000000000               0.140971207              -0.383522833               0.000000000               0.150276966              -0.406818266               0.000000000               0.159582724              -0.430113700               0.000000000               0.168888483              -0.453409133               0.000000000               0.178194241              -0.476704567               0.000000000               0.187500000              -0.500000000               0.000000000               0.025947013              -0.130444442               0.000000000               0.032137825              -0.153541665               0.000000000               0.038328636              -0.176638887               0.000000000               0.044519448              -0.199736109               0.000000000               0.050710260              -0.222833332               0.000000000               0.056901071              -0.245930554               0.000000000               0.063091883              -0.269027776               0.000000000               0.069282695              -0.292124999               0.000000000               0.075473506              -0.315222221               0.000000000               0.081664318              -0.338319444               0.000000000               0.087855130              -0.361416666               0.000000000               0.094045942              -0.384513888               0.000000000               0.100236753              -0.407611111               0.000000000               0.106427565              -0.430708333               0.000000000               0.112618377              -0.453805555               0.000000000               0.118809188              -0.476902778               0.000000000               0.125000000              -0.500000000               0.000000000               0.013036280              -0.132359569               0.000000000               0.016127762              -0.155337096               0.000000000               0.019219245              -0.178314623               0.000000000               0.022310727              -0.201292150               0.000000000               0.025402210              -0.224269676               0.000000000               0.028493692              -0.247247203               0.000000000               0.031585175              -0.270224730               0.000000000               0.034676657              -0.293202257               0.000000000               0.037768140              -0.316179784               0.000000000               0.040859622              -0.339157311               0.000000000               0.043951105              -0.362134838               0.000000000               0.047042587              -0.385112365               0.000000000               0.050134070              -0.408089892               0.000000000               0.053225552              -0.431067419               0.000000000               0.056317035              -0.454044946               0.000000000               0.059408517              -0.477022473               0.000000000               0.062500000              -0.500000000               0.000000000               0.000000000              -0.133000000               0.000000000               0.000000000              -0.155937500               0.000000000               0.000000000              -0.178875000               0.000000000               0.000000000              -0.201812500               0.000000000               0.000000000              -0.224750000               0.000000000               0.000000000              -0.247687500               0.000000000               0.000000000              -0.270625000               0.000000000               0.000000000              -0.293562500               0.000000000               0.000000000              -0.316500000               0.000000000               0.000000000              -0.339437500               0.000000000               0.000000000              -0.362375000               0.000000000               0.000000000              -0.385312500               0.000000000               0.000000000              -0.408250000               0.000000000               0.000000000              -0.431187500               0.000000000               0.000000000              -0.454125000               0.000000000               0.000000000              -0.477062500               0.000000000               0.000000000              -0.500000000               0.000000000              -0.133000000               0.000000000               0.000000000              -0.155937500               0.000000000               0.000000000              -0.178875000               0.000000000               0.000000000              -0.201812500               0.000000000               0.000000000              -0.224750000               0.000000000               0.000000000              -0.247687500               0.000000000               0.000000000              -0.270625000               0.000000000               0.000000000              -0.293562500               0.000000000               0.000000000              -0.316500000               0.000000000               0.000000000              -0.339437500               0.000000000               0.000000000              -0.362375000               0.000000000               0.000000000              -0.385312500               0.000000000               0.000000000              -0.408250000               0.000000000               0.000000000              -0.431187500               0.000000000               0.000000000              -0.454125000               0.000000000               0.000000000              -0.477062500               0.000000000               0.000000000              -0.500000000               0.000000000               0.000000000              -0.132359569              -0.013036280               0.000000000              -0.155337096              -0.016127762               0.000000000              -0.178314623              -0.019219245               0.000000000              -0.201292150              -0.022310727               0.000000000              -0.224269676              -0.025402210               0.000000000              -0.247247203              -0.028493692               0.000000000              -0.270224730              -0.031585175               0.000000000              -0.293202257              -0.034676657               0.000000000              -0.316179784              -0.037768140               0.000000000              -0.339157311              -0.040859622               0.000000000              -0.362134838              -0.043951105               0.000000000              -0.385112365              -0.047042587               0.000000000              -0.408089892              -0.050134070               0.000000000              -0.431067419              -0.053225552               0.000000000              -0.454044946              -0.056317035               0.000000000              -0.477022473              -0.059408517               0.000000000              -0.500000000              -0.062500000               0.000000000              -0.130444442              -0.025947013               0.000000000              -0.153541665              -0.032137825               0.000000000              -0.176638887              -0.038328636               0.000000000              -0.199736109              -0.044519448               0.000000000              -0.222833332              -0.050710260               0.000000000              -0.245930554              -0.056901071               0.000000000              -0.269027776              -0.063091883               0.000000000              -0.292124999              -0.069282695               0.000000000              -0.315222221              -0.075473506               0.000000000              -0.338319444              -0.081664318               0.000000000              -0.361416666              -0.087855130               0.000000000              -0.384513888              -0.094045942               0.000000000              -0.407611111              -0.100236753               0.000000000              -0.430708333              -0.106427565               0.000000000              -0.453805555              -0.112618377               0.000000000              -0.476902778              -0.118809188               0.000000000              -0.500000000              -0.125000000               0.000000000              -0.127273065              -0.038607862               0.000000000              -0.150568498              -0.047913621               0.000000000              -0.173863932              -0.057219379               0.000000000              -0.197159365              -0.066525138               0.000000000              -0.220454798              -0.075830897               0.000000000              -0.243750232              -0.085136655               0.000000000              -0.267045665              -0.094442414               0.000000000              -0.290341099              -0.103748172               0.000000000              -0.313636532              -0.113053931               0.000000000              -0.336931966              -0.122359690               0.000000000              -0.360227399              -0.131665448               0.000000000              -0.383522833              -0.140971207               0.000000000              -0.406818266              -0.150276966               0.000000000              -0.430113700              -0.159582724               0.000000000              -0.453409133              -0.168888483               0.000000000              -0.476704567              -0.178194241               0.000000000              -0.500000000              -0.187500000               0.000000000              -0.122875978              -0.050896897               0.000000000              -0.146446229              -0.063340840               0.000000000              -0.170016481              -0.075784784               0.000000000              -0.193586732              -0.088228728               0.000000000              -0.217156983              -0.100672672               0.000000000              -0.240727235              -0.113116616               0.000000000              -0.264297486              -0.125560560               0.000000000              -0.287867738              -0.138004504               0.000000000              -0.311437989              -0.150448448               0.000000000              -0.335008240              -0.162892392               0.000000000              -0.358578492              -0.175336336               0.000000000              -0.382148743              -0.187780280               0.000000000              -0.405718994              -0.200224224               0.000000000              -0.429289246              -0.212668168               0.000000000              -0.452859497              -0.225112112               0.000000000              -0.476429749              -0.237556056               0.000000000              -0.500000000              -0.250000000               0.000000000              -0.117295528              -0.062695766               0.000000000              -0.141214558              -0.078308531               0.000000000              -0.165133587              -0.093921295               0.000000000              -0.189052617              -0.109534060               0.000000000              -0.212971646              -0.125146824               0.000000000              -0.236890676              -0.140759589               0.000000000              -0.260809705              -0.156372354               0.000000000              -0.284728735              -0.171985118               0.000000000              -0.308647764              -0.187597883               0.000000000              -0.332566794              -0.203210648               0.000000000              -0.356485823              -0.218823412               0.000000000              -0.380404853              -0.234436177               0.000000000              -0.404323882              -0.250048941               0.000000000              -0.428242912              -0.265661706               0.000000000              -0.452161941              -0.281274471               0.000000000              -0.476080971              -0.296887235               0.000000000              -0.500000000              -0.312500000               0.000000000              -0.110585458              -0.073890841               0.000000000              -0.134923867              -0.092710163               0.000000000              -0.159262276              -0.111529486               0.000000000              -0.183600685              -0.130348808               0.000000000              -0.207939094              -0.149168131               0.000000000              -0.232277503              -0.167987453               0.000000000              -0.256615912              -0.186806776               0.000000000              -0.280954320              -0.205626098               0.000000000              -0.305292729              -0.224445420               0.000000000              -0.329631138              -0.243264743               0.000000000              -0.353969547              -0.262084065               0.000000000              -0.378307956              -0.280903388               0.000000000              -0.402646365              -0.299722710               0.000000000              -0.426984773              -0.318542033               0.000000000              -0.451323182              -0.337361355               0.000000000              -0.475661591              -0.356180678               0.000000000              -0.500000000              -0.375000000               0.000000000              -0.102810390              -0.084374307               0.000000000              -0.127634741              -0.106444663               0.000000000              -0.152459092              -0.128515018               0.000000000              -0.177283442              -0.150585374               0.000000000              -0.202107793              -0.172655730               0.000000000              -0.226932143              -0.194726086               0.000000000              -0.251756494              -0.216796442               0.000000000              -0.276580845              -0.238866798               0.000000000              -0.301405195              -0.260937153               0.000000000              -0.326229546              -0.283007509               0.000000000              -0.351053896              -0.305077865               0.000000000              -0.375878247              -0.327148221               0.000000000              -0.400702598              -0.349218577               0.000000000              -0.425526948              -0.371288933               0.000000000              -0.450351299              -0.393359288               0.000000000              -0.475175649              -0.415429644               0.000000000              -0.500000000              -0.437500000               0.000000000              -0.094045202              -0.094045202               0.000000000              -0.119417377              -0.119417377               0.000000000              -0.144789552              -0.144789552               0.000000000              -0.170161727              -0.170161727               0.000000000              -0.195533901              -0.195533901               0.000000000              -0.220906076              -0.220906076               0.000000000              -0.246278251              -0.246278251               0.000000000              -0.271650426              -0.271650426               0.000000000              -0.297022601              -0.297022601               0.000000000              -0.322394776              -0.322394776               0.000000000              -0.347766951              -0.347766951               0.000000000              -0.373139126              -0.373139126               0.000000000              -0.398511300              -0.398511300               0.000000000              -0.423883475              -0.423883475               0.000000000              -0.449255650              -0.449255650               0.000000000              -0.474627825              -0.474627825               0.000000000              -0.500000000              -0.500000000               0.000000000              -0.084374307              -0.102810390               0.000000000              -0.106444663              -0.127634741               0.000000000              -0.128515018              -0.152459092               0.000000000              -0.150585374              -0.177283442               0.000000000              -0.172655730              -0.202107793               0.000000000              -0.194726086              -0.226932143               0.000000000              -0.216796442              -0.251756494               0.000000000              -0.238866798              -0.276580845               0.000000000              -0.260937153              -0.301405195               0.000000000              -0.283007509              -0.326229546               0.000000000              -0.305077865              -0.351053896               0.000000000              -0.327148221              -0.375878247               0.000000000              -0.349218577              -0.400702598               0.000000000              -0.371288933              -0.425526948               0.000000000              -0.393359288              -0.450351299               0.000000000              -0.415429644              -0.475175649               0.000000000              -0.437500000              -0.500000000               0.000000000              -0.073890841              -0.110585458               0.000000000              -0.092710163              -0.134923867               0.000000000              -0.111529486              -0.159262276               0.000000000              -0.130348808              -0.183600685               0.000000000              -0.149168131              -0.207939094               0.000000000              -0.167987453              -0.232277503               0.000000000              -0.186806776              -0.256615912               0.000000000              -0.205626098              -0.280954320               0.000000000              -0.224445420              -0.305292729               0.000000000              -0.243264743              -0.329631138               0.000000000              -0.262084065              -0.353969547               0.000000000              -0.280903388              -0.378307956               0.000000000              -0.299722710              -0.402646365               0.000000000              -0.318542033              -0.426984773               0.000000000              -0.337361355              -0.451323182               0.000000000              -0.356180678              -0.475661591               0.000000000              -0.375000000              -0.500000000               0.000000000              -0.062695766              -0.117295528               0.000000000              -0.078308531              -0.141214558               0.000000000              -0.093921295              -0.165133587               0.000000000              -0.109534060              -0.189052617               0.000000000              -0.125146824              -0.212971646               0.000000000              -0.140759589              -0.236890676               0.000000000              -0.156372354              -0.260809705               0.000000000              -0.171985118              -0.284728735               0.000000000              -0.187597883              -0.308647764               0.000000000              -0.203210648              -0.332566794               0.000000000              -0.218823412              -0.356485823               0.000000000              -0.234436177              -0.380404853               0.000000000              -0.250048941              -0.404323882               0.000000000              -0.265661706              -0.428242912               0.000000000              -0.281274471              -0.452161941               0.000000000              -0.296887235              -0.476080971               0.000000000              -0.312500000              -0.500000000               0.000000000              -0.050896897              -0.122875978               0.000000000              -0.063340840              -0.146446229               0.000000000              -0.075784784              -0.170016481               0.000000000              -0.088228728              -0.193586732               0.000000000              -0.100672672              -0.217156983               0.000000000              -0.113116616              -0.240727235               0.000000000              -0.125560560              -0.264297486               0.000000000              -0.138004504              -0.287867738               0.000000000              -0.150448448              -0.311437989               0.000000000              -0.162892392              -0.335008240               0.000000000              -0.175336336              -0.358578492               0.000000000              -0.187780280              -0.382148743               0.000000000              -0.200224224              -0.405718994               0.000000000              -0.212668168              -0.429289246               0.000000000              -0.225112112              -0.452859497               0.000000000              -0.237556056              -0.476429749               0.000000000              -0.250000000              -0.500000000               0.000000000              -0.038607862              -0.127273065               0.000000000              -0.047913621              -0.150568498               0.000000000              -0.057219379              -0.173863932               0.000000000              -0.066525138              -0.197159365               0.000000000              -0.075830897              -0.220454798               0.000000000              -0.085136655              -0.243750232               0.000000000              -0.094442414              -0.267045665               0.000000000              -0.103748172              -0.290341099               0.000000000              -0.113053931              -0.313636532               0.000000000              -0.122359690              -0.336931966               0.000000000              -0.131665448              -0.360227399               0.000000000              -0.140971207              -0.383522833               0.000000000              -0.150276966              -0.406818266               0.000000000              -0.159582724              -0.430113700               0.000000000              -0.168888483              -0.453409133               0.000000000              -0.178194241              -0.476704567               0.000000000              -0.187500000              -0.500000000               0.000000000              -0.025947013              -0.130444442               0.000000000              -0.032137825              -0.153541665               0.000000000              -0.038328636              -0.176638887               0.000000000              -0.044519448              -0.199736109               0.000000000              -0.050710260              -0.222833332               0.000000000              -0.056901071              -0.245930554               0.000000000              -0.063091883              -0.269027776               0.000000000              -0.069282695              -0.292124999               0.000000000              -0.075473506              -0.315222221               0.000000000              -0.081664318              -0.338319444               0.000000000              -0.087855130              -0.361416666               0.000000000              -0.094045942              -0.384513888               0.000000000              -0.100236753              -0.407611111               0.000000000              -0.106427565              -0.430708333               0.000000000              -0.112618377              -0.453805555               0.000000000              -0.118809188              -0.476902778               0.000000000              -0.125000000              -0.500000000               0.000000000              -0.013036280              -0.132359569               0.000000000              -0.016127762              -0.155337096               0.000000000              -0.019219245              -0.178314623               0.000000000              -0.022310727              -0.201292150               0.000000000              -0.025402210              -0.224269676               0.000000000              -0.028493692              -0.247247203               0.000000000              -0.031585175              -0.270224730               0.000000000              -0.034676657              -0.293202257               0.000000000              -0.037768140              -0.316179784               0.000000000              -0.040859622              -0.339157311               0.000000000              -0.043951105              -0.362134838               0.000000000              -0.047042587              -0.385112365               0.000000000              -0.050134070              -0.408089892               0.000000000              -0.053225552              -0.431067419               0.000000000              -0.056317035              -0.454044946               0.000000000              -0.059408517              -0.477022473               0.000000000              -0.062500000              -0.500000000               0.000000000               0.000000000              -0.133000000               0.000000000               0.000000000              -0.155937500               0.000000000               0.000000000              -0.178875000               0.000000000               0.000000000              -0.201812500               0.000000000               0.000000000              -0.224750000               0.000000000               0.000000000              -0.247687500               0.000000000               0.000000000              -0.270625000               0.000000000               0.000000000              -0.293562500               0.000000000               0.000000000              -0.316500000               0.000000000               0.000000000              -0.339437500               0.000000000               0.000000000              -0.362375000               0.000000000               0.000000000              -0.385312500               0.000000000               0.000000000              -0.408250000               0.000000000               0.000000000              -0.431187500               0.000000000               0.000000000              -0.454125000               0.000000000               0.000000000              -0.477062500               0.000000000               0.000000000              -0.500000000               0.000000000              -0.133000000               0.000000000               0.000000000              -0.155937500               0.000000000               0.000000000              -0.178875000               0.000000000               0.000000000              -0.201812500               0.000000000               0.000000000              -0.224750000               0.000000000               0.000000000              -0.247687500               0.000000000               0.000000000              -0.270625000               0.000000000               0.000000000              -0.293562500               0.000000000               0.000000000              -0.316500000               0.000000000               0.000000000              -0.339437500               0.000000000               0.000000000              -0.362375000               0.000000000               0.000000000              -0.385312500               0.000000000               0.000000000              -0.408250000               0.000000000               0.000000000              -0.431187500               0.000000000               0.000000000              -0.454125000               0.000000000               0.000000000              -0.477062500               0.000000000               0.000000000              -0.500000000               0.000000000               0.000000000              -0.132359569               0.013036280               0.000000000              -0.155337096               0.016127762               0.000000000              -0.178314623               0.019219245               0.000000000              -0.201292150               0.022310727               0.000000000              -0.224269676               0.025402210               0.000000000              -0.247247203               0.028493692               0.000000000              -0.270224730               0.031585175               0.000000000              -0.293202257               0.034676657               0.000000000              -0.316179784               0.037768140               0.000000000              -0.339157311               0.040859622               0.000000000              -0.362134838               0.043951105               0.000000000              -0.385112365               0.047042587               0.000000000              -0.408089892               0.050134070               0.000000000              -0.431067419               0.053225552               0.000000000              -0.454044946               0.056317035               0.000000000              -0.477022473               0.059408517               0.000000000              -0.500000000               0.062500000               0.000000000              -0.130444442               0.025947013               0.000000000              -0.153541665               0.032137825               0.000000000              -0.176638887               0.038328636               0.000000000              -0.199736109               0.044519448               0.000000000              -0.222833332               0.050710260               0.000000000              -0.245930554               0.056901071               0.000000000              -0.269027776               0.063091883               0.000000000              -0.292124999               0.069282695               0.000000000              -0.315222221               0.075473506               0.000000000              -0.338319444               0.081664318               0.000000000              -0.361416666               0.087855130               0.000000000              -0.384513888               0.094045942               0.000000000              -0.407611111               0.100236753               0.000000000              -0.430708333               0.106427565               0.000000000              -0.453805555               0.112618377               0.000000000              -0.476902778               0.118809188               0.000000000              -0.500000000               0.125000000               0.000000000              -0.127273065               0.038607862               0.000000000              -0.150568498               0.047913621               0.000000000              -0.173863932               0.057219379               0.000000000              -0.197159365               0.066525138               0.000000000              -0.220454798               0.075830897               0.000000000              -0.243750232               0.085136655               0.000000000              -0.267045665               0.094442414               0.000000000              -0.290341099               0.103748172               0.000000000              -0.313636532               0.113053931               0.000000000              -0.336931966               0.122359690               0.000000000              -0.360227399               0.131665448               0.000000000              -0.383522833               0.140971207               0.000000000              -0.406818266               0.150276966               0.000000000              -0.430113700               0.159582724               0.000000000              -0.453409133               0.168888483               0.000000000              -0.476704567               0.178194241               0.000000000              -0.500000000               0.187500000               0.000000000              -0.122875978               0.050896897               0.000000000              -0.146446229               0.063340840               0.000000000              -0.170016481               0.075784784               0.000000000              -0.193586732               0.088228728               0.000000000              -0.217156983               0.100672672               0.000000000              -0.240727235               0.113116616               0.000000000              -0.264297486               0.125560560               0.000000000              -0.287867738               0.138004504               0.000000000              -0.311437989               0.150448448               0.000000000              -0.335008240               0.162892392               0.000000000              -0.358578492               0.175336336               0.000000000              -0.382148743               0.187780280               0.000000000              -0.405718994               0.200224224               0.000000000              -0.429289246               0.212668168               0.000000000              -0.452859497               0.225112112               0.000000000              -0.476429749               0.237556056               0.000000000              -0.500000000               0.250000000               0.000000000              -0.117295528               0.062695766               0.000000000              -0.141214558               0.078308531               0.000000000              -0.165133587               0.093921295               0.000000000              -0.189052617               0.109534060               0.000000000              -0.212971646               0.125146824               0.000000000              -0.236890676               0.140759589               0.000000000              -0.260809705               0.156372354               0.000000000              -0.284728735               0.171985118               0.000000000              -0.308647764               0.187597883               0.000000000              -0.332566794               0.203210648               0.000000000              -0.356485823               0.218823412               0.000000000              -0.380404853               0.234436177               0.000000000              -0.404323882               0.250048941               0.000000000              -0.428242912               0.265661706               0.000000000              -0.452161941               0.281274471               0.000000000              -0.476080971               0.296887235               0.000000000              -0.500000000               0.312500000               0.000000000              -0.110585458               0.073890841               0.000000000              -0.134923867               0.092710163               0.000000000              -0.159262276               0.111529486               0.000000000              -0.183600685               0.130348808               0.000000000              -0.207939094               0.149168131               0.000000000              -0.232277503               0.167987453               0.000000000              -0.256615912               0.186806776               0.000000000              -0.280954320               0.205626098               0.000000000              -0.305292729               0.224445420               0.000000000              -0.329631138               0.243264743               0.000000000              -0.353969547               0.262084065               0.000000000              -0.378307956               0.280903388               0.000000000              -0.402646365               0.299722710               0.000000000              -0.426984773               0.318542033               0.000000000              -0.451323182               0.337361355               0.000000000              -0.475661591               0.356180678               0.000000000              -0.500000000               0.375000000               0.000000000              -0.102810390               0.084374307               0.000000000              -0.127634741               0.106444663               0.000000000              -0.152459092               0.128515018               0.000000000              -0.177283442               0.150585374               0.000000000              -0.202107793               0.172655730               0.000000000              -0.226932143               0.194726086               0.000000000              -0.251756494               0.216796442               0.000000000              -0.276580845               0.238866798               0.000000000              -0.301405195               0.260937153               0.000000000              -0.326229546               0.283007509               0.000000000              -0.351053896               0.305077865               0.000000000              -0.375878247               0.327148221               0.000000000              -0.400702598               0.349218577               0.000000000              -0.425526948               0.371288933               0.000000000              -0.450351299               0.393359288               0.000000000              -0.475175649               0.415429644               0.000000000              -0.500000000               0.437500000               0.000000000              -0.094045202               0.094045202               0.000000000              -0.119417377               0.119417377               0.000000000              -0.144789552               0.144789552               0.000000000              -0.170161727               0.170161727               0.000000000              -0.195533901               0.195533901               0.000000000              -0.220906076               0.220906076               0.000000000              -0.246278251               0.246278251               0.000000000              -0.271650426               0.271650426               0.000000000              -0.297022601               0.297022601               0.000000000              -0.322394776               0.322394776               0.000000000              -0.347766951               0.347766951               0.000000000              -0.373139126               0.373139126               0.000000000              -0.398511300               0.398511300               0.000000000              -0.423883475               0.423883475               0.000000000              -0.449255650               0.449255650               0.000000000              -0.474627825               0.474627825               0.000000000              -0.500000000               0.500000000               0.000000000              -0.084374307               0.102810390               0.000000000              -0.106444663               0.127634741               0.000000000              -0.128515018               0.152459092               0.000000000              -0.150585374               0.177283442               0.000000000              -0.172655730               0.202107793               0.000000000              -0.194726086               0.226932143               0.000000000              -0.216796442               0.251756494               0.000000000              -0.238866798               0.276580845               0.000000000              -0.260937153               0.301405195               0.000000000              -0.283007509               0.326229546               0.000000000              -0.305077865               0.351053896               0.000000000              -0.327148221               0.375878247               0.000000000              -0.349218577               0.400702598               0.000000000              -0.371288933               0.425526948               0.000000000              -0.393359288               0.450351299               0.000000000              -0.415429644               0.475175649               0.000000000              -0.437500000               0.500000000               0.000000000              -0.073890841               0.110585458               0.000000000              -0.092710163               0.134923867               0.000000000              -0.111529486               0.159262276               0.000000000              -0.130348808               0.183600685               0.000000000              -0.149168131               0.207939094               0.000000000              -0.167987453               0.232277503               0.000000000              -0.186806776               0.256615912               0.000000000              -0.205626098               0.280954320               0.000000000              -0.224445420               0.305292729               0.000000000              -0.243264743               0.329631138               0.000000000              -0.262084065               0.353969547               0.000000000              -0.280903388               0.378307956               0.000000000              -0.299722710               0.402646365               0.000000000              -0.318542033               0.426984773               0.000000000              -0.337361355               0.451323182               0.000000000              -0.356180678               0.475661591               0.000000000              -0.375000000               0.500000000               0.000000000              -0.062695766               0.117295528               0.000000000              -0.078308531               0.141214558               0.000000000              -0.093921295               0.165133587               0.000000000              -0.109534060               0.189052617               0.000000000              -0.125146824               0.212971646               0.000000000              -0.140759589               0.236890676               0.000000000              -0.156372354               0.260809705               0.000000000              -0.171985118               0.284728735               0.000000000              -0.187597883               0.308647764               0.000000000              -0.203210648               0.332566794               0.000000000              -0.218823412               0.356485823               0.000000000              -0.234436177               0.380404853               0.000000000              -0.250048941               0.404323882               0.000000000              -0.265661706               0.428242912               0.000000000              -0.281274471               0.452161941               0.000000000              -0.296887235               0.476080971               0.000000000              -0.312500000               0.500000000               0.000000000              -0.050896897               0.122875978               0.000000000              -0.063340840               0.146446229               0.000000000              -0.075784784               0.170016481               0.000000000              -0.088228728               0.193586732               0.000000000              -0.100672672               0.217156983               0.000000000              -0.113116616               0.240727235               0.000000000              -0.125560560               0.264297486               0.000000000              -0.138004504               0.287867738               0.000000000              -0.150448448               0.311437989               0.000000000              -0.162892392               0.335008240               0.000000000              -0.175336336               0.358578492               0.000000000              -0.187780280               0.382148743               0.000000000              -0.200224224               0.405718994               0.000000000              -0.212668168               0.429289246               0.000000000              -0.225112112               0.452859497               0.000000000              -0.237556056               0.476429749               0.000000000              -0.250000000               0.500000000               0.000000000              -0.038607862               0.127273065               0.000000000              -0.047913621               0.150568498               0.000000000              -0.057219379               0.173863932               0.000000000              -0.066525138               0.197159365               0.000000000              -0.075830897               0.220454798               0.000000000              -0.085136655               0.243750232               0.000000000              -0.094442414               0.267045665               0.000000000              -0.103748172               0.290341099               0.000000000              -0.113053931               0.313636532               0.000000000              -0.122359690               0.336931966               0.000000000              -0.131665448               0.360227399               0.000000000              -0.140971207               0.383522833               0.000000000              -0.150276966               0.406818266               0.000000000              -0.159582724               0.430113700               0.000000000              -0.168888483               0.453409133               0.000000000              -0.178194241               0.476704567               0.000000000              -0.187500000               0.500000000               0.000000000              -0.025947013               0.130444442               0.000000000              -0.032137825               0.153541665               0.000000000              -0.038328636               0.176638887               0.000000000              -0.044519448               0.199736109               0.000000000              -0.050710260               0.222833332               0.000000000              -0.056901071               0.245930554               0.000000000              -0.063091883               0.269027776               0.000000000              -0.069282695               0.292124999               0.000000000              -0.075473506               0.315222221               0.000000000              -0.081664318               0.338319444               0.000000000              -0.087855130               0.361416666               0.000000000              -0.094045942               0.384513888               0.000000000              -0.100236753               0.407611111               0.000000000              -0.106427565               0.430708333               0.000000000              -0.112618377               0.453805555               0.000000000              -0.118809188               0.476902778               0.000000000              -0.125000000               0.500000000               0.000000000              -0.013036280               0.132359569               0.000000000              -0.016127762               0.155337096               0.000000000              -0.019219245               0.178314623               0.000000000              -0.022310727               0.201292150               0.000000000              -0.025402210               0.224269676               0.000000000              -0.028493692               0.247247203               0.000000000              -0.031585175               0.270224730               0.000000000              -0.034676657               0.293202257               0.000000000              -0.037768140               0.316179784               0.000000000              -0.040859622               0.339157311               0.000000000              -0.043951105               0.362134838               0.000000000              -0.047042587               0.385112365               0.000000000              -0.050134070               0.408089892               0.000000000              -0.053225552               0.431067419               0.000000000              -0.056317035               0.454044946               0.000000000              -0.059408517               0.477022473               0.000000000              -0.062500000               0.500000000               0.000000000               0.000000000               0.133000000               0.000000000               0.000000000               0.155937500               0.000000000               0.000000000               0.178875000               0.000000000               0.000000000               0.201812500               0.000000000               0.000000000               0.224750000               0.000000000               0.000000000               0.247687500               0.000000000               0.000000000               0.270625000               0.000000000               0.000000000               0.293562500               0.000000000               0.000000000               0.316500000               0.000000000               0.000000000               0.339437500               0.000000000               0.000000000               0.362375000               0.000000000               0.000000000               0.385312500               0.000000000               0.000000000               0.408250000               0.000000000               0.000000000               0.431187500               0.000000000               0.000000000               0.454125000               0.000000000               0.000000000               0.477062500               0.000000000               0.000000000               0.500000000               0.000000000 </DataArray>
</Points>
<Cells>
<DataArray type="Int32"                                    Name="connectivity"                                                      NumberOfComponents=" 1" format="ascii">
         0          1         18         17          1          2         19         18          2          3         20         19          3          4         21         20          4          5         22         21          5          6         23         22          6          7         24         23          7          8         25         24          8          9         26         25          9         10         27         26         10         11         28         27         11         12         29         28         12         13         30         29         13         14         31         30         14         15         32         31         15         16         33         32         17         18         35         34         18         19         36         35         19         20         37         36         20         21         38         37         21         22         39         38         22         23         40         39         23         24         41         40         24         25         42         41         25         26         43         42         26         27         44         43         27         28         45         44         28         29         46         45         29         30         47         46         30         31         48         47         31         32         49         48         32         33         50         49         34         35         52         51         35         36         53         52         36         37         54         53         37         38         55         54         38         39         56         55         39         40         57         56         40         41         58         57         41         42         59         58         42         43         60         59         43         44         61         60         44         45         62         61         45         46         63         62         46         47         64         63         47         48         65         64         48         49         66         65         49         50         67         66         51         52         69         68         52         53         70         69         53         54         71         70         54         55         72         71         55         56         73         72         56         57         74         73         57         58         75         74         58         59         76         75         59         60         77         76         60         61         78         77         61         62         79         78         62         63         80         79         63         64         81         80         64         65         82         81         65         66         83         82         66         67         84         83         68         69         86         85         69         70         87         86         70         71         88         87         71         72         89         88         72         73         90         89         73         74         91         90         74         75         92         91         75         76         93         92         76         77         94         93         77         78         95         94         78         79         96         95         79         80         97         96         80         81         98         97         81         82         99         98         82         83        100         99         83         84        101        100         85         86        103        102         86         87        104        103         87         88        105        104         88         89        106        105         89         90        107        106         90         91        108        107         91         92        109        108         92         93        110        109         93         94        111        110         94         95        112        111         95         96        113        112         96         97        114        113         97         98        115        114         98         99        116        115         99        100        117        116        100        101        118        117        102        103        120        119        103        104        121        120        104        105        122        121        105        106        123        122        106        107        124        123        107        108        125        124        108        109        126        125        109        110        127        126        110        111        128        127        111        112        129        128        112        113        130        129        113        114        131        130        114        115        132        131        115        116        133        132        116        117        134        133        117        118        135        134        119        120        137        136        120        121        138        137        121        122        139        138        122        123        140        139        123        124        141        140        124        125        142        141        125        126        143        142        126        127        144        143        127        128        145        144        128        129        146        145        129        130        147        146        130        131        148        147        131        132        149        148        132        133        150        149        133        134        151        150        134        135        152        151        136        137        154        153        137        138        155        154        138        139        156        155        139        140        157        156        140        141        158        157        141        142        159        158        142        143        160        159        143        144        161        160        144        145        162        161        145        146        163        162        146        147        164        163        147        148        165        164        148        149        166        165        149        150        167        166        150        151        168        167        151        152        169        168        153        154        171        170        154        155        172        171        155        156        173        172        156        157        174        173        157        158        175        174        158        159        176        175        159        160        177        176        160        161        178        177        161        162        179        178        162        163        180        179        163        164        181        180        164        165        182        181        165        166        183        182        166        167        184        183        167        168        185        184        168        169        186        185        170        171        188        187        171        172        189        188        172        173        190        189        173        174        191        190        174        175        192        191        175        176        193        192        176        177        194        193        177        178        195        194        178        179        196        195        179        180        197        196        180        181        198        197        181        182        199        198        182        183        200        199        183        184        201        200        184        185        202        201        185        186        203        202        187        188        205        204        188        189        206        205        189        190        207        206        190        191        208        207        191        192        209        208        192        193        210        209        193        194        211        210        194        195        212        211        195        196        213        212        196        197        214        213        197        198        215        214        198        199        216        215        199        200        217        216        200        201        218        217        201        202        219        218        202        203        220        219        204        205        222        221        205        206        223        222        206        207        224        223        207        208        225        224        208        209        226        225        209        210        227        226        210        211        228        227        211        212        229        228        212        213        230        229        213        214        231        230        214        215        232        231        215        216        233        232        216        217        234        233        217        218        235        234        218        219        236        235        219        220        237        236        221        222        239        238        222        223        240        239        223        224        241        240        224        225        242        241        225        226        243        242        226        227        244        243        227        228        245        244        228        229        246        245        229        230        247        246        230        231        248        247        231        232        249        248        232        233        250        249        233        234        251        250        234        235        252        251        235        236        253        252        236        237        254        253        238        239        256        255        239        240        257        256        240        241        258        257        241        242        259        258        242        243        260        259        243        244        261        260        244        245        262        261        245        246        263        262        246        247        264        263        247        248        265        264        248        249        266        265        249        250        267        266        250        251        268        267        251        252        269        268        252        253        270        269        253        254        271        270        255        256        273        272        256        257        274        273        257        258        275        274        258        259        276        275        259        260        277        276        260        261        278        277        261        262        279        278        262        263        280        279        263        264        281        280        264        265        282        281        265        266        283        282        266        267        284        283        267        268        285        284        268        269        286        285        269        270        287        286        270        271        288        287        306        307          1          0        307        308          2          1        308        309          3          2        309        310          4          3        310        311          5          4        311        312          6          5        312        313          7          6        313        314          8          7        314        315          9          8        315        316         10          9        316        317         11         10        317        318         12         11        318        319         13         12        319        320         14         13        320        321         15         14        321        322         16         15        323        324        307        306        324        325        308        307        325        326        309        308        326        327        310        309        327        328        311        310        328        329        312        311        329        330        313        312        330        331        314        313        331        332        315        314        332        333        316        315        333        334        317        316        334        335        318        317        335        336        319        318        336        337        320        319        337        338        321        320        338        339        322        321        340        341        324        323        341        342        325        324        342        343        326        325        343        344        327        326        344        345        328        327        345        346        329        328        346        347        330        329        347        348        331        330        348        349        332        331        349        350        333        332        350        351        334        333        351        352        335        334        352        353        336        335        353        354        337        336        354        355        338        337        355        356        339        338        357        358        341        340        358        359        342        341        359        360        343        342        360        361        344        343        361        362        345        344        362        363        346        345        363        364        347        346        364        365        348        347        365        366        349        348        366        367        350        349        367        368        351        350        368        369        352        351        369        370        353        352        370        371        354        353        371        372        355        354        372        373        356        355        374        375        358        357        375        376        359        358        376        377        360        359        377        378        361        360        378        379        362        361        379        380        363        362        380        381        364        363        381        382        365        364        382        383        366        365        383        384        367        366        384        385        368        367        385        386        369        368        386        387        370        369        387        388        371        370        388        389        372        371        389        390        373        372        391        392        375        374        392        393        376        375        393        394        377        376        394        395        378        377        395        396        379        378        396        397        380        379        397        398        381        380        398        399        382        381        399        400        383        382        400        401        384        383        401        402        385        384        402        403        386        385        403        404        387        386        404        405        388        387        405        406        389        388        406        407        390        389        408        409        392        391        409        410        393        392        410        411        394        393        411        412        395        394        412        413        396        395        413        414        397        396        414        415        398        397        415        416        399        398        416        417        400        399        417        418        401        400        418        419        402        401        419        420        403        402        420        421        404        403        421        422        405        404        422        423        406        405        423        424        407        406        425        426        409        408        426        427        410        409        427        428        411        410        428        429        412        411        429        430        413        412        430        431        414        413        431        432        415        414        432        433        416        415        433        434        417        416        434        435        418        417        435        436        419        418        436        437        420        419        437        438        421        420        438        439        422        421        439        440        423        422        440        441        424        423        442        443        426        425        443        444        427        426        444        445        428        427        445        446        429        428        446        447        430        429        447        448        431        430        448        449        432        431        449        450        433        432        450        451        434        433        451        452        435        434        452        453        436        435        453        454        437        436        454        455        438        437        455        456        439        438        456        457        440        439        457        458        441        440        459        460        443        442        460        461        444        443        461        462        445        444        462        463        446        445        463        464        447        446        464        465        448        447        465        466        449        448        466        467        450        449        467        468        451        450        468        469        452        451        469        470        453        452        470        471        454        453        471        472        455        454        472        473        456        455        473        474        457        456        474        475        458        457        476        477        460        459        477        478        461        460        478        479        462        461        479        480        463        462        480        481        464        463        481        482        465        464        482        483        466        465        483        484        467        466        484        485        468        467        485        486        469        468        486        487        470        469        487        488        471        470        488        489        472        471        489        490        473        472        490        491        474        473        491        492        475        474        493        494        477        476        494        495        478        477        495        496        479        478        496        497        480        479        497        498        481        480        498        499        482        481        499        500        483        482        500        501        484        483        501        502        485        484        502        503        486        485        503        504        487        486        504        505        488        487        505        506        489        488        506        507        490        489        507        508        491        490        508        509        492        491        510        511        494        493        511        512        495        494        512        513        496        495        513        514        497        496        514        515        498        497        515        516        499        498        516        517        500        499        517        518        501        500        518        519        502        501        519        520        503        502        520        521        504        503        521        522        505        504        522        523        506        505        523        524        507        506        524        525        508        507        525        526        509        508        527        528        511        510        528        529        512        511        529        530        513        512        530        531        514        513        531        532        515        514        532        533        516        515        533        534        517        516        534        535        518        517        535        536        519        518        536        537        520        519        537        538        521        520        538        539        522        521        539        540        523        522        540        541        524        523        541        542        525        524        542        543        526        525        544        545        528        527        545        546        529        528        546        547        530        529        547        548        531        530        548        549        532        531        549        550        533        532        550        551        534        533        551        552        535        534        552        553        536        535        553        554        537        536        554        555        538        537        555        556        539        538        556        557        540        539        557        558        541        540        558        559        542        541        559        560        543        542        561        562        545        544        562        563        546        545        563        564        547        546        564        565        548        547        565        566        549        548        566        567        550        549        567        568        551        550        568        569        552        551        569        570        553        552        570        571        554        553        571        572        555        554        572        573        556        555        573        574        557        556        574        575        558        557        575        576        559        558        576        577        560        559        578        579        596        595        579        580        597        596        580        581        598        597        581        582        599        598        582        583        600        599        583        584        601        600        584        585        602        601        585        586        603        602        586        587        604        603        587        588        605        604        588        589        606        605        589        590        607        606        590        591        608        607        591        592        609        608        592        593        610        609        593        594        611        610        595        596        613        612        596        597        614        613        597        598        615        614        598        599        616        615        599        600        617        616        600        601        618        617        601        602        619        618        602        603        620        619        603        604        621        620        604        605        622        621        605        606        623        622        606        607        624        623        607        608        625        624        608        609        626        625        609        610        627        626        610        611        628        627        612        613        630        629        613        614        631        630        614        615        632        631        615        616        633        632        616        617        634        633        617        618        635        634        618        619        636        635        619        620        637        636        620        621        638        637        621        622        639        638        622        623        640        639        623        624        641        640        624        625        642        641        625        626        643        642        626        627        644        643        627        628        645        644        629        630        647        646        630        631        648        647        631        632        649        648        632        633        650        649        633        634        651        650        634        635        652        651        635        636        653        652        636        637        654        653        637        638        655        654        638        639        656        655        639        640        657        656        640        641        658        657        641        642        659        658        642        643        660        659        643        644        661        660        644        645        662        661        646        647        664        663        647        648        665        664        648        649        666        665        649        650        667        666        650        651        668        667        651        652        669        668        652        653        670        669        653        654        671        670        654        655        672        671        655        656        673        672        656        657        674        673        657        658        675        674        658        659        676        675        659        660        677        676        660        661        678        677        661        662        679        678        663        664        681        680        664        665        682        681        665        666        683        682        666        667        684        683        667        668        685        684        668        669        686        685        669        670        687        686        670        671        688        687        671        672        689        688        672        673        690        689        673        674        691        690        674        675        692        691        675        676        693        692        676        677        694        693        677        678        695        694        678        679        696        695        680        681        698        697        681        682        699        698        682        683        700        699        683        684        701        700        684        685        702        701        685        686        703        702        686        687        704        703        687        688        705        704        688        689        706        705        689        690        707        706        690        691        708        707        691        692        709        708        692        693        710        709        693        694        711        710        694        695        712        711        695        696        713        712        697        698        715        714        698        699        716        715        699        700        717        716        700        701        718        717        701        702        719        718        702        703        720        719        703        704        721        720        704        705        722        721        705        706        723        722        706        707        724        723        707        708        725        724        708        709        726        725        709        710        727        726        710        711        728        727        711        712        729        728        712        713        730        729        714        715        732        731        715        716        733        732        716        717        734        733        717        718        735        734        718        719        736        735        719        720        737        736        720        721        738        737        721        722        739        738        722        723        740        739        723        724        741        740        724        725        742        741        725        726        743        742        726        727        744        743        727        728        745        744        728        729        746        745        729        730        747        746        731        732        749        748        732        733        750        749        733        734        751        750        734        735        752        751        735        736        753        752        736        737        754        753        737        738        755        754        738        739        756        755        739        740        757        756        740        741        758        757        741        742        759        758        742        743        760        759        743        744        761        760        744        745        762        761        745        746        763        762        746        747        764        763        748        749        766        765        749        750        767        766        750        751        768        767        751        752        769        768        752        753        770        769        753        754        771        770        754        755        772        771        755        756        773        772        756        757        774        773        757        758        775        774        758        759        776        775        759        760        777        776        760        761        778        777        761        762        779        778        762        763        780        779        763        764        781        780        765        766        783        782        766        767        784        783        767        768        785        784        768        769        786        785        769        770        787        786        770        771        788        787        771        772        789        788        772        773        790        789        773        774        791        790        774        775        792        791        775        776        793        792        776        777        794        793        777        778        795        794        778        779        796        795        779        780        797        796        780        781        798        797        782        783        800        799        783        784        801        800        784        785        802        801        785        786        803        802        786        787        804        803        787        788        805        804        788        789        806        805        789        790        807        806        790        791        808        807        791        792        809        808        792        793        810        809        793        794        811        810        794        795        812        811        795        796        813        812        796        797        814        813        797        798        815        814        799        800        817        816        800        801        818        817        801        802        819        818        802        803        820        819        803        804        821        820        804        805        822        821        805        806        823        822        806        807        824        823        807        808        825        824        808        809        826        825        809        810        827        826        810        811        828        827        811        812        829        828        812        813        830        829        813        814        831        830        814        815        832        831        816        817        834        833        817        818        835        834        818        819        836        835        819        820        837        836        820        821        838        837        821        822        839        838        822        823        840        839        823        824        841        840        824        825        842        841        825        826        843        842        826        827        844        843        827        828        845        844        828        829        846        845        829        830        847        846        830        831        848        847        831        832        849        848        833        834        562        561        834        835        563        562        835        836        564        563        836        837        565        564        837        838        566        565        838        839        567        566        839        840        568        567        840        841        569        568        841        842        570        569        842        843        571        570        843        844        572        571        844        845        573        572        845        846        574        573        846        847        575        574        847        848        576        575        848        849        577        576        884        885        579        578        885        886        580        579        886        887        581        580        887        888        582        581        888        889        583        582        889        890        584        583        890        891        585        584        891        892        586        585        892        893        587        586        893        894        588        587        894        895        589        588        895        896        590        589        896        897        591        590        897        898        592        591        898        899        593        592        899        900        594        593        901        902        885        884        902        903        886        885        903        904        887        886        904        905        888        887        905        906        889        888        906        907        890        889        907        908        891        890        908        909        892        891        909        910        893        892        910        911        894        893        911        912        895        894        912        913        896        895        913        914        897        896        914        915        898        897        915        916        899        898        916        917        900        899        918        919        902        901        919        920        903        902        920        921        904        903        921        922        905        904        922        923        906        905        923        924        907        906        924        925        908        907        925        926        909        908        926        927        910        909        927        928        911        910        928        929        912        911        929        930        913        912        930        931        914        913        931        932        915        914        932        933        916        915        933        934        917        916        935        936        919        918        936        937        920        919        937        938        921        920        938        939        922        921        939        940        923        922        940        941        924        923        941        942        925        924        942        943        926        925        943        944        927        926        944        945        928        927        945        946        929        928        946        947        930        929        947        948        931        930        948        949        932        931        949        950        933        932        950        951        934        933        952        953        936        935        953        954        937        936        954        955        938        937        955        956        939        938        956        957        940        939        957        958        941        940        958        959        942        941        959        960        943        942        960        961        944        943        961        962        945        944        962        963        946        945        963        964        947        946        964        965        948        947        965        966        949        948        966        967        950        949        967        968        951        950        969        970        953        952        970        971        954        953        971        972        955        954        972        973        956        955        973        974        957        956        974        975        958        957        975        976        959        958        976        977        960        959        977        978        961        960        978        979        962        961        979        980        963        962        980        981        964        963        981        982        965        964        982        983        966        965        983        984        967        966        984        985        968        967        986        987        970        969        987        988        971        970        988        989        972        971        989        990        973        972        990        991        974        973        991        992        975        974        992        993        976        975        993        994        977        976        994        995        978        977        995        996        979        978        996        997        980        979        997        998        981        980        998        999        982        981        999       1000        983        982       1000       1001        984        983       1001       1002        985        984       1003       1004        987        986       1004       1005        988        987       1005       1006        989        988       1006       1007        990        989       1007       1008        991        990       1008       1009        992        991       1009       1010        993        992       1010       1011        994        993       1011       1012        995        994       1012       1013        996        995       1013       1014        997        996       1014       1015        998        997       1015       1016        999        998       1016       1017       1000        999       1017       1018       1001       1000       1018       1019       1002       1001       1020       1021       1004       1003       1021       1022       1005       1004       1022       1023       1006       1005       1023       1024       1007       1006       1024       1025       1008       1007       1025       1026       1009       1008       1026       1027       1010       1009       1027       1028       1011       1010       1028       1029       1012       1011       1029       1030       1013       1012       1030       1031       1014       1013       1031       1032       1015       1014       1032       1033       1016       1015       1033       1034       1017       1016       1034       1035       1018       1017       1035       1036       1019       1018       1037       1038       1021       1020       1038       1039       1022       1021       1039       1040       1023       1022       1040       1041       1024       1023       1041       1042       1025       1024       1042       1043       1026       1025       1043       1044       1027       1026       1044       1045       1028       1027       1045       1046       1029       1028       1046       1047       1030       1029       1047       1048       1031       1030       1048       1049       1032       1031       1049       1050       1033       1032       1050       1051       1034       1033       1051       1052       1035       1034       1052       1053       1036       1035       1054       1055       1038       1037       1055       1056       1039       1038       1056       1057       1040       1039       1057       1058       1041       1040       1058       1059       1042       1041       1059       1060       1043       1042       1060       1061       1044       1043       1061       1062       1045       1044       1062       1063       1046       1045       1063       1064       1047       1046       1064       1065       1048       1047       1065       1066       1049       1048       1066       1067       1050       1049       1067       1068       1051       1050       1068       1069       1052       1051       1069       1070       1053       1052       1071       1072       1055       1054       1072       1073       1056       1055       1073       1074       1057       1056       1074       1075       1058       1057       1075       1076       1059       1058       1076       1077       1060       1059       1077       1078       1061       1060       1078       1079       1062       1061       1079       1080       1063       1062       1080       1081       1064       1063       1081       1082       1065       1064       1082       1083       1066       1065       1083       1084       1067       1066       1084       1085       1068       1067       1085       1086       1069       1068       1086       1087       1070       1069       1088       1089       1072       1071       1089       1090       1073       1072       1090       1091       1074       1073       1091       1092       1075       1074       1092       1093       1076       1075       1093       1094       1077       1076       1094       1095       1078       1077       1095       1096       1079       1078       1096       1097       1080       1079       1097       1098       1081       1080       1098       1099       1082       1081       1099       1100       1083       1082       1100       1101       1084       1083       1101       1102       1085       1084       1102       1103       1086       1085       1103       1104       1087       1086       1105       1106       1089       1088       1106       1107       1090       1089       1107       1108       1091       1090       1108       1109       1092       1091       1109       1110       1093       1092       1110       1111       1094       1093       1111       1112       1095       1094       1112       1113       1096       1095       1113       1114       1097       1096       1114       1115       1098       1097       1115       1116       1099       1098       1116       1117       1100       1099       1117       1118       1101       1100       1118       1119       1102       1101       1119       1120       1103       1102       1120       1121       1104       1103       1122       1123       1106       1105       1123       1124       1107       1106       1124       1125       1108       1107       1125       1126       1109       1108       1126       1127       1110       1109       1127       1128       1111       1110       1128       1129       1112       1111       1129       1130       1113       1112       1130       1131       1114       1113       1131       1132       1115       1114       1132       1133       1116       1115       1133       1134       1117       1116       1134       1135       1118       1117       1135       1136       1119       1118       1136       1137       1120       1119       1137       1138       1121       1120        272        273       1123       1122        273        274       1124       1123        274        275       1125       1124        275        276       1126       1125        276        277       1127       1126        277        278       1128       1127        278        279       1129       1128        279        280       1130       1129        280        281       1131       1130        281        282       1132       1131        282        283       1133       1132        283        284       1134       1133        284        285       1135       1134        285        286       1136       1135        286        287       1137       1136        287        288       1138       1137 </DataArray>
<DataArray type="Int32"                                    Name="offsets"                                                      NumberOfComponents=" 1" format="ascii">
         4          8         12         16         20         24         28         32         36         40         44         48         52         56         60         64         68         72         76         80         84         88         92         96        100        104        108        112        116        120        124        128        132        136        140        144        148        152        156        160        164        168        172        176        180        184        188        192        196        200        204        208        212        216        220        224        228        232        236        240        244        248        252        256        260        264        268        272        276        280        284        288        292        296        300        304        308        312        316        320        324        328        332        336        340        344        348        352        356        360        364        368        372        376        380        384        388        392        396        400        404        408        412        416        420        424        428        432        436        440        444        448        452        456        460        464        468        472        476        480        484        488        492        496        500        504        508        512        516        520        524        528        532        536        540        544        548        552        556        560        564        568        572        576        580        584        588        592        596        600        604        608        612        616        620        624        628        632        636        640        644        648        652        656        660        664        668        672        676        680        684        688        692        696        700        704        708        712        716        720        724        728        732        736        740        744        748        752        756        760        764        768        772        776        780        784        788        792        796        800        804        808        812        816        820        824        828        832        836        840        844        848        852        856        860        864        868        872        876        880        884        888        892        896        900        904        908        912        916        920        924        928        932        936        940        944        948        952        956        960        964        968        972        976        980        984        988        992        996       1000       1004       1008       1012       1016       1020       1024       1028       1032       1036       1040       1044       1048       1052       1056       1060       1064       1068       1072       1076       1080       1084       1088       1092       1096       1100       1104       1108       1112       1116       1120       1124       1128       1132       1136       1140       1144       1148       1152       1156       1160       1164       1168       1172       1176       1180       1184       1188       1192       1196       1200       1204       1208       1212       1216       1220       1224       1228       1232       1236       1240       1244       1248       1252       1256       1260       1264       1268       1272       1276       1280       1284       1288       1292       1296       1300       1304       1308       1312       1316       1320       1324       1328       1332       1336       1340       1344       1348       1352       1356       1360       1364       1368       1372       1376       1380       1384       1388       1392       1396       1400       1404       1408       1412       1416       1420       1424       1428       1432       1436       1440       1444       1448       1452       1456       1460       1464       1468       1472       1476       1480       1484       1488       1492       1496       1500       1504       1508       1512       1516       1520       1524       1528       1532       1536       1540       1544       1548       1552       1556       1560       1564       1568       1572       1576       1580       1584       1588       1592       1596       1600       1604       1608       1612       1616       1620       1624       1628       1632       1636       1640       1644       1648       1652       1656       1660       1664       1668       1672       1676       1680       1684       1688       1692       1696       1700       1704       1708       1712       1716       1720       1724       1728       1732       1736       1740       1744       1748       1752       1756       1760       1764       1768       1772       1776       1780       1784       1788       1792       1796       1800       1804       1808       1812       1816       1820       1824       1828       1832       1836       1840       1844       1848       1852       1856       1860       1864       1868       1872       1876       1880       1884       1888       1892       1896       1900       1904       1908       1912       1916       1920       1924       1928       1932       1936       1940       1944       1948       1952       1956       1960       1964       1968       1972       1976       1980       1984       1988       1992       1996       2000       2004       2008       2012       2016       2020       2024       2028       2032       2036       2040       2044       2048       2052       2056       2060       2064       2068       2072       2076       2080       2084       2088       2092       2096       2100       2104       2108       2112       2116       2120       2124       2128       2132       2136       2140       2144       2148       2152       2156       2160       2164       2168       2172       2176       2180       2184       2188       2192       2196       2200       2204       2208       2212       2216       2220       2224       2228       2232       2236       2240       2244       2248       2252       2256       2260       2264       2268       2272       2276       2280       2284       2288       2292       2296       2300       2304       2308       2312       2316       2320       2324       2328       2332       2336       2340       2344       2348       2352       2356       2360       2364       2368       2372       2376       2380       2384       2388       2392       2396       2400       2404       2408       2412       2416       2420       2424       2428       2432       2436       2440       2444       2448       2452       2456       2460       2464       2468       2472       2476       2480       2484       2488       2492       2496       2500       2504       2508       2512       2516       2520       2524       2528       2532       2536       2540       2544       2548       2552       2556       2560       2564       2568       2572       2576       2580       2584       2588       2592       2596       2600       2604       2608       2612       2616       2620       2624       2628       2632       2636       2640       2644       2648       2652       2656       2660       2664       2668       2672       2676       2680       2684       2688       2692       2696       2700       2704       2708       2712       2716       2720       2724       2728       2732       2736       2740       2744       2748       2752       2756       2760       2764       2768       2772       2776       2780       2784       2788       2792       2796       2800       2804       2808       2812       2816       2820       2824       2828       2832       2836       2840       2844       2848       2852       2856       2860       2864       2868       2872       2876       2880       2884       2888       2892       2896       2900       2904       2908       2912       2916       2920       2924       2928       2932       2936       2940       2944       2948       2952       2956       2960       2964       2968       2972       2976       2980       2984       2988       2992       2996       3000       3004       3008       3012       3016       3020       3024       3028       3032       3036       3040       3044       3048       3052       3056       3060       3064       3068       3072       3076       3080       3084       3088       3092       3096       3100       3104       3108       3112       3116       3120       3124       3128       3132       3136       3140       3144       3148       3152       3156       3160       3164       3168       3172       3176       3180       3184       3188       3192       3196       3200       3204       3208       3212       3216       3220       3224       3228       3232       3236       3240       3244       3248       3252       3256       3260       3264       3268       3272       3276       3280       3284       3288       3292       3296       3300       3304       3308       3312       3316       3320       3324       3328       3332       3336       3340       3344       3348       3352       3356       3360       3364       3368       3372       3376       3380       3384       3388       3392       3396       3400       3404       3408       3412       3416       3420       3424       3428       3432       3436       3440       3444       3448       3452       3456       3460       3464       3468       3472       3476       3480       3484       3488       3492       3496       3500       3504       3508       3512       3516       3520       3524       3528       3532       3536       3540       3544       3548       3552       3556       3560       3564       3568       3572       3576       3580       3584       3588       3592       3596       3600       3604       3608       3612       3616       3620       3624       3628       3632       3636       3640       3644       3648       3652       3656       3660       3664       3668       3672       3676       3680       3684       3688       3692       3696       3700       3704       3708       3712       3716       3720       3724       3728       3732       3736       3740       3744       3748       3752       3756       3760       3764       3768       3772       3776       3780       3784       3788       3792       3796       3800       3804       3808       3812       3816       3820       3824       3828       3832       3836       3840       3844       3848       3852       3856       3860       3864       3868       3872       3876       3880       3884       3888       3892       3896       3900       3904       3908       3912       3916       3920       3924       3928       3932       3936       3940       3944       3948       3952       3956       3960       3964       3968       3972       3976       3980       3984       3988       3992       3996       4000       4004       4008       4012       4016       4020       4024       4028       4032       4036       4040       4044       4048       4052       4056       4060       4064       4068       4072       4076       4080       4084       4088       4092       4096 </DataArray>
<DataArray type="UInt8"                                    Name="types"                                                      NumberOfComponents=" 1" format="ascii">
         9          9          9          9          9          9          9          9          9          9          9          9          9          9          9          9          9          9          9          9          9          9          9          9          9          9          9          9          9          9          9          9          9          9          9          9          9          9          9          9          9          9          9          9          9          9          9          9          9          9          9          9          9          9          9          9          9          9          9          9          9          9          9          9          9          9          9          9          9          9          9          9          9          9          9          9          9          9          9          9          9          9          9          9          9          9          9          9          9          9          9          9          9          9          9          9          9          9          9          9          9          9          9          9          9          9          9          9          9          9          9          9          9          9          9          9          9          9          9          9          9          9          9          9          9          9          9          9          9          9          9          9          9          9          9          9          9          9          9          9          9          9          9          9          9          9          9          9          9          9          9          9          9          9          9          9          9          9          9          9          9          9          9          9          9          9          9          9          9          9          9          9          9          9          9          9          9          9          9          9          9          9          9          9          9          9          9          9          9          9          9          9          9          9          9          9          9          9          9          9          9          9          9          9          9          9          9          9          9          9          9          9          9          9          9          9          9          9          9          9          9          9          9          9          9          9          9          9          9          9          9          9          9          9          9          9          9          9          9          9          9          9          9          9          9          9          9          9          9          9          9          9          9          9          9          9          9          9          9          9          9          9          9          9          9          9          9          9          9          9          9          9          9          9          9          9          9          9          9          9          9          9          9          9          9          9          9          9          9          9          9          9          9          9          9          9          9          9          9          9          9          9          9          9          9          9          9          9          9          9          9          9          9          9          9          9          9          9          9          9          9          9          9          9          9          9          9          9          9          9          9          9          9          9          9          9          9          9          9          9          9          9          9          9          9          9          9          9          9          9          9          9          9          9          9          9          9          9          9          9          9          9          9          9          9          9          9          9          9          9          9          9          9          9          9          9          9          9          9          9          9          9          9          9          9          9          9          9          9          9          9          9          9          9          9          9          9          9          9          9          9          9          9          9          9          9          9          9          9          9          9          9          9          9          9          9          9          9          9          9          9          9          9          9          9          9          9          9          9          9          9          9          9          9          9          9          9          9          9          9          9          9          9          9          9          9          9          9          9          9          9          9          9          9          9          9          9          9          9          9          9          9          9          9          9          9          9          9          9          9          9          9          9          9          9          9          9          9          9          9          9          9          9          9          9          9          9          9          9          9          9          9          9          9          9          9          9          9          9          9          9          9          9          9          9          9          9          9          9          9          9          9          9          9          9          9          9          9          9          9          9          9          9          9          9          9          9          9          9          9          9          9          9          9          9          9          9          9          9          9          9          9          9          9          9          9          9          9          9          9          9          9          9          9          9          9          9          9          9          9          9          9          9          9          9          9          9          9          9          9          9          9          9          9          9          9          9          9          9          9          9          9          9          9          9          9          9          9          9          9          9          9          9          9          9          9          9          9          9          9          9          9          9          9          9          9          9          9          9          9          9          9          9          9          9          9          9          9          9          9          9          9          9          9          9          9          9          9          9          9          9          9          9          9          9          9          9          9          9          9          9          9          9          9          9          9          9          9          9          9          9          9          9          9          9          9          9          9          9          9          9          9          9          9          9          9          9          9          9          9          9          9          9          9          9          9          9          9          9          9          9          9          9          9          9          9          9          9          9          9          9          9          9          9          9          9          9          9          9          9          9          9          9          9          9          9          9          9          9          9          9          9          9          9          9          9          9          9          9          9          9          9          9          9          9          9          9          9          9          9          9          9          9          9          9          9          9          9          9          9          9          9          9          9          9          9          9          9          9          9          9          9          9          9          9          9          9          9          9          9          9          9          9          9          9          9          9          9          9          9          9          9          9          9          9          9          9          9          9          9          9          9          9          9          9          9          9          9          9          9          9          9          9          9          9          9          9          9          9          9          9          9          9          9          9          9          9          9          9          9          9          9          9          9          9          9          9          9          9          9          9          9          9          9          9          9          9          9          9          9          9          9          9          9          9          9          9          9          9          9          9          9          9          9          9          9          9          9          9          9          9          9          9          9          9          9          9          9          9          9          9          9          9          9          9          9          9          9          9          9          9          9          9          9          9          9          9          9          9          9          9          9          9          9          9          9          9          9          9          9          9          9          9          9          9          9          9          9          9          9          9          9          9          9          9          9          9          9          9          9          9          9          9          9          9          9          9          9          9          9          9          9          9          9          9          9          9          9          9          9          9          9          9          9          9          9          9          9          9          9          9          9          9          9          9          9          9          9          9          9          9          9          9          9          9          9          9          9          9          9          9          9          9          9          9          9          9          9          9          9          9          9          9          9          9          9          9          9          9          9          9          9          9          9          9          9          9          9          9          9          9          9          9          9          9          9          9          9          9          9          9          9          9          9          9          9          9          9          9          9          9          9          9          9          9          9          9          9          9          9          9          9          9          9 </DataArray>
</Cells>
<CellData>
<DataArray type="Int32"                                    Name="material"                                                      NumberOfComponents=" 1" format="ascii">
         1          1          1          1          1          1          1          1          1          1          1          1          1          1          1          1          1          1          1          1          1          1          1          1          1          1          1          1          1          1          1          1          1          1          1          1          1          1          1          1          1          1          1          1          1          1          1          1          1          1          1          1          1          1          1          1          1          1          1          1          1          1          1          1          1          1          1          1          1          1          1          1          1          1          1          1          1          1          1          1          1          1          1          1          1          1          1          1          1          1          1          1          1          1          1          1          1          1          1          1          1          1          1          1          1          1          1          1          1          1          1          1          1          1          1          1          1          1          1          1          1          1          1          1          1          1          1          1          1          1          1          1          1          1          1          1          1          1          1          1          1          1          1          1          1          1          1          1          1          1          1          1          1          1          1          1          1          1          1          1          1          1          1          1          1          1          1          1          1          1          1          1          1          1          1          1          1          1          1          1          1          1          1          1          1          1          1          1          1          1          1          1          1          1          1          1          1          1          1          1          1          1          1          1          1          1          1          1          1          1          1          1          1          1          1          1          1          1          1          1          1          1          1          1          1          1          1          1          1          1          1          1          1          1          1          1          1          1          1          1          1          1          1          1          1          1          1          1          1          1          1          1          1          1          1          1          1          1          1          1          1          1          1          1          1          1          1          1          1          1          1          1          1          1          1          1          1          1          1          1          1          1          1          1          1          1          1          1          1          1          1          1          1          1          1          1          1          1          1          1          1          1          1          1          1          1          1          1          1          1          1          1          1          1          1          1          1          1          1          1          1          1          1          1          1          1          1          1          1          1          1          1          1          1          1          1          1          1          1          1          1          1          1          1          1          1          1          1          1          1          1          1          1          1          1          1          1          1          1          1          1          1          1          1          1          1          1          1          1          1          1          1          1          1          1          1          1          1          1          1          1          1          1          1          1          1          1          1          1          1          1          1          1          1          1          1          1          1          1          1          1          1          1          1          1          1          1          1          1          1          1          1          1          1          1          1          1          1          1          1          1          1          1          1          1          1          1          1          1          1          1          1          1          1          1          1          1          1          1          1          1          1          1          1          1          1          1          1          1          1          1          1          1          1          1          1          1          1          1          1          1          1          1          1          1          1          1          1          1          1          1          1          1          1          1          1          1          1          1          1          1          1          1          1          1          1          1          1          1          1          1          1          1          1          1          1          1          1          1          1          1          1          1          1          1          1          1          1          1          1          1          1          1          1          1          1          1          1          1          1          1          1          1          1          1          1          1          1          1          1          1          1          1          1          1          1          1          1          1          1          1          1          1          1          1          1          1          1          1          1          1          1          1          1          1          1          1          1          1          1          1          1          1          1          1          1          1          1          1          1          1          1          1          1          1          1          1          1          1          1          1          1          1          1          1          1          1          1          1          1          1          1          1          1          1          1          1          1          1          1          1          1          1          1          1          1          1          1          1          1          1          1          1          1          1          1          1          1          1          1          1          1          1          1          1          1          1          1          1          1          1          1          1          1          1          1          1          1          1          1          1          1          1          1          1          1          1          1          1          1          1          1          1          1          1          1          1          1          1          1          1          1          1          1          1          1          1          1          1          1          1          1          1          1          1          1          1          1          1          1          1          1          1          1          1          1          1          1          1          1          1          1          1          1          1          1          1          1          1          1          1          1          1          1          1          1          1          1          1          1          1          1          1          1          1          1          1          1          1          1          1          1          1          1          1          1          1          1          1          1          1          1          1          1          1          1          1          1          1          1          1          1          1          1          1          1          1          1          1          1          1          1          1          1          1          1          1          1          1          1          1          1          1          1          1          1          1          1          1          1          1          1          1          1          1          1          1          1          1          1          1          1          1          1          1          1          1          1          1          1          1          1          1          1          1          1          1          1          1          1          1          1          1          1          1          1          1          1          1          1          1          1          1          1          1          1          1          1          1          1          1          1          1          1          1          1          1          1          1          1          1          1          1          1          1          1          1          1          1          1          1          1          1          1          1          1          1          1          1          1          1          1          1          1          1          1          1          1          1          1          1          1          1          1          1          1          1          1          1          1          1          1          1          1          1          1          1          1          1          1          1          1          1          1          1          1          1          1          1          1          1          1          1          1          1          1          1          1          1          1          1          1          1          1          1          1          1          1          1          1          1          1          1          1          1          1          1          1          1          1          1          1          1          1          1          1          1          1          1          1          1          1          1          1          1          1          1          1          1          1          1          1          1          1          1          1          1          1          1          1          1          1          1          1          1          1          1          1          1          1          1          1          1          1          1          1          1          1          1          1          1          1          1          1          1          1          1          1          1          1          1          1          1          1          1          1          1          1          1          1          1          1          1          1          1          1          1          1          1          1          1          1          1          1          1          1          1          1          1          1          1          1          1          1          1          1          1          1          1          1          1          1          1          1 </DataArray>
</CellData>
<PointData>
<DataArray type="Float64"                                    Name="u"                                                      NumberOfComponents=" 3" format="ascii">
             -0.000785589               0.000000000               0.999999984              -0.000837262              -0.000000000               0.999999984              -0.000859710              -0.000000000               0.999999984              -0.000872257               0.000000000               0.999999984              -0.000882006              -0.000000000               0.999999984              -0.000891603              -0.000000000               0.999999984              -0.000901997              -0.000000000               0.999999984              -0.000913639               0.000000000               0.999999984              -0.000926453              -0.000000000               0.999999984              -0.000940313               0.000000000               0.999999984              -0.000954984              -0.000000000               0.999999984              -0.000970052              -0.000000000               0.999999984              -0.000985267              -0.000000000               0.999999984              -0.001000237               0.000000000               0.999999984              -0.001014242              -0.000000000               0.999999984              -0.001026422              -0.000000000               0.999999984              -0.001035850               0.000000000               0.999999984              -0.000781135               0.000133964               0.999999984              -0.000828854               0.000108239               0.999999984              -0.000848782               0.000096747               0.999999984              -0.000859759               0.000092101               0.999999984              -0.000868473               0.000091142               0.999999984              -0.000877329               0.000091856               0.999999984              -0.000887232               0.000093710               0.999999984              -0.000898330               0.000096050               0.999999984              -0.000910550               0.000098231               0.999999984              -0.000923637               0.000100004               0.999999984              -0.000937301               0.000101047               0.999999984              -0.000951209               0.000100976               0.999999984              -0.000964880               0.000099431               0.999999984              -0.000977827               0.000095504               0.999999984              -0.000989476               0.000088560               0.999999984              -0.000999206               0.000077849               0.999999984              -0.001006310               0.000062634               0.999999984              -0.000768150               0.000266569               0.999999984              -0.000804235               0.000215959               0.999999984              -0.000816989               0.000194141               0.999999984              -0.000823594               0.000186070               0.999999984              -0.000829583               0.000184841               0.999999984              -0.000836472               0.000187069               0.999999984              -0.000844721               0.000191101               0.999999984              -0.000854278               0.000196001               0.999999984              -0.000864901               0.000200495               0.999999984              -0.000876069               0.000203918               0.999999984              -0.000887179               0.000205675               0.999999984              -0.000897583               0.000205031               0.999999984              -0.000906832               0.000201312               0.999999984              -0.000914520               0.000193441               0.999999984              -0.000920194               0.000180256               0.999999984              -0.000923635               0.000160906               0.999999984              -0.000924555               0.000134184               0.999999984              -0.000746885               0.000396615               0.999999984              -0.000764664               0.000322713               0.999999984              -0.000767304               0.000292798               0.999999984              -0.000768171               0.000282977               0.999999984              -0.000770540               0.000282843               0.999999984              -0.000774934               0.000287296               0.999999984              -0.000781095               0.000294116               0.999999984              -0.000788610               0.000301804               0.999999984              -0.000796601               0.000308538               0.999999984              -0.000804212               0.000313252               0.999999984              -0.000810703               0.000315022               0.999999984              -0.000815369               0.000313197               0.999999984              -0.000817694               0.000307074               0.999999984              -0.000817562               0.000295547               0.999999984              -0.000814906               0.000277774               0.999999984              -0.000809701               0.000253053               0.999999984              -0.000802288               0.000220564               0.999999984              -0.000717752               0.000522907               0.999999984              -0.000712277               0.000428295               0.999999984              -0.000703613               0.000393105               0.999999984              -0.000698693               0.000383343               0.999999984              -0.000697819               0.000385415               0.999999984              -0.000700004               0.000392718               0.999999984              -0.000704008               0.000402691               0.999999984              -0.000708803               0.000413008               0.999999984              -0.000713182               0.000421492               0.999999984              -0.000716002               0.000426817               0.999999984              -0.000716509               0.000428052               0.999999984              -0.000714136               0.000424490               0.999999984              -0.000708619               0.000415715               0.999999984              -0.000699970               0.000401230               0.999999984              -0.000688346               0.000380572               0.999999984              -0.000674282               0.000353686               0.999999984              -0.000658519               0.000321010               0.999999984              -0.000681508               0.000644153               0.999999984              -0.000649749               0.000532651               0.999999984              -0.000630371               0.000494994               0.999999984              -0.000621101               0.000486866               0.999999984              -0.000618164               0.000491720               0.999999984              -0.000618688               0.000502174               0.999999984              -0.000620820               0.000514959               0.999999984              -0.000622771               0.000527190               0.999999984              -0.000622900               0.000536630               0.999999984              -0.000620154               0.000541858               0.999999984              -0.000613839               0.000542050               0.999999984              -0.000603694               0.000536775               0.999999984              -0.000589862               0.000525850               0.999999984              -0.000572578               0.000509240               0.999999984              -0.000552319               0.000487315               0.999999984              -0.000529824               0.000460611               0.999999984              -0.000505871               0.000430419               0.999999984              -0.000638614               0.000759274               0.999999984              -0.000580138               0.000635778               0.999999984              -0.000552592               0.000597800               0.999999984              -0.000541066               0.000592194               0.999999984              -0.000537505               0.000599963               0.999999984              -0.000537406               0.000613098               0.999999984              -0.000537910               0.000627981               0.999999984              -0.000536702               0.000641340               0.999999984              -0.000531998               0.000650886               0.999999984              -0.000522886               0.000655503               0.999999984              -0.000509007               0.000654579               0.999999984              -0.000490469               0.000647926               0.999999984              -0.000467724               0.000635587               0.999999984              -0.000441381               0.000618120               0.999999984              -0.000412085               0.000596460               0.999999984              -0.000380724               0.000571634               0.999999984              -0.000348078               0.000544857               0.999999984              -0.000589927               0.000867134               0.999999984              -0.000506760               0.000737382               0.999999984              -0.000474437               0.000700705               0.999999984              -0.000463364               0.000697437               0.999999984              -0.000460650               0.000707598               0.999999984              -0.000460375               0.000722881               0.999999984              -0.000459075               0.000739253               0.999999984              -0.000454153               0.000753089               0.999999984              -0.000443841               0.000762235               0.999999984              -0.000427423               0.000766030               0.999999984              -0.000405119               0.000764036               0.999999984              -0.000377348               0.000756283               0.999999984              -0.000344840               0.000743423               0.999999984              -0.000308463               0.000726284               0.999999984              -0.000269317               0.000706113               0.999999984              -0.000228475               0.000684122               0.999999984              -0.000186841               0.000661091               0.999999984              -0.000537086               0.000965880               0.999999984              -0.000432006               0.000837366               0.999999984              -0.000400056               0.000802138               0.999999984              -0.000391368               0.000800547               0.999999984              -0.000390161               0.000812547               0.999999984              -0.000389728               0.000829520               0.999999984              -0.000386250               0.000846799               0.999999984              -0.000376720               0.000860697               0.999999984              -0.000359595               0.000869331               0.999999984              -0.000334795               0.000872231               0.999999984              -0.000302875               0.000869263               0.999999984              -0.000264603               0.000860878               0.999999984              -0.000221172               0.000848201               0.999999984              -0.000174004               0.000832436               0.999999984              -0.000124704               0.000814859               0.999999984              -0.000074471               0.000796411               0.999999984              -0.000024057               0.000777780               0.999999984              -0.000482434               0.001059121               0.999999984              -0.000369585               0.000948669               0.999999984              -0.000334662               0.000909219               0.999999984              -0.000324937               0.000902190               0.999999984              -0.000323445               0.000909814               0.999999984              -0.000323489               0.000924209               0.999999984              -0.000321457               0.000941012               0.999999984              -0.000315043               0.000957004               0.999999984              -0.000302040               0.000969783               0.999999984              -0.000281798               0.000978432               0.999999984              -0.000254535               0.000982588               0.999999984              -0.000220547               0.000982406               0.999999984              -0.000180504               0.000978187               0.999999984              -0.000135493               0.000971047               0.999999984              -0.000086900               0.000961811               0.999999984              -0.000036463               0.000951483               0.999999984               0.000014593               0.000940579               0.999999984              -0.000422587               0.001143836               0.999999984              -0.000310041               0.001056243               0.999999984              -0.000272211               0.001019016               0.999999984              -0.000260806               0.001008964               0.999999984              -0.000258420               0.001013530               0.999999984              -0.000258267               0.001025923               0.999999984              -0.000257021               0.001042190               0.999999984              -0.000252718               0.001059571               0.999999984              -0.000243266               0.001075744               0.999999984              -0.000227313               0.001089310               0.999999984              -0.000204664               0.001099590               0.999999984              -0.000175198               0.001106462               0.999999984              -0.000139362               0.001109897               0.999999984              -0.000097474               0.001110446               0.999999984              -0.000050549               0.001108919               0.999999984              -0.000000309               0.001106085               0.999999984               0.000051623               0.001102657               0.999999984              -0.000358687               0.001218118               0.999999984              -0.000253239               0.001156917               0.999999984              -0.000214415               0.001126481               0.999999984              -0.000201234               0.001116915               0.999999984              -0.000197534               0.001120403               0.999999984              -0.000196713               0.001131869               0.999999984              -0.000195533               0.001148091               0.999999984              -0.000192367               0.001166641               0.999999984              -0.000185564               0.001185676               0.999999984              -0.000173552               0.001203479               0.999999984              -0.000155383               0.001219238               0.999999984              -0.000130873               0.001232443               0.999999984              -0.000099779               0.001242959               0.999999984              -0.000062008               0.001250854               0.999999984              -0.000017822               0.001256553               0.999999984               0.000031604               0.001260839               0.999999984               0.000084658               0.001264389               0.999999984              -0.000291323               0.001280718               0.999999984              -0.000199186               0.001246514               0.999999984              -0.000162160               0.001226187               0.999999984              -0.000148028               0.001220195               0.999999984              -0.000143103               0.001224900               0.999999984              -0.000141320               0.001236965               0.999999984              -0.000139916               0.001253932               0.999999984              -0.000137310               0.001273983               0.999999984              -0.000132286               0.001295607               0.999999984              -0.000123373               0.001317497               0.999999984              -0.000109393               0.001338437               0.999999984              -0.000089903               0.001357785               0.999999984              -0.000064194               0.001375144               0.999999984              -0.000031519               0.001390331               0.999999984               0.000008377               0.001403309               0.999999984               0.000055412               0.001414533               0.999999984               0.000108883               0.001424782               0.999999984              -0.000221124               0.001330536               0.999999984              -0.000147490               0.001321033               0.999999984              -0.000115538               0.001312314               0.999999984              -0.000102147               0.001311832               0.999999984              -0.000096791               0.001319423               0.999999984              -0.000094304               0.001333437               0.999999984              -0.000092601               0.001352183               0.999999984              -0.000090365               0.001374407               0.999999984              -0.000086557               0.001398871               0.999999984              -0.000080043               0.001424505               0.999999984              -0.000069925               0.001450353               0.999999984              -0.000055409               0.001475659               0.999999984              -0.000035412               0.001499829               0.999999984              -0.000009124               0.001522465               0.999999984               0.000024470               0.001543195               0.999999984               0.000066322               0.001561982               0.999999984               0.000117195               0.001579170               0.999999984              -0.000148679               0.001366772               0.999999984              -0.000097495               0.001377018               0.999999984              -0.000073927               0.001379028               0.999999984              -0.000063312               0.001384498               0.999999984              -0.000058638               0.001395752               0.999999984              -0.000056324               0.001412370               0.999999984              -0.000054621               0.001433438               0.999999984              -0.000052752               0.001458097               0.999999984              -0.000050039               0.001485439               0.999999984              -0.000045781               0.001514546               0.999999984              -0.000039083               0.001544722               0.999999984              -0.000029238               0.001575351               0.999999984              -0.000015512               0.001605759               0.999999984               0.000003102               0.001635544               0.999999984               0.000027818               0.001664035               0.999999984               0.000060106               0.001690716               0.999999984               0.000101861               0.001715214               0.999999984              -0.000074709               0.001388745               0.999999984              -0.000048529               0.001411748               0.999999984              -0.000035990               0.001421382               0.999999984              -0.000030087               0.001431409               0.999999984              -0.000027333               0.001445676               0.999999984              -0.000025973               0.001464637               0.999999984              -0.000024883               0.001487771               0.999999984              -0.000023639               0.001514374               0.999999984              -0.000022234               0.001543859               0.999999984              -0.000020175               0.001575546               0.999999984              -0.000016803               0.001608828               0.999999984              -0.000011854               0.001643192               0.999999984              -0.000004802               0.001678142               0.999999984               0.000005016               0.001713154               0.999999984               0.000018261               0.001747450               0.999999984               0.000035991               0.001780333               0.999999984               0.000059818               0.001810741               0.999999984               0.000000000               0.001396079               0.999999984               0.000000000               0.001423516               0.999999984              -0.000000000               0.001435944               0.999999984              -0.000000000               0.001447674               0.999999984              -0.000000000               0.001463105               0.999999984               0.000000000               0.001482970               0.999999984               0.000000000               0.001506969               0.999999984               0.000000000               0.001534347               0.999999984               0.000000000               0.001564517               0.999999984               0.000000000               0.001597081               0.999999984               0.000000000               0.001631531               0.999999984              -0.000000000               0.001667333               0.999999984              -0.000000000               0.001703937               0.999999984              -0.000000000               0.001740840               0.999999984              -0.000000000               0.001777206               0.999999984              -0.000000000               0.001812222               0.999999984              -0.000000000               0.001844802               0.999999984              -0.000785589               0.000000000               0.999999984              -0.000837262              -0.000000000               0.999999984              -0.000859710              -0.000000000               0.999999984              -0.000872257               0.000000000               0.999999984              -0.000882006              -0.000000000               0.999999984              -0.000891603              -0.000000000               0.999999984              -0.000901997              -0.000000000               0.999999984              -0.000913639               0.000000000               0.999999984              -0.000926453              -0.000000000               0.999999984              -0.000940313               0.000000000               0.999999984              -0.000954984              -0.000000000               0.999999984              -0.000970052              -0.000000000               0.999999984              -0.000985267              -0.000000000               0.999999984              -0.001000237               0.000000000               0.999999984              -0.001014242              -0.000000000               0.999999984              -0.001026422              -0.000000000               0.999999984              -0.001035850               0.000000000               0.999999984              -0.000781135              -0.000133964               0.999999984              -0.000828854              -0.000108239               0.999999984              -0.000848782              -0.000096747               0.999999984              -0.000859759              -0.000092101               0.999999984              -0.000868473              -0.000091142               0.999999984              -0.000877329              -0.000091856               0.999999984              -0.000887232              -0.000093710               0.999999984              -0.000898330              -0.000096050               0.999999984              -0.000910550              -0.000098231               0.999999984              -0.000923637              -0.000100004               0.999999984              -0.000937301              -0.000101047               0.999999984              -0.000951209              -0.000100976               0.999999984              -0.000964880              -0.000099431               0.999999984              -0.000977827              -0.000095504               0.999999984              -0.000989476              -0.000088560               0.999999984              -0.000999206              -0.000077849               0.999999984              -0.001006310              -0.000062634               0.999999984              -0.000768150              -0.000266569               0.999999984              -0.000804235              -0.000215959               0.999999984              -0.000816989              -0.000194141               0.999999984              -0.000823594              -0.000186070               0.999999984              -0.000829583              -0.000184841               0.999999984              -0.000836472              -0.000187069               0.999999984              -0.000844721              -0.000191101               0.999999984              -0.000854278              -0.000196001               0.999999984              -0.000864901              -0.000200495               0.999999984              -0.000876069              -0.000203918               0.999999984              -0.000887179              -0.000205675               0.999999984              -0.000897583              -0.000205031               0.999999984              -0.000906832              -0.000201312               0.999999984              -0.000914520              -0.000193441               0.999999984              -0.000920194              -0.000180256               0.999999984              -0.000923635              -0.000160906               0.999999984              -0.000924555              -0.000134184               0.999999984              -0.000746885              -0.000396615               0.999999984              -0.000764664              -0.000322713               0.999999984              -0.000767304              -0.000292798               0.999999984              -0.000768171              -0.000282977               0.999999984              -0.000770540              -0.000282843               0.999999984              -0.000774934              -0.000287296               0.999999984              -0.000781095              -0.000294116               0.999999984              -0.000788610              -0.000301804               0.999999984              -0.000796601              -0.000308538               0.999999984              -0.000804212              -0.000313252               0.999999984              -0.000810703              -0.000315022               0.999999984              -0.000815369              -0.000313197               0.999999984              -0.000817694              -0.000307074               0.999999984              -0.000817562              -0.000295547               0.999999984              -0.000814906              -0.000277774               0.999999984              -0.000809701              -0.000253053               0.999999984              -0.000802288              -0.000220564               0.999999984              -0.000717752              -0.000522907               0.999999984              -0.000712277              -0.000428295               0.999999984              -0.000703613              -0.000393105               0.999999984              -0.000698693              -0.000383343               0.999999984              -0.000697819              -0.000385415               0.999999984              -0.000700004              -0.000392718               0.999999984              -0.000704008              -0.000402691               0.999999984              -0.000708803              -0.000413008               0.999999984              -0.000713182              -0.000421492               0.999999984              -0.000716002              -0.000426817               0.999999984              -0.000716509              -0.000428052               0.999999984              -0.000714136              -0.000424490               0.999999984              -0.000708619              -0.000415715               0.999999984              -0.000699970              -0.000401230               0.999999984              -0.000688346              -0.000380572               0.999999984              -0.000674282              -0.000353686               0.999999984              -0.000658519              -0.000321010               0.999999984              -0.000681508              -0.000644153               0.999999984              -0.000649749              -0.000532651               0.999999984              -0.000630371              -0.000494994               0.999999984              -0.000621101              -0.000486866               0.999999984              -0.000618164              -0.000491720               0.999999984              -0.000618688              -0.000502174               0.999999984              -0.000620820              -0.000514959               0.999999984              -0.000622771              -0.000527190               0.999999984              -0.000622900              -0.000536630               0.999999984              -0.000620154              -0.000541858               0.999999984              -0.000613839              -0.000542050               0.999999984              -0.000603694              -0.000536775               0.999999984              -0.000589862              -0.000525850               0.999999984              -0.000572578              -0.000509240               0.999999984              -0.000552319              -0.000487315               0.999999984              -0.000529824              -0.000460611               0.999999984              -0.000505871              -0.000430419               0.999999984              -0.000638614              -0.000759274               0.999999984              -0.000580138              -0.000635778               0.999999984              -0.000552592              -0.000597800               0.999999984              -0.000541066              -0.000592194               0.999999984              -0.000537505              -0.000599963               0.999999984              -0.000537406              -0.000613098               0.999999984              -0.000537910              -0.000627981               0.999999984              -0.000536702              -0.000641340               0.999999984              -0.000531998              -0.000650886               0.999999984              -0.000522886              -0.000655503               0.999999984              -0.000509007              -0.000654579               0.999999984              -0.000490469              -0.000647926               0.999999984              -0.000467724              -0.000635587               0.999999984              -0.000441381              -0.000618120               0.999999984              -0.000412085              -0.000596460               0.999999984              -0.000380724              -0.000571634               0.999999984              -0.000348078              -0.000544857               0.999999984              -0.000589927              -0.000867134               0.999999984              -0.000506760              -0.000737382               0.999999984              -0.000474437              -0.000700705               0.999999984              -0.000463364              -0.000697437               0.999999984              -0.000460650              -0.000707598               0.999999984              -0.000460375              -0.000722881               0.999999984              -0.000459075              -0.000739253               0.999999984              -0.000454153              -0.000753089               0.999999984              -0.000443841              -0.000762235               0.999999984              -0.000427423              -0.000766030               0.999999984              -0.000405119              -0.000764036               0.999999984              -0.000377348              -0.000756283               0.999999984              -0.000344840              -0.000743423               0.999999984              -0.000308463              -0.000726284               0.999999984              -0.000269317              -0.000706113               0.999999984              -0.000228475              -0.000684122               0.999999984              -0.000186841              -0.000661091               0.999999984              -0.000537086              -0.000965880               0.999999984              -0.000432006              -0.000837366               0.999999984              -0.000400056              -0.000802138               0.999999984              -0.000391368              -0.000800547               0.999999984              -0.000390161              -0.000812547               0.999999984              -0.000389728              -0.000829520               0.999999984              -0.000386250              -0.000846799               0.999999984              -0.000376720              -0.000860697               0.999999984              -0.000359595              -0.000869331               0.999999984              -0.000334795              -0.000872231               0.999999984              -0.000302875              -0.000869263               0.999999984              -0.000264603              -0.000860878               0.999999984              -0.000221172              -0.000848201               0.999999984              -0.000174004              -0.000832436               0.999999984              -0.000124704              -0.000814859               0.999999984              -0.000074471              -0.000796411               0.999999984              -0.000024057              -0.000777780               0.999999984              -0.000482434              -0.001059121               0.999999984              -0.000369585              -0.000948669               0.999999984              -0.000334662              -0.000909219               0.999999984              -0.000324937              -0.000902190               0.999999984              -0.000323445              -0.000909814               0.999999984              -0.000323489              -0.000924209               0.999999984              -0.000321457              -0.000941012               0.999999984              -0.000315043              -0.000957004               0.999999984              -0.000302040              -0.000969783               0.999999984              -0.000281798              -0.000978432               0.999999984              -0.000254535              -0.000982588               0.999999984              -0.000220547              -0.000982406               0.999999984              -0.000180504              -0.000978187               0.999999984              -0.000135493              -0.000971047               0.999999984              -0.000086900              -0.000961811               0.999999984              -0.000036463              -0.000951483               0.999999984               0.000014593              -0.000940579               0.999999984              -0.000422587              -0.001143836               0.999999984              -0.000310041              -0.001056243               0.999999984              -0.000272211              -0.001019016               0.999999984              -0.000260806              -0.001008964               0.999999984              -0.000258420              -0.001013530               0.999999984              -0.000258267              -0.001025923               0.999999984              -0.000257021              -0.001042190               0.999999984              -0.000252718              -0.001059571               0.999999984              -0.000243266              -0.001075744               0.999999984              -0.000227313              -0.001089310               0.999999984              -0.000204664              -0.001099590               0.999999984              -0.000175198              -0.001106462               0.999999984              -0.000139362              -0.001109897               0.999999984              -0.000097474              -0.001110446               0.999999984              -0.000050549              -0.001108919               0.999999984              -0.000000309              -0.001106085               0.999999984               0.000051623              -0.001102657               0.999999984              -0.000358687              -0.001218118               0.999999984              -0.000253239              -0.001156917               0.999999984              -0.000214415              -0.001126481               0.999999984              -0.000201234              -0.001116915               0.999999984              -0.000197534              -0.001120403               0.999999984              -0.000196713              -0.001131869               0.999999984              -0.000195533              -0.001148091               0.999999984              -0.000192367              -0.001166641               0.999999984              -0.000185564              -0.001185676               0.999999984              -0.000173552              -0.001203479               0.999999984              -0.000155383              -0.001219238               0.999999984              -0.000130873              -0.001232443               0.999999984              -0.000099779              -0.001242959               0.999999984              -0.000062008              -0.001250854               0.999999984              -0.000017822              -0.001256553               0.999999984               0.000031604              -0.001260839               0.999999984               0.000084658              -0.001264389               0.999999984              -0.000291323              -0.001280718               0.999999984              -0.000199186              -0.001246514               0.999999984              -0.000162160              -0.001226187               0.999999984              -0.000148028              -0.001220195               0.999999984              -0.000143103              -0.001224900               0.999999984              -0.000141320              -0.001236965               0.999999984              -0.000139916              -0.001253932               0.999999984              -0.000137310              -0.001273983               0.999999984              -0.000132286              -0.001295607               0.999999984              -0.000123373              -0.001317497               0.999999984              -0.000109393              -0.001338437               0.999999984              -0.000089903              -0.001357785               0.999999984              -0.000064194              -0.001375144               0.999999984              -0.000031519              -0.001390331               0.999999984               0.000008377              -0.001403309               0.999999984               0.000055412              -0.001414533               0.999999984               0.000108883              -0.001424782               0.999999984              -0.000221124              -0.001330536               0.999999984              -0.000147490              -0.001321033               0.999999984              -0.000115538              -0.001312314               0.999999984              -0.000102147              -0.001311832               0.999999984              -0.000096791              -0.001319423               0.999999984              -0.000094304              -0.001333437               0.999999984              -0.000092601              -0.001352183               0.999999984              -0.000090365              -0.001374407               0.999999984              -0.000086557              -0.001398871               0.999999984              -0.000080043              -0.001424505               0.999999984              -0.000069925              -0.001450353               0.999999984              -0.000055409              -0.001475659               0.999999984              -0.000035412              -0.001499829               0.999999984              -0.000009124              -0.001522465               0.999999984               0.000024470              -0.001543195               0.999999984               0.000066322              -0.001561982               0.999999984               0.000117195              -0.001579170               0.999999984              -0.000148679              -0.001366772               0.999999984              -0.000097495              -0.001377018               0.999999984              -0.000073927              -0.001379028               0.999999984              -0.000063312              -0.001384498               0.999999984              -0.000058638              -0.001395752               0.999999984              -0.000056324              -0.001412370               0.999999984              -0.000054621              -0.001433438               0.999999984              -0.000052752              -0.001458097               0.999999984              -0.000050039              -0.001485439               0.999999984              -0.000045781              -0.001514546               0.999999984              -0.000039083              -0.001544722               0.999999984              -0.000029238              -0.001575351               0.999999984              -0.000015512              -0.001605759               0.999999984               0.000003102              -0.001635544               0.999999984               0.000027818              -0.001664035               0.999999984               0.000060106              -0.001690716               0.999999984               0.000101861              -0.001715214               0.999999984              -0.000074709              -0.001388745               0.999999984              -0.000048529              -0.001411748               0.999999984              -0.000035990              -0.001421382               0.999999984              -0.000030087              -0.001431409               0.999999984              -0.000027333              -0.001445676               0.999999984              -0.000025973              -0.001464637               0.999999984              -0.000024883              -0.001487771               0.999999984              -0.000023639              -0.001514374               0.999999984              -0.000022234              -0.001543859               0.999999984              -0.000020175              -0.001575546               0.999999984              -0.000016803              -0.001608828               0.999999984              -0.000011854              -0.001643192               0.999999984              -0.000004802              -0.001678142               0.999999984               0.000005016              -0.001713154               0.999999984               0.000018261              -0.001747450               0.999999984               0.000035991              -0.001780333               0.999999984               0.000059818              -0.001810741               0.999999984              -0.000000000              -0.001396079               0.999999984              -0.000000000              -0.001423516               0.999999984               0.000000000              -0.001435944               0.999999984              -0.000000000              -0.001447674               0.999999984              -0.000000000              -0.001463105               0.999999984              -0.000000000              -0.001482970               0.999999984               0.000000000              -0.001506969               0.999999984              -0.000000000              -0.001534347               0.999999984              -0.000000000              -0.001564517               0.999999984              -0.000000000              -0.001597081               0.999999984              -0.000000000              -0.001631531               0.999999984               0.000000000              -0.001667333               0.999999984              -0.000000000              -0.001703937               0.999999984              -0.000000000              -0.001740840               0.999999984               0.000000000              -0.001777206               0.999999984               0.000000000              -0.001812222               0.999999984               0.000000000              -0.001844802               0.999999984               0.000785589              -0.000000000               0.999999984               0.000837262               0.000000000               0.999999984               0.000859710               0.000000000               0.999999984               0.000872257               0.000000000               0.999999984               0.000882006               0.000000000               0.999999984               0.000891603               0.000000000               0.999999984               0.000901997               0.000000000               0.999999984               0.000913639              -0.000000000               0.999999984               0.000926453               0.000000000               0.999999984               0.000940313               0.000000000               0.999999984               0.000954984              -0.000000000               0.999999984               0.000970052               0.000000000               0.999999984               0.000985267               0.000000000               0.999999984               0.001000237               0.000000000               0.999999984               0.001014242               0.000000000               0.999999984               0.001026422              -0.000000000               0.999999984               0.001035850               0.000000000               0.999999984               0.000781135              -0.000133964               0.999999984               0.000828854              -0.000108239               0.999999984               0.000848782              -0.000096747               0.999999984               0.000859759              -0.000092101               0.999999984               0.000868473              -0.000091142               0.999999984               0.000877329              -0.000091856               0.999999984               0.000887232              -0.000093710               0.999999984               0.000898330              -0.000096050               0.999999984               0.000910550              -0.000098231               0.999999984               0.000923637              -0.000100004               0.999999984               0.000937301              -0.000101047               0.999999984               0.000951209              -0.000100976               0.999999984               0.000964880              -0.000099431               0.999999984               0.000977827              -0.000095504               0.999999984               0.000989476              -0.000088560               0.999999984               0.000999206              -0.000077849               0.999999984               0.001006310              -0.000062634               0.999999984               0.000768150              -0.000266569               0.999999984               0.000804235              -0.000215959               0.999999984               0.000816989              -0.000194141               0.999999984               0.000823594              -0.000186070               0.999999984               0.000829583              -0.000184841               0.999999984               0.000836472              -0.000187069               0.999999984               0.000844721              -0.000191101               0.999999984               0.000854278              -0.000196001               0.999999984               0.000864901              -0.000200495               0.999999984               0.000876069              -0.000203918               0.999999984               0.000887179              -0.000205675               0.999999984               0.000897583              -0.000205031               0.999999984               0.000906832              -0.000201312               0.999999984               0.000914520              -0.000193441               0.999999984               0.000920194              -0.000180256               0.999999984               0.000923635              -0.000160906               0.999999984               0.000924555              -0.000134184               0.999999984               0.000746885              -0.000396615               0.999999984               0.000764664              -0.000322713               0.999999984               0.000767304              -0.000292798               0.999999984               0.000768171              -0.000282977               0.999999984               0.000770540              -0.000282843               0.999999984               0.000774934              -0.000287296               0.999999984               0.000781095              -0.000294116               0.999999984               0.000788610              -0.000301804               0.999999984               0.000796601              -0.000308538               0.999999984               0.000804212              -0.000313252               0.999999984               0.000810703              -0.000315022               0.999999984               0.000815369              -0.000313197               0.999999984               0.000817694              -0.000307074               0.999999984               0.000817562              -0.000295547               0.999999984               0.000814906              -0.000277774               0.999999984               0.000809701              -0.000253053               0.999999984               0.000802288              -0.000220564               0.999999984               0.000717752              -0.000522907               0.999999984               0.000712277              -0.000428295               0.999999984               0.000703613              -0.000393105               0.999999984               0.000698693              -0.000383343               0.999999984               0.000697819              -0.000385415               0.999999984               0.000700004              -0.000392718               0.999999984               0.000704008              -0.000402691               0.999999984               0.000708803              -0.000413008               0.999999984               0.000713182              -0.000421492               0.999999984               0.000716002              -0.000426817               0.999999984               0.000716509              -0.000428052               0.999999984               0.000714136              -0.000424490               0.999999984               0.000708619              -0.000415715               0.999999984               0.000699970              -0.000401230               0.999999984               0.000688346              -0.000380572               0.999999984               0.000674282              -0.000353686               0.999999984               0.000658519              -0.000321010               0.999999984               0.000681508              -0.000644153               0.999999984               0.000649749              -0.000532651               0.999999984               0.000630371              -0.000494994               0.999999984               0.000621101              -0.000486866               0.999999984               0.000618164              -0.000491720               0.999999984               0.000618688              -0.000502174               0.999999984               0.000620820              -0.000514959               0.999999984               0.000622771              -0.000527190               0.999999984               0.000622900              -0.000536630               0.999999984               0.000620154              -0.000541858               0.999999984               0.000613839              -0.000542050               0.999999984               0.000603694              -0.000536775               0.999999984               0.000589862              -0.000525850               0.999999984               0.000572578              -0.000509240               0.999999984               0.000552319              -0.000487315               0.999999984               0.000529824              -0.000460611               0.999999984               0.000505871              -0.000430419               0.999999984               0.000638614              -0.000759274               0.999999984               0.000580138              -0.000635778               0.999999984               0.000552592              -0.000597800               0.999999984               0.000541066              -0.000592194               0.999999984               0.000537505              -0.000599963               0.999999984               0.000537406              -0.000613098               0.999999984               0.000537910              -0.000627981               0.999999984               0.000536702              -0.000641340               0.999999984               0.000531998              -0.000650886               0.999999984               0.000522886              -0.000655503               0.999999984               0.000509007              -0.000654579               0.999999984               0.000490469              -0.000647926               0.999999984               0.000467724              -0.000635587               0.999999984               0.000441381              -0.000618120               0.999999984               0.000412085              -0.000596460               0.999999984               0.000380724              -0.000571634               0.999999984               0.000348078              -0.000544857               0.999999984               0.000589927              -0.000867134               0.999999984               0.000506760              -0.000737382               0.999999984               0.000474437              -0.000700705               0.999999984               0.000463364              -0.000697437               0.999999984               0.000460650              -0.000707598               0.999999984               0.000460375              -0.000722881               0.999999984               0.000459075              -0.000739253               0.999999984               0.000454153              -0.000753089               0.999999984               0.000443841              -0.000762235               0.999999984               0.000427423              -0.000766030               0.999999984               0.000405119              -0.000764036               0.999999984               0.000377348              -0.000756283               0.999999984               0.000344840              -0.000743423               0.999999984               0.000308463              -0.000726284               0.999999984               0.000269317              -0.000706113               0.999999984               0.000228475              -0.000684122               0.999999984               0.000186841              -0.000661091               0.999999984               0.000537086              -0.000965880               0.999999984               0.000432006              -0.000837366               0.999999984               0.000400056              -0.000802138               0.999999984               0.000391368              -0.000800547               0.999999984               0.000390161              -0.000812547               0.999999984               0.000389728              -0.000829520               0.999999984               0.000386250              -0.000846799               0.999999984               0.000376720              -0.000860697               0.999999984               0.000359595              -0.000869331               0.999999984               0.000334795              -0.000872231               0.999999984               0.000302875              -0.000869263               0.999999984               0.000264603              -0.000860878               0.999999984               0.000221172              -0.000848201               0.999999984               0.000174004              -0.000832436               0.999999984               0.000124704              -0.000814859               0.999999984               0.000074471              -0.000796411               0.999999984               0.000024057              -0.000777780               0.999999984               0.000482434              -0.001059121               0.999999984               0.000369585              -0.000948669               0.999999984               0.000334662              -0.000909219               0.999999984               0.000324937              -0.000902190               0.999999984               0.000323445              -0.000909814               0.999999984               0.000323489              -0.000924209               0.999999984               0.000321457              -0.000941012               0.999999984               0.000315043              -0.000957004               0.999999984               0.000302040              -0.000969783               0.999999984               0.000281798              -0.000978432               0.999999984               0.000254535              -0.000982588               0.999999984               0.000220547              -0.000982406               0.999999984               0.000180504              -0.000978187               0.999999984               0.000135493              -0.000971047               0.999999984               0.000086900              -0.000961811               0.999999984               0.000036463              -0.000951483               0.999999984              -0.000014593              -0.000940579               0.999999984               0.000422587              -0.001143836               0.999999984               0.000310041              -0.001056243               0.999999984               0.000272211              -0.001019016               0.999999984               0.000260806              -0.001008964               0.999999984               0.000258420              -0.001013530               0.999999984               0.000258267              -0.001025923               0.999999984               0.000257021              -0.001042190               0.999999984               0.000252718              -0.001059571               0.999999984               0.000243266              -0.001075744               0.999999984               0.000227313              -0.001089310               0.999999984               0.000204664              -0.001099590               0.999999984               0.000175198              -0.001106462               0.999999984               0.000139362              -0.001109897               0.999999984               0.000097474              -0.001110446               0.999999984               0.000050549              -0.001108919               0.999999984               0.000000309              -0.001106085               0.999999984              -0.000051623              -0.001102657               0.999999984               0.000358687              -0.001218118               0.999999984               0.000253239              -0.001156917               0.999999984               0.000214415              -0.001126481               0.999999984               0.000201234              -0.001116915               0.999999984               0.000197534              -0.001120403               0.999999984               0.000196713              -0.001131869               0.999999984               0.000195533              -0.001148091               0.999999984               0.000192367              -0.001166641               0.999999984               0.000185564              -0.001185676               0.999999984               0.000173552              -0.001203479               0.999999984               0.000155383              -0.001219238               0.999999984               0.000130873              -0.001232443               0.999999984               0.000099779              -0.001242959               0.999999984               0.000062008              -0.001250854               0.999999984               0.000017822              -0.001256553               0.999999984              -0.000031604              -0.001260839               0.999999984              -0.000084658              -0.001264389               0.999999984               0.000291323              -0.001280718               0.999999984               0.000199186              -0.001246514               0.999999984               0.000162160              -0.001226187               0.999999984               0.000148028              -0.001220195               0.999999984               0.000143103              -0.001224900               0.999999984               0.000141320              -0.001236965               0.999999984               0.000139916              -0.001253932               0.999999984               0.000137310              -0.001273983               0.999999984               0.000132286              -0.001295607               0.999999984               0.000123373              -0.001317497               0.999999984               0.000109393              -0.001338437               0.999999984               0.000089903              -0.001357785               0.999999984               0.000064194              -0.001375144               0.999999984               0.000031519              -0.001390331               0.999999984              -0.000008377              -0.001403309               0.999999984              -0.000055412              -0.001414533               0.999999984              -0.000108883              -0.001424782               0.999999984               0.000221124              -0.001330536               0.999999984               0.000147490              -0.001321033               0.999999984               0.000115538              -0.001312314               0.999999984               0.000102147              -0.001311832               0.999999984               0.000096791              -0.001319423               0.999999984               0.000094304              -0.001333437               0.999999984               0.000092601              -0.001352183               0.999999984               0.000090365              -0.001374407               0.999999984               0.000086557              -0.001398871               0.999999984               0.000080043              -0.001424505               0.999999984               0.000069925              -0.001450353               0.999999984               0.000055409              -0.001475659               0.999999984               0.000035412              -0.001499829               0.999999984               0.000009124              -0.001522465               0.999999984              -0.000024470              -0.001543195               0.999999984              -0.000066322              -0.001561982               0.999999984              -0.000117195              -0.001579170               0.999999984               0.000148679              -0.001366772               0.999999984               0.000097495              -0.001377018               0.999999984               0.000073927              -0.001379028               0.999999984               0.000063312              -0.001384498               0.999999984               0.000058638              -0.001395752               0.999999984               0.000056324              -0.001412370               0.999999984               0.000054621              -0.001433438               0.999999984               0.000052752              -0.001458097               0.999999984               0.000050039              -0.001485439               0.999999984               0.000045781              -0.001514546               0.999999984               0.000039083              -0.001544722               0.999999984               0.000029238              -0.001575351               0.999999984               0.000015512              -0.001605759               0.999999984              -0.000003102              -0.001635544               0.999999984              -0.000027818              -0.001664035               0.999999984              -0.000060106              -0.001690716               0.999999984              -0.000101861              -0.001715214               0.999999984               0.000074709              -0.001388745               0.999999984               0.000048529              -0.001411748               0.999999984               0.000035990              -0.001421382               0.999999984               0.000030087              -0.001431409               0.999999984               0.000027333              -0.001445676               0.999999984               0.000025973              -0.001464637               0.999999984               0.000024883              -0.001487771               0.999999984               0.000023639              -0.001514374               0.999999984               0.000022234              -0.001543859               0.999999984               0.000020175              -0.001575546               0.999999984               0.000016803              -0.001608828               0.999999984               0.000011854              -0.001643192               0.999999984               0.000004802              -0.001678142               0.999999984              -0.000005016              -0.001713154               0.999999984              -0.000018261              -0.001747450               0.999999984              -0.000035991              -0.001780333               0.999999984              -0.000059818              -0.001810741               0.999999984              -0.000000000              -0.001396079               0.999999984              -0.000000000              -0.001423516               0.999999984               0.000000000              -0.001435944               0.999999984              -0.000000000              -0.001447674               0.999999984              -0.000000000              -0.001463105               0.999999984              -0.000000000              -0.001482970               0.999999984               0.000000000              -0.001506969               0.999999984              -0.000000000              -0.001534347               0.999999984              -0.000000000              -0.001564517               0.999999984              -0.000000000              -0.001597081               0.999999984              -0.000000000              -0.001631531               0.999999984               0.000000000              -0.001667333               0.999999984              -0.000000000              -0.001703937               0.999999984              -0.000000000              -0.001740840               0.999999984               0.000000000              -0.001777206               0.999999984               0.000000000              -0.001812222               0.999999984               0.000000000              -0.001844802               0.999999984               0.000785589              -0.000000000               0.999999984               0.000837262               0.000000000               0.999999984               0.000859710               0.000000000               0.999999984               0.000872257               0.000000000               0.999999984               0.000882006               0.000000000               0.999999984               0.000891603               0.000000000               0.999999984               0.000901997               0.000000000               0.999999984               0.000913639              -0.000000000               0.999999984               0.000926453               0.000000000               0.999999984               0.000940313               0.000000000               0.999999984               0.000954984              -0.000000000               0.999999984               0.000970052               0.000000000               0.999999984               0.000985267               0.000000000               0.999999984               0.001000237               0.000000000               0.999999984               0.001014242               0.000000000               0.999999984               0.001026422              -0.000000000               0.999999984               0.001035850               0.000000000               0.999999984               0.000781135               0.000133964               0.999999984               0.000828854               0.000108239               0.999999984               0.000848782               0.000096747               0.999999984               0.000859759               0.000092101               0.999999984               0.000868473               0.000091142               0.999999984               0.000877329               0.000091856               0.999999984               0.000887232               0.000093710               0.999999984               0.000898330               0.000096050               0.999999984               0.000910550               0.000098231               0.999999984               0.000923637               0.000100004               0.999999984               0.000937301               0.000101047               0.999999984               0.000951209               0.000100976               0.999999984               0.000964880               0.000099431               0.999999984               0.000977827               0.000095504               0.999999984               0.000989476               0.000088560               0.999999984               0.000999206               0.000077849               0.999999984               0.001006310               0.000062634               0.999999984               0.000768150               0.000266569               0.999999984               0.000804235               0.000215959               0.999999984               0.000816989               0.000194141               0.999999984               0.000823594               0.000186070               0.999999984               0.000829583               0.000184841               0.999999984               0.000836472               0.000187069               0.999999984               0.000844721               0.000191101               0.999999984               0.000854278               0.000196001               0.999999984               0.000864901               0.000200495               0.999999984               0.000876069               0.000203918               0.999999984               0.000887179               0.000205675               0.999999984               0.000897583               0.000205031               0.999999984               0.000906832               0.000201312               0.999999984               0.000914520               0.000193441               0.999999984               0.000920194               0.000180256               0.999999984               0.000923635               0.000160906               0.999999984               0.000924555               0.000134184               0.999999984               0.000746885               0.000396615               0.999999984               0.000764664               0.000322713               0.999999984               0.000767304               0.000292798               0.999999984               0.000768171               0.000282977               0.999999984               0.000770540               0.000282843               0.999999984               0.000774934               0.000287296               0.999999984               0.000781095               0.000294116               0.999999984               0.000788610               0.000301804               0.999999984               0.000796601               0.000308538               0.999999984               0.000804212               0.000313252               0.999999984               0.000810703               0.000315022               0.999999984               0.000815369               0.000313197               0.999999984               0.000817694               0.000307074               0.999999984               0.000817562               0.000295547               0.999999984               0.000814906               0.000277774               0.999999984               0.000809701               0.000253053               0.999999984               0.000802288               0.000220564               0.999999984               0.000717752               0.000522907               0.999999984               0.000712277               0.000428295               0.999999984               0.000703613               0.000393105               0.999999984               0.000698693               0.000383343               0.999999984               0.000697819               0.000385415               0.999999984               0.000700004               0.000392718               0.999999984               0.000704008               0.000402691               0.999999984               0.000708803               0.000413008               0.999999984               0.000713182               0.000421492               0.999999984               0.000716002               0.000426817               0.999999984               0.000716509               0.000428052               0.999999984               0.000714136               0.000424490               0.999999984               0.000708619               0.000415715               0.999999984               0.000699970               0.000401230               0.999999984               0.000688346               0.000380572               0.999999984               0.000674282               0.000353686               0.999999984               0.000658519               0.000321010               0.999999984               0.000681508               0.000644153               0.999999984               0.000649749               0.000532651               0.999999984               0.000630371               0.000494994               0.999999984               0.000621101               0.000486866               0.999999984               0.000618164               0.000491720               0.999999984               0.000618688               0.000502174               0.999999984               0.000620820               0.000514959               0.999999984               0.000622771               0.000527190               0.999999984               0.000622900               0.000536630               0.999999984               0.000620154               0.000541858               0.999999984               0.000613839               0.000542050               0.999999984               0.000603694               0.000536775               0.999999984               0.000589862               0.000525850               0.999999984               0.000572578               0.000509240               0.999999984               0.000552319               0.000487315               0.999999984               0.000529824               0.000460611               0.999999984               0.000505871               0.000430419               0.999999984               0.000638614               0.000759274               0.999999984               0.000580138               0.000635778               0.999999984               0.000552592               0.000597800               0.999999984               0.000541066               0.000592194               0.999999984               0.000537505               0.000599963               0.999999984               0.000537406               0.000613098               0.999999984               0.000537910               0.000627981               0.999999984               0.000536702               0.000641340               0.999999984               0.000531998               0.000650886               0.999999984               0.000522886               0.000655503               0.999999984               0.000509007               0.000654579               0.999999984               0.000490469               0.000647926               0.999999984               0.000467724               0.000635587               0.999999984               0.000441381               0.000618120               0.999999984               0.000412085               0.000596460               0.999999984               0.000380724               0.000571634               0.999999984               0.000348078               0.000544857               0.999999984               0.000589927               0.000867134               0.999999984               0.000506760               0.000737382               0.999999984               0.000474437               0.000700705               0.999999984               0.000463364               0.000697437               0.999999984               0.000460650               0.000707598               0.999999984               0.000460375               0.000722881               0.999999984               0.000459075               0.000739253               0.999999984               0.000454153               0.000753089               0.999999984               0.000443841               0.000762235               0.999999984               0.000427423               0.000766030               0.999999984               0.000405119               0.000764036               0.999999984               0.000377348               0.000756283               0.999999984               0.000344840               0.000743423               0.999999984               0.000308463               0.000726284               0.999999984               0.000269317               0.000706113               0.999999984               0.000228475               0.000684122               0.999999984               0.000186841               0.000661091               0.999999984               0.000537086               0.000965880               0.999999984               0.000432006               0.000837366               0.999999984               0.000400056               0.000802138               0.999999984               0.000391368               0.000800547               0.999999984               0.000390161               0.000812547               0.999999984               0.000389728               0.000829520               0.999999984               0.000386250               0.000846799               0.999999984               0.000376720               0.000860697               0.999999984               0.000359595               0.000869331               0.999999984               0.000334795               0.000872231               0.999999984               0.000302875               0.000869263               0.999999984               0.000264603               0.000860878               0.999999984               0.000221172               0.000848201               0.999999984               0.000174004               0.000832436               0.999999984               0.000124704               0.000814859               0.999999984               0.000074471               0.000796411               0.999999984               0.000024057               0.000777780               0.999999984               0.000482434               0.001059121               0.999999984               0.000369585               0.000948669               0.999999984               0.000334662               0.000909219               0.999999984               0.000324937               0.000902190               0.999999984               0.000323445               0.000909814               0.999999984               0.000323489               0.000924209               0.999999984               0.000321457               0.000941012               0.999999984               0.000315043               0.000957004               0.999999984               0.000302040               0.000969783               0.999999984               0.000281798               0.000978432               0.999999984               0.000254535               0.000982588               0.999999984               0.000220547               0.000982406               0.999999984               0.000180504               0.000978187               0.999999984               0.000135493               0.000971047               0.999999984               0.000086900               0.000961811               0.999999984               0.000036463               0.000951483               0.999999984              -0.000014593               0.000940579               0.999999984               0.000422587               0.001143836               0.999999984               0.000310041               0.001056243               0.999999984               0.000272211               0.001019016               0.999999984               0.000260806               0.001008964               0.999999984               0.000258420               0.001013530               0.999999984               0.000258267               0.001025923               0.999999984               0.000257021               0.001042190               0.999999984               0.000252718               0.001059571               0.999999984               0.000243266               0.001075744               0.999999984               0.000227313               0.001089310               0.999999984               0.000204664               0.001099590               0.999999984               0.000175198               0.001106462               0.999999984               0.000139362               0.001109897               0.999999984               0.000097474               0.001110446               0.999999984               0.000050549               0.001108919               0.999999984               0.000000309               0.001106085               0.999999984              -0.000051623               0.001102657               0.999999984               0.000358687               0.001218118               0.999999984               0.000253239               0.001156917               0.999999984               0.000214415               0.001126481               0.999999984               0.000201234               0.001116915               0.999999984               0.000197534               0.001120403               0.999999984               0.000196713               0.001131869               0.999999984               0.000195533               0.001148091               0.999999984               0.000192367               0.001166641               0.999999984               0.000185564               0.001185676               0.999999984               0.000173552               0.001203479               0.999999984               0.000155383               0.001219238               0.999999984               0.000130873               0.001232443               0.999999984               0.000099779               0.001242959               0.999999984               0.000062008               0.001250854               0.999999984               0.000017822               0.001256553               0.999999984              -0.000031604               0.001260839               0.999999984              -0.000084658               0.001264389               0.999999984               0.000291323               0.001280718               0.999999984               0.000199186               0.001246514               0.999999984               0.000162160               0.001226187               0.999999984               0.000148028               0.001220195               0.999999984               0.000143103               0.001224900               0.999999984               0.000141320               0.001236965               0.999999984               0.000139916               0.001253932               0.999999984               0.000137310               0.001273983               0.999999984               0.000132286               0.001295607               0.999999984               0.000123373               0.001317497               0.999999984               0.000109393               0.001338437               0.999999984               0.000089903               0.001357785               0.999999984               0.000064194               0.001375144               0.999999984               0.000031519               0.001390331               0.999999984              -0.000008377               0.001403309               0.999999984              -0.000055412               0.001414533               0.999999984              -0.000108883               0.001424782               0.999999984               0.000221124               0.001330536               0.999999984               0.000147490               0.001321033               0.999999984               0.000115538               0.001312314               0.999999984               0.000102147               0.001311832               0.999999984               0.000096791               0.001319423               0.999999984               0.000094304               0.001333437               0.999999984               0.000092601               0.001352183               0.999999984               0.000090365               0.001374407               0.999999984               0.000086557               0.001398871               0.999999984               0.000080043               0.001424505               0.999999984               0.000069925               0.001450353               0.999999984               0.000055409               0.001475659               0.999999984               0.000035412               0.001499829               0.999999984               0.000009124               0.001522465               0.999999984              -0.000024470               0.001543195               0.999999984              -0.000066322               0.001561982               0.999999984              -0.000117195               0.001579170               0.999999984               0.000148679               0.001366772               0.999999984               0.000097495               0.001377018               0.999999984               0.000073927               0.001379028               0.999999984               0.000063312               0.001384498               0.999999984               0.000058638               0.001395752               0.999999984               0.000056324               0.001412370               0.999999984               0.000054621               0.001433438               0.999999984               0.000052752               0.001458097               0.999999984               0.000050039               0.001485439               0.999999984               0.000045781               0.001514546               0.999999984               0.000039083               0.001544722               0.999999984               0.000029238               0.001575351               0.999999984               0.000015512               0.001605759               0.999999984              -0.000003102               0.001635544               0.999999984              -0.000027818               0.001664035               0.999999984              -0.000060106               0.001690716               0.999999984              -0.000101861               0.001715214               0.999999984               0.000074709               0.001388745               0.999999984               0.000048529               0.001411748               0.999999984               0.000035990               0.001421382               0.999999984               0.000030087               0.001431409               0.999999984               0.000027333               0.001445676               0.999999984               0.000025973               0.001464637               0.999999984               0.000024883               0.001487771               0.999999984               0.000023639               0.001514374               0.999999984               0.000022234               0.001543859               0.999999984               0.000020175               0.001575546               0.999999984               0.000016803               0.001608828               0.999999984               0.000011854               0.001643192               0.999999984               0.000004802               0.001678142               0.999999984              -0.000005016               0.001713154               0.999999984              -0.000018261               0.001747450               0.999999984              -0.000035991               0.001780333               0.999999984              -0.000059818               0.001810741               0.999999984               0.000000000               0.001396079               0.999999984               0.000000000               0.001423516               0.999999984              -0.000000000               0.001435944               0.999999984              -0.000000000               0.001447674               0.999999984              -0.000000000               0.001463105               0.999999984               0.000000000               0.001482970               0.999999984               0.000000000               0.001506969               0.999999984               0.000000000               0.001534347               0.999999984               0.000000000               0.001564517               0.999999984               0.000000000               0.001597081               0.999999984               0.000000000               0.001631531               0.999999984              -0.000000000               0.001667333               0.999999984              -0.000000000               0.001703937               0.999999984              -0.000000000               0.001740840               0.999999984              -0.000000000               0.001777206               0.999999984              -0.000000000               0.001812222               0.999999984              -0.000000000               0.001844802               0.999999984 </DataArray>
<DataArray type="Float64"                                    Name="defo"                                                      NumberOfComponents=" 3" format="ascii">
             -0.000785589               0.000000000               0.999999984              -0.000837262              -0.000000000               0.999999984              -0.000859710              -0.000000000               0.999999984              -0.000872257               0.000000000               0.999999984              -0.000882006              -0.000000000               0.999999984              -0.000891603              -0.000000000               0.999999984              -0.000901997              -0.000000000               0.999999984              -0.000913639               0.000000000               0.999999984              -0.000926453              -0.000000000               0.999999984              -0.000940313               0.000000000               0.999999984              -0.000954984              -0.000000000               0.999999984              -0.000970052              -0.000000000               0.999999984              -0.000985267              -0.000000000               0.999999984              -0.001000237               0.000000000               0.999999984              -0.001014242              -0.000000000               0.999999984              -0.001026422              -0.000000000               0.999999984              -0.001035850               0.000000000               0.999999984              -0.000781135               0.000133964               0.999999984              -0.000828854               0.000108239               0.999999984              -0.000848782               0.000096747               0.999999984              -0.000859759               0.000092101               0.999999984              -0.000868473               0.000091142               0.999999984              -0.000877329               0.000091856               0.999999984              -0.000887232               0.000093710               0.999999984              -0.000898330               0.000096050               0.999999984              -0.000910550               0.000098231               0.999999984              -0.000923637               0.000100004               0.999999984              -0.000937301               0.000101047               0.999999984              -0.000951209               0.000100976               0.999999984              -0.000964880               0.000099431               0.999999984              -0.000977827               0.000095504               0.999999984              -0.000989476               0.000088560               0.999999984              -0.000999206               0.000077849               0.999999984              -0.001006310               0.000062634               0.999999984              -0.000768150               0.000266569               0.999999984              -0.000804235               0.000215959               0.999999984              -0.000816989               0.000194141               0.999999984              -0.000823594               0.000186070               0.999999984              -0.000829583               0.000184841               0.999999984              -0.000836472               0.000187069               0.999999984              -0.000844721               0.000191101               0.999999984              -0.000854278               0.000196001               0.999999984              -0.000864901               0.000200495               0.999999984              -0.000876069               0.000203918               0.999999984              -0.000887179               0.000205675               0.999999984              -0.000897583               0.000205031               0.999999984              -0.000906832               0.000201312               0.999999984              -0.000914520               0.000193441               0.999999984              -0.000920194               0.000180256               0.999999984              -0.000923635               0.000160906               0.999999984              -0.000924555               0.000134184               0.999999984              -0.000746885               0.000396615               0.999999984              -0.000764664               0.000322713               0.999999984              -0.000767304               0.000292798               0.999999984              -0.000768171               0.000282977               0.999999984              -0.000770540               0.000282843               0.999999984              -0.000774934               0.000287296               0.999999984              -0.000781095               0.000294116               0.999999984              -0.000788610               0.000301804               0.999999984              -0.000796601               0.000308538               0.999999984              -0.000804212               0.000313252               0.999999984              -0.000810703               0.000315022               0.999999984              -0.000815369               0.000313197               0.999999984              -0.000817694               0.000307074               0.999999984              -0.000817562               0.000295547               0.999999984              -0.000814906               0.000277774               0.999999984              -0.000809701               0.000253053               0.999999984              -0.000802288               0.000220564               0.999999984              -0.000717752               0.000522907               0.999999984              -0.000712277               0.000428295               0.999999984              -0.000703613               0.000393105               0.999999984              -0.000698693               0.000383343               0.999999984              -0.000697819               0.000385415               0.999999984              -0.000700004               0.000392718               0.999999984              -0.000704008               0.000402691               0.999999984              -0.000708803               0.000413008               0.999999984              -0.000713182               0.000421492               0.999999984              -0.000716002               0.000426817               0.999999984              -0.000716509               0.000428052               0.999999984              -0.000714136               0.000424490               0.999999984              -0.000708619               0.000415715               0.999999984              -0.000699970               0.000401230               0.999999984              -0.000688346               0.000380572               0.999999984              -0.000674282               0.000353686               0.999999984              -0.000658519               0.000321010               0.999999984              -0.000681508               0.000644153               0.999999984              -0.000649749               0.000532651               0.999999984              -0.000630371               0.000494994               0.999999984              -0.000621101               0.000486866               0.999999984              -0.000618164               0.000491720               0.999999984              -0.000618688               0.000502174               0.999999984              -0.000620820               0.000514959               0.999999984              -0.000622771               0.000527190               0.999999984              -0.000622900               0.000536630               0.999999984              -0.000620154               0.000541858               0.999999984              -0.000613839               0.000542050               0.999999984              -0.000603694               0.000536775               0.999999984              -0.000589862               0.000525850               0.999999984              -0.000572578               0.000509240               0.999999984              -0.000552319               0.000487315               0.999999984              -0.000529824               0.000460611               0.999999984              -0.000505871               0.000430419               0.999999984              -0.000638614               0.000759274               0.999999984              -0.000580138               0.000635778               0.999999984              -0.000552592               0.000597800               0.999999984              -0.000541066               0.000592194               0.999999984              -0.000537505               0.000599963               0.999999984              -0.000537406               0.000613098               0.999999984              -0.000537910               0.000627981               0.999999984              -0.000536702               0.000641340               0.999999984              -0.000531998               0.000650886               0.999999984              -0.000522886               0.000655503               0.999999984              -0.000509007               0.000654579               0.999999984              -0.000490469               0.000647926               0.999999984              -0.000467724               0.000635587               0.999999984              -0.000441381               0.000618120               0.999999984              -0.000412085               0.000596460               0.999999984              -0.000380724               0.000571634               0.999999984              -0.000348078               0.000544857               0.999999984              -0.000589927               0.000867134               0.999999984              -0.000506760               0.000737382               0.999999984              -0.000474437               0.000700705               0.999999984              -0.000463364               0.000697437               0.999999984              -0.000460650               0.000707598               0.999999984              -0.000460375               0.000722881               0.999999984              -0.000459075               0.000739253               0.999999984              -0.000454153               0.000753089               0.999999984              -0.000443841               0.000762235               0.999999984              -0.000427423               0.000766030               0.999999984              -0.000405119               0.000764036               0.999999984              -0.000377348               0.000756283               0.999999984              -0.000344840               0.000743423               0.999999984              -0.000308463               0.000726284               0.999999984              -0.000269317               0.000706113               0.999999984              -0.000228475               0.000684122               0.999999984              -0.000186841               0.000661091               0.999999984              -0.000537086               0.000965880               0.999999984              -0.000432006               0.000837366               0.999999984              -0.000400056               0.000802138               0.999999984              -0.000391368               0.000800547               0.999999984              -0.000390161               0.000812547               0.999999984              -0.000389728               0.000829520               0.999999984              -0.000386250               0.000846799               0.999999984              -0.000376720               0.000860697               0.999999984              -0.000359595               0.000869331               0.999999984              -0.000334795               0.000872231               0.999999984              -0.000302875               0.000869263               0.999999984              -0.000264603               0.000860878               0.999999984              -0.000221172               0.000848201               0.999999984              -0.000174004               0.000832436               0.999999984              -0.000124704               0.000814859               0.999999984              -0.000074471               0.000796411               0.999999984              -0.000024057               0.000777780               0.999999984              -0.000482434               0.001059121               0.999999984              -0.000369585               0.000948669               0.999999984              -0.000334662               0.000909219               0.999999984              -0.000324937               0.000902190               0.999999984              -0.000323445               0.000909814               0.999999984              -0.000323489               0.000924209               0.999999984              -0.000321457               0.000941012               0.999999984              -0.000315043               0.000957004               0.999999984              -0.000302040               0.000969783               0.999999984              -0.000281798               0.000978432               0.999999984              -0.000254535               0.000982588               0.999999984              -0.000220547               0.000982406               0.999999984              -0.000180504               0.000978187               0.999999984              -0.000135493               0.000971047               0.999999984              -0.000086900               0.000961811               0.999999984              -0.000036463               0.000951483               0.999999984               0.000014593               0.000940579               0.999999984              -0.000422587               0.001143836               0.999999984              -0.000310041               0.001056243               0.999999984              -0.000272211               0.001019016               0.999999984              -0.000260806               0.001008964               0.999999984              -0.000258420               0.001013530               0.999999984              -0.000258267               0.001025923               0.999999984              -0.000257021               0.001042190               0.999999984              -0.000252718               0.001059571               0.999999984              -0.000243266               0.001075744               0.999999984              -0.000227313               0.001089310               0.999999984              -0.000204664               0.001099590               0.999999984              -0.000175198               0.001106462               0.999999984              -0.000139362               0.001109897               0.999999984              -0.000097474               0.001110446               0.999999984              -0.000050549               0.001108919               0.999999984              -0.000000309               0.001106085               0.999999984               0.000051623               0.001102657               0.999999984              -0.000358687               0.001218118               0.999999984              -0.000253239               0.001156917               0.999999984              -0.000214415               0.001126481               0.999999984              -0.000201234               0.001116915               0.999999984              -0.000197534               0.001120403               0.999999984              -0.000196713               0.001131869               0.999999984              -0.000195533               0.001148091               0.999999984              -0.000192367               0.001166641               0.999999984              -0.000185564               0.001185676               0.999999984              -0.000173552               0.001203479               0.999999984              -0.000155383               0.001219238               0.999999984              -0.000130873               0.001232443               0.999999984              -0.000099779               0.001242959               0.999999984              -0.000062008               0.001250854               0.999999984              -0.000017822               0.001256553               0.999999984               0.000031604               0.001260839               0.999999984               0.000084658               0.001264389               0.999999984              -0.000291323               0.001280718               0.999999984              -0.000199186               0.001246514               0.999999984              -0.000162160               0.001226187               0.999999984              -0.000148028               0.001220195               0.999999984              -0.000143103               0.001224900               0.999999984              -0.000141320               0.001236965               0.999999984              -0.000139916               0.001253932               0.999999984              -0.000137310               0.001273983               0.999999984              -0.000132286               0.001295607               0.999999984              -0.000123373               0.001317497               0.999999984              -0.000109393               0.001338437               0.999999984              -0.000089903               0.001357785               0.999999984              -0.000064194               0.001375144               0.999999984              -0.000031519               0.001390331               0.999999984               0.000008377               0.001403309               0.999999984               0.000055412               0.001414533               0.999999984               0.000108883               0.001424782               0.999999984              -0.000221124               0.001330536               0.999999984              -0.000147490               0.001321033               0.999999984              -0.000115538               0.001312314               0.999999984              -0.000102147               0.001311832               0.999999984              -0.000096791               0.001319423               0.999999984              -0.000094304               0.001333437               0.999999984              -0.000092601               0.001352183               0.999999984              -0.000090365               0.001374407               0.999999984              -0.000086557               0.001398871               0.999999984              -0.000080043               0.001424505               0.999999984              -0.000069925               0.001450353               0.999999984              -0.000055409               0.001475659               0.999999984              -0.000035412               0.001499829               0.999999984              -0.000009124               0.001522465               0.999999984               0.000024470               0.001543195               0.999999984               0.000066322               0.001561982               0.999999984               0.000117195               0.001579170               0.999999984              -0.000148679               0.001366772               0.999999984              -0.000097495               0.001377018               0.999999984              -0.000073927               0.001379028               0.999999984              -0.000063312               0.001384498               0.999999984              -0.000058638               0.001395752               0.999999984              -0.000056324               0.001412370               0.999999984              -0.000054621               0.001433438               0.999999984              -0.000052752               0.001458097               0.999999984              -0.000050039               0.001485439               0.999999984              -0.000045781               0.001514546               0.999999984              -0.000039083               0.001544722               0.999999984              -0.000029238               0.001575351               0.999999984              -0.000015512               0.001605759               0.999999984               0.000003102               0.001635544               0.999999984               0.000027818               0.001664035               0.999999984               0.000060106               0.001690716               0.999999984               0.000101861               0.001715214               0.999999984              -0.000074709               0.001388745               0.999999984              -0.000048529               0.001411748               0.999999984              -0.000035990               0.001421382               0.999999984              -0.000030087               0.001431409               0.999999984              -0.000027333               0.001445676               0.999999984              -0.000025973               0.001464637               0.999999984              -0.000024883               0.001487771               0.999999984              -0.000023639               0.001514374               0.999999984              -0.000022234               0.001543859               0.999999984              -0.000020175               0.001575546               0.999999984              -0.000016803               0.001608828               0.999999984              -0.000011854               0.001643192               0.999999984              -0.000004802               0.001678142               0.999999984               0.000005016               0.001713154               0.999999984               0.000018261               0.001747450               0.999999984               0.000035991               0.001780333               0.999999984               0.000059818               0.001810741               0.999999984               0.000000000               0.001396079               0.999999984               0.000000000               0.001423516               0.999999984              -0.000000000               0.001435944               0.999999984              -0.000000000               0.001447674               0.999999984              -0.000000000               0.001463105               0.999999984               0.000000000               0.001482970               0.999999984               0.000000000               0.001506969               0.999999984               0.000000000               0.001534347               0.999999984               0.000000000               0.001564517               0.999999984               0.000000000               0.001597081               0.999999984               0.000000000               0.001631531               0.999999984              -0.000000000               0.001667333               0.999999984              -0.000000000               0.001703937               0.999999984              -0.000000000               0.001740840               0.999999984              -0.000000000               0.001777206               0.999999984              -0.000000000               0.001812222               0.999999984              -0.000000000               0.001844802               0.999999984              -0.000785589               0.000000000               0.999999984              -0.000837262              -0.000000000               0.999999984              -0.000859710              -0.000000000               0.999999984              -0.000872257               0.000000000               0.999999984              -0.000882006              -0.000000000               0.999999984              -0.000891603              -0.000000000               0.999999984              -0.000901997              -0.000000000               0.999999984              -0.000913639               0.000000000               0.999999984              -0.000926453              -0.000000000               0.999999984              -0.000940313               0.000000000               0.999999984              -0.000954984              -0.000000000               0.999999984              -0.000970052              -0.000000000               0.999999984              -0.000985267              -0.000000000               0.999999984              -0.001000237               0.000000000               0.999999984              -0.001014242              -0.000000000               0.999999984              -0.001026422              -0.000000000               0.999999984              -0.001035850               0.000000000               0.999999984              -0.000781135              -0.000133964               0.999999984              -0.000828854              -0.000108239               0.999999984              -0.000848782              -0.000096747               0.999999984              -0.000859759              -0.000092101               0.999999984              -0.000868473              -0.000091142               0.999999984              -0.000877329              -0.000091856               0.999999984              -0.000887232              -0.000093710               0.999999984              -0.000898330              -0.000096050               0.999999984              -0.000910550              -0.000098231               0.999999984              -0.000923637              -0.000100004               0.999999984              -0.000937301              -0.000101047               0.999999984              -0.000951209              -0.000100976               0.999999984              -0.000964880              -0.000099431               0.999999984              -0.000977827              -0.000095504               0.999999984              -0.000989476              -0.000088560               0.999999984              -0.000999206              -0.000077849               0.999999984              -0.001006310              -0.000062634               0.999999984              -0.000768150              -0.000266569               0.999999984              -0.000804235              -0.000215959               0.999999984              -0.000816989              -0.000194141               0.999999984              -0.000823594              -0.000186070               0.999999984              -0.000829583              -0.000184841               0.999999984              -0.000836472              -0.000187069               0.999999984              -0.000844721              -0.000191101               0.999999984              -0.000854278              -0.000196001               0.999999984              -0.000864901              -0.000200495               0.999999984              -0.000876069              -0.000203918               0.999999984              -0.000887179              -0.000205675               0.999999984              -0.000897583              -0.000205031               0.999999984              -0.000906832              -0.000201312               0.999999984              -0.000914520              -0.000193441               0.999999984              -0.000920194              -0.000180256               0.999999984              -0.000923635              -0.000160906               0.999999984              -0.000924555              -0.000134184               0.999999984              -0.000746885              -0.000396615               0.999999984              -0.000764664              -0.000322713               0.999999984              -0.000767304              -0.000292798               0.999999984              -0.000768171              -0.000282977               0.999999984              -0.000770540              -0.000282843               0.999999984              -0.000774934              -0.000287296               0.999999984              -0.000781095              -0.000294116               0.999999984              -0.000788610              -0.000301804               0.999999984              -0.000796601              -0.000308538               0.999999984              -0.000804212              -0.000313252               0.999999984              -0.000810703              -0.000315022               0.999999984              -0.000815369              -0.000313197               0.999999984              -0.000817694              -0.000307074               0.999999984              -0.000817562              -0.000295547               0.999999984              -0.000814906              -0.000277774               0.999999984              -0.000809701              -0.000253053               0.999999984              -0.000802288              -0.000220564               0.999999984              -0.000717752              -0.000522907               0.999999984              -0.000712277              -0.000428295               0.999999984              -0.000703613              -0.000393105               0.999999984              -0.000698693              -0.000383343               0.999999984              -0.000697819              -0.000385415               0.999999984              -0.000700004              -0.000392718               0.999999984              -0.000704008              -0.000402691               0.999999984              -0.000708803              -0.000413008               0.999999984              -0.000713182              -0.000421492               0.999999984              -0.000716002              -0.000426817               0.999999984              -0.000716509              -0.000428052               0.999999984              -0.000714136              -0.000424490               0.999999984              -0.000708619              -0.000415715               0.999999984              -0.000699970              -0.000401230               0.999999984              -0.000688346              -0.000380572               0.999999984              -0.000674282              -0.000353686               0.999999984              -0.000658519              -0.000321010               0.999999984              -0.000681508              -0.000644153               0.999999984              -0.000649749              -0.000532651               0.999999984              -0.000630371              -0.000494994               0.999999984              -0.000621101              -0.000486866               0.999999984              -0.000618164              -0.000491720               0.999999984              -0.000618688              -0.000502174               0.999999984              -0.000620820              -0.000514959               0.999999984              -0.000622771              -0.000527190               0.999999984              -0.000622900              -0.000536630               0.999999984              -0.000620154              -0.000541858               0.999999984              -0.000613839              -0.000542050               0.999999984              -0.000603694              -0.000536775               0.999999984              -0.000589862              -0.000525850               0.999999984              -0.000572578              -0.000509240               0.999999984              -0.000552319              -0.000487315               0.999999984              -0.000529824              -0.000460611               0.999999984              -0.000505871              -0.000430419               0.999999984              -0.000638614              -0.000759274               0.999999984              -0.000580138              -0.000635778               0.999999984              -0.000552592              -0.000597800               0.999999984              -0.000541066              -0.000592194               0.999999984              -0.000537505              -0.000599963               0.999999984              -0.000537406              -0.000613098               0.999999984              -0.000537910              -0.000627981               0.999999984              -0.000536702              -0.000641340               0.999999984              -0.000531998              -0.000650886               0.999999984              -0.000522886              -0.000655503               0.999999984              -0.000509007              -0.000654579               0.999999984              -0.000490469              -0.000647926               0.999999984              -0.000467724              -0.000635587               0.999999984              -0.000441381              -0.000618120               0.999999984              -0.000412085              -0.000596460               0.999999984              -0.000380724              -0.000571634               0.999999984              -0.000348078              -0.000544857               0.999999984              -0.000589927              -0.000867134               0.999999984              -0.000506760              -0.000737382               0.999999984              -0.000474437              -0.000700705               0.999999984              -0.000463364              -0.000697437               0.999999984              -0.000460650              -0.000707598               0.999999984              -0.000460375              -0.000722881               0.999999984              -0.000459075              -0.000739253               0.999999984              -0.000454153              -0.000753089               0.999999984              -0.000443841              -0.000762235               0.999999984              -0.000427423              -0.000766030               0.999999984              -0.000405119              -0.000764036               0.999999984              -0.000377348              -0.000756283               0.999999984              -0.000344840              -0.000743423               0.999999984              -0.000308463              -0.000726284               0.999999984              -0.000269317              -0.000706113               0.999999984              -0.000228475              -0.000684122               0.999999984              -0.000186841              -0.000661091               0.999999984              -0.000537086              -0.000965880               0.999999984              -0.000432006              -0.000837366               0.999999984              -0.000400056              -0.000802138               0.999999984              -0.000391368              -0.000800547               0.999999984              -0.000390161              -0.000812547               0.999999984              -0.000389728              -0.000829520               0.999999984              -0.000386250              -0.000846799               0.999999984              -0.000376720              -0.000860697               0.999999984              -0.000359595              -0.000869331               0.999999984              -0.000334795              -0.000872231               0.999999984              -0.000302875              -0.000869263               0.999999984              -0.000264603              -0.000860878               0.999999984              -0.000221172              -0.000848201               0.999999984              -0.000174004              -0.000832436               0.999999984              -0.000124704              -0.000814859               0.999999984              -0.000074471              -0.000796411               0.999999984              -0.000024057              -0.000777780               0.999999984              -0.000482434              -0.001059121               0.999999984              -0.000369585              -0.000948669               0.999999984              -0.000334662              -0.000909219               0.999999984              -0.000324937              -0.000902190               0.999999984              -0.000323445              -0.000909814               0.999999984              -0.000323489              -0.000924209               0.999999984              -0.000321457              -0.000941012               0.999999984              -0.000315043              -0.000957004               0.999999984              -0.000302040              -0.000969783               0.999999984              -0.000281798              -0.000978432               0.999999984              -0.000254535              -0.000982588               0.999999984              -0.000220547              -0.000982406               0.999999984              -0.000180504              -0.000978187               0.999999984              -0.000135493              -0.000971047               0.999999984              -0.000086900              -0.000961811               0.999999984              -0.000036463              -0.000951483               0.999999984               0.000014593              -0.000940579               0.999999984              -0.000422587              -0.001143836               0.999999984              -0.000310041              -0.001056243               0.999999984              -0.000272211              -0.001019016               0.999999984              -0.000260806              -0.001008964               0.999999984              -0.000258420              -0.001013530               0.999999984              -0.000258267              -0.001025923               0.999999984              -0.000257021              -0.001042190               0.999999984              -0.000252718              -0.001059571               0.999999984              -0.000243266              -0.001075744               0.999999984              -0.000227313              -0.001089310               0.999999984              -0.000204664              -0.001099590               0.999999984              -0.000175198              -0.001106462               0.999999984              -0.000139362              -0.001109897               0.999999984              -0.000097474              -0.001110446               0.999999984              -0.000050549              -0.001108919               0.999999984              -0.000000309              -0.001106085               0.999999984               0.000051623              -0.001102657               0.999999984              -0.000358687              -0.001218118               0.999999984              -0.000253239              -0.001156917               0.999999984              -0.000214415              -0.001126481               0.999999984              -0.000201234              -0.001116915               0.999999984              -0.000197534              -0.001120403               0.999999984              -0.000196713              -0.001131869               0.999999984              -0.000195533              -0.001148091               0.999999984              -0.000192367              -0.001166641               0.999999984              -0.000185564              -0.001185676               0.999999984              -0.000173552              -0.001203479               0.999999984              -0.000155383              -0.001219238               0.999999984              -0.000130873              -0.001232443               0.999999984              -0.000099779              -0.001242959               0.999999984              -0.000062008              -0.001250854               0.999999984              -0.000017822              -0.001256553               0.999999984               0.000031604              -0.001260839               0.999999984               0.000084658              -0.001264389               0.999999984              -0.000291323              -0.001280718               0.999999984              -0.000199186              -0.001246514               0.999999984              -0.000162160              -0.001226187               0.999999984              -0.000148028              -0.001220195               0.999999984              -0.000143103              -0.001224900               0.999999984              -0.000141320              -0.001236965               0.999999984              -0.000139916              -0.001253932               0.999999984              -0.000137310              -0.001273983               0.999999984              -0.000132286              -0.001295607               0.999999984              -0.000123373              -0.001317497               0.999999984              -0.000109393              -0.001338437               0.999999984              -0.000089903              -0.001357785               0.999999984              -0.000064194              -0.001375144               0.999999984              -0.000031519              -0.001390331               0.999999984               0.000008377              -0.001403309               0.999999984               0.000055412              -0.001414533               0.999999984               0.000108883              -0.001424782               0.999999984              -0.000221124              -0.001330536               0.999999984              -0.000147490              -0.001321033               0.999999984              -0.000115538              -0.001312314               0.999999984              -0.000102147              -0.001311832               0.999999984              -0.000096791              -0.001319423               0.999999984              -0.000094304              -0.001333437               0.999999984              -0.000092601              -0.001352183               0.999999984              -0.000090365              -0.001374407               0.999999984              -0.000086557              -0.001398871               0.999999984              -0.000080043              -0.001424505               0.999999984              -0.000069925              -0.001450353               0.999999984              -0.000055409              -0.001475659               0.999999984              -0.000035412              -0.001499829               0.999999984              -0.000009124              -0.001522465               0.999999984               0.000024470              -0.001543195               0.999999984               0.000066322              -0.001561982               0.999999984               0.000117195              -0.001579170               0.999999984              -0.000148679              -0.001366772               0.999999984              -0.000097495              -0.001377018               0.999999984              -0.000073927              -0.001379028               0.999999984              -0.000063312              -0.001384498               0.999999984              -0.000058638              -0.001395752               0.999999984              -0.000056324              -0.001412370               0.999999984              -0.000054621              -0.001433438               0.999999984              -0.000052752              -0.001458097               0.999999984              -0.000050039              -0.001485439               0.999999984              -0.000045781              -0.001514546               0.999999984              -0.000039083              -0.001544722               0.999999984              -0.000029238              -0.001575351               0.999999984              -0.000015512              -0.001605759               0.999999984               0.000003102              -0.001635544               0.999999984               0.000027818              -0.001664035               0.999999984               0.000060106              -0.001690716               0.999999984               0.000101861              -0.001715214               0.999999984              -0.000074709              -0.001388745               0.999999984              -0.000048529              -0.001411748               0.999999984              -0.000035990              -0.001421382               0.999999984              -0.000030087              -0.001431409               0.999999984              -0.000027333              -0.001445676               0.999999984              -0.000025973              -0.001464637               0.999999984              -0.000024883              -0.001487771               0.999999984              -0.000023639              -0.001514374               0.999999984              -0.000022234              -0.001543859               0.999999984              -0.000020175              -0.001575546               0.999999984              -0.000016803              -0.001608828               0.999999984              -0.000011854              -0.001643192               0.999999984              -0.000004802              -0.001678142               0.999999984               0.000005016              -0.001713154               0.999999984               0.000018261              -0.001747450               0.999999984               0.000035991              -0.001780333               0.999999984               0.000059818              -0.001810741               0.999999984              -0.000000000              -0.001396079               0.999999984              -0.000000000              -0.001423516               0.999999984               0.000000000              -0.001435944               0.999999984              -0.000000000              -0.001447674               0.999999984              -0.000000000              -0.001463105               0.999999984              -0.000000000              -0.001482970               0.999999984               0.000000000              -0.001506969               0.999999984              -0.000000000              -0.001534347               0.999999984              -0.000000000              -0.001564517               0.999999984              -0.000000000              -0.001597081               0.999999984              -0.000000000              -0.001631531               0.999999984               0.000000000              -0.001667333               0.999999984              -0.000000000              -0.001703937               0.999999984              -0.000000000              -0.001740840               0.999999984               0.000000000              -0.001777206               0.999999984               0.000000000              -0.001812222               0.999999984               0.000000000              -0.001844802               0.999999984               0.000785589              -0.000000000               0.999999984               0.000837262               0.000000000               0.999999984               0.000859710               0.000000000               0.999999984               0.000872257               0.000000000               0.999999984               0.000882006               0.000000000               0.999999984               0.000891603               0.000000000               0.999999984               0.000901997               0.000000000               0.999999984               0.000913639              -0.000000000               0.999999984               0.000926453               0.000000000               0.999999984               0.000940313               0.000000000               0.999999984               0.000954984              -0.000000000               0.999999984               0.000970052               0.000000000               0.999999984               0.000985267               0.000000000               0.999999984               0.001000237               0.000000000               0.999999984               0.001014242               0.000000000               0.999999984               0.001026422              -0.000000000               0.999999984               0.001035850               0.000000000               0.999999984               0.000781135              -0.000133964               0.999999984               0.000828854              -0.000108239               0.999999984               0.000848782              -0.000096747               0.999999984               0.000859759              -0.000092101               0.999999984               0.000868473              -0.000091142               0.999999984               0.000877329              -0.000091856               0.999999984               0.000887232              -0.000093710               0.999999984               0.000898330              -0.000096050               0.999999984               0.000910550              -0.000098231               0.999999984               0.000923637              -0.000100004               0.999999984               0.000937301              -0.000101047               0.999999984               0.000951209              -0.000100976               0.999999984               0.000964880              -0.000099431               0.999999984               0.000977827              -0.000095504               0.999999984               0.000989476              -0.000088560               0.999999984               0.000999206              -0.000077849               0.999999984               0.001006310              -0.000062634               0.999999984               0.000768150              -0.000266569               0.999999984               0.000804235              -0.000215959               0.999999984               0.000816989              -0.000194141               0.999999984               0.000823594              -0.000186070               0.999999984               0.000829583              -0.000184841               0.999999984               0.000836472              -0.000187069               0.999999984               0.000844721              -0.000191101               0.999999984               0.000854278              -0.000196001               0.999999984               0.000864901              -0.000200495               0.999999984               0.000876069              -0.000203918               0.999999984               0.000887179              -0.000205675               0.999999984               0.000897583              -0.000205031               0.999999984               0.000906832              -0.000201312               0.999999984               0.000914520              -0.000193441               0.999999984               0.000920194              -0.000180256               0.999999984               0.000923635              -0.000160906               0.999999984               0.000924555              -0.000134184               0.999999984               0.000746885              -0.000396615               0.999999984               0.000764664              -0.000322713               0.999999984               0.000767304              -0.000292798               0.999999984               0.000768171              -0.000282977               0.999999984               0.000770540              -0.000282843               0.999999984               0.000774934              -0.000287296               0.999999984               0.000781095              -0.000294116               0.999999984               0.000788610              -0.000301804               0.999999984               0.000796601              -0.000308538               0.999999984               0.000804212              -0.000313252               0.999999984               0.000810703              -0.000315022               0.999999984               0.000815369              -0.000313197               0.999999984               0.000817694              -0.000307074               0.999999984               0.000817562              -0.000295547               0.999999984               0.000814906              -0.000277774               0.999999984               0.000809701              -0.000253053               0.999999984               0.000802288              -0.000220564               0.999999984               0.000717752              -0.000522907               0.999999984               0.000712277              -0.000428295               0.999999984               0.000703613              -0.000393105               0.999999984               0.000698693              -0.000383343               0.999999984               0.000697819              -0.000385415               0.999999984               0.000700004              -0.000392718               0.999999984               0.000704008              -0.000402691               0.999999984               0.000708803              -0.000413008               0.999999984               0.000713182              -0.000421492               0.999999984               0.000716002              -0.000426817               0.999999984               0.000716509              -0.000428052               0.999999984               0.000714136              -0.000424490               0.999999984               0.000708619              -0.000415715               0.999999984               0.000699970              -0.000401230               0.999999984               0.000688346              -0.000380572               0.999999984               0.000674282              -0.000353686               0.999999984               0.000658519              -0.000321010               0.999999984               0.000681508              -0.000644153               0.999999984               0.000649749              -0.000532651               0.999999984               0.000630371              -0.000494994               0.999999984               0.000621101              -0.000486866               0.999999984               0.000618164              -0.000491720               0.999999984               0.000618688              -0.000502174               0.999999984               0.000620820              -0.000514959               0.999999984               0.000622771              -0.000527190               0.999999984               0.000622900              -0.000536630               0.999999984               0.000620154              -0.000541858               0.999999984               0.000613839              -0.000542050               0.999999984               0.000603694              -0.000536775               0.999999984               0.000589862              -0.000525850               0.999999984               0.000572578              -0.000509240               0.999999984               0.000552319              -0.000487315               0.999999984               0.000529824              -0.000460611               0.999999984               0.000505871              -0.000430419               0.999999984               0.000638614              -0.000759274               0.999999984               0.000580138              -0.000635778               0.999999984               0.000552592              -0.000597800               0.999999984               0.000541066              -0.000592194               0.999999984               0.000537505              -0.000599963               0.999999984               0.000537406              -0.000613098               0.999999984               0.000537910              -0.000627981               0.999999984               0.000536702              -0.000641340               0.999999984               0.000531998              -0.000650886               0.999999984               0.000522886              -0.000655503               0.999999984               0.000509007              -0.000654579               0.999999984               0.000490469              -0.000647926               0.999999984               0.000467724              -0.000635587               0.999999984               0.000441381              -0.000618120               0.999999984               0.000412085              -0.000596460               0.999999984               0.000380724              -0.000571634               0.999999984               0.000348078              -0.000544857               0.999999984               0.000589927              -0.000867134               0.999999984               0.000506760              -0.000737382               0.999999984               0.000474437              -0.000700705               0.999999984               0.000463364              -0.000697437               0.999999984               0.000460650              -0.000707598               0.999999984               0.000460375              -0.000722881               0.999999984               0.000459075              -0.000739253               0.999999984               0.000454153              -0.000753089               0.999999984               0.000443841              -0.000762235               0.999999984               0.000427423              -0.000766030               0.999999984               0.000405119              -0.000764036               0.999999984               0.000377348              -0.000756283               0.999999984               0.000344840              -0.000743423               0.999999984               0.000308463              -0.000726284               0.999999984               0.000269317              -0.000706113               0.999999984               0.000228475              -0.000684122               0.999999984               0.000186841              -0.000661091               0.999999984               0.000537086              -0.000965880               0.999999984               0.000432006              -0.000837366               0.999999984               0.000400056              -0.000802138               0.999999984               0.000391368              -0.000800547               0.999999984               0.000390161              -0.000812547               0.999999984               0.000389728              -0.000829520               0.999999984               0.000386250              -0.000846799               0.999999984               0.000376720              -0.000860697               0.999999984               0.000359595              -0.000869331               0.999999984               0.000334795              -0.000872231               0.999999984               0.000302875              -0.000869263               0.999999984               0.000264603              -0.000860878               0.999999984               0.000221172              -0.000848201               0.999999984               0.000174004              -0.000832436               0.999999984               0.000124704              -0.000814859               0.999999984               0.000074471              -0.000796411               0.999999984               0.000024057              -0.000777780               0.999999984               0.000482434              -0.001059121               0.999999984               0.000369585              -0.000948669               0.999999984               0.000334662              -0.000909219               0.999999984               0.000324937              -0.000902190               0.999999984               0.000323445              -0.000909814               0.999999984               0.000323489              -0.000924209               0.999999984               0.000321457              -0.000941012               0.999999984               0.000315043              -0.000957004               0.999999984               0.000302040              -0.000969783               0.999999984               0.000281798              -0.000978432               0.999999984               0.000254535              -0.000982588               0.999999984               0.000220547              -0.000982406               0.999999984               0.000180504              -0.000978187               0.999999984               0.000135493              -0.000971047               0.999999984               0.000086900              -0.000961811               0.999999984               0.000036463              -0.000951483               0.999999984              -0.000014593              -0.000940579               0.999999984               0.000422587              -0.001143836               0.999999984               0.000310041              -0.001056243               0.999999984               0.000272211              -0.001019016               0.999999984               0.000260806              -0.001008964               0.999999984               0.000258420              -0.001013530               0.999999984               0.000258267              -0.001025923               0.999999984               0.000257021              -0.001042190               0.999999984               0.000252718              -0.001059571               0.999999984               0.000243266              -0.001075744               0.999999984               0.000227313              -0.001089310               0.999999984               0.000204664              -0.001099590               0.999999984               0.000175198              -0.001106462               0.999999984               0.000139362              -0.001109897               0.999999984               0.000097474              -0.001110446               0.999999984               0.000050549              -0.001108919               0.999999984               0.000000309              -0.001106085               0.999999984              -0.000051623              -0.001102657               0.999999984               0.000358687              -0.001218118               0.999999984               0.000253239              -0.001156917               0.999999984               0.000214415              -0.001126481               0.999999984               0.000201234              -0.001116915               0.999999984               0.000197534              -0.001120403               0.999999984               0.000196713              -0.001131869               0.999999984               0.000195533              -0.001148091               0.999999984               0.000192367              -0.001166641               0.999999984               0.000185564              -0.001185676               0.999999984               0.000173552              -0.001203479               0.999999984               0.000155383              -0.001219238               0.999999984               0.000130873              -0.001232443               0.999999984               0.000099779              -0.001242959               0.999999984               0.000062008              -0.001250854               0.999999984               0.000017822              -0.001256553               0.999999984              -0.000031604              -0.001260839               0.999999984              -0.000084658              -0.001264389               0.999999984               0.000291323              -0.001280718               0.999999984               0.000199186              -0.001246514               0.999999984               0.000162160              -0.001226187               0.999999984               0.000148028              -0.001220195               0.999999984               0.000143103              -0.001224900               0.999999984               0.000141320              -0.001236965               0.999999984               0.000139916              -0.001253932               0.999999984               0.000137310              -0.001273983               0.999999984               0.000132286              -0.001295607               0.999999984               0.000123373              -0.001317497               0.999999984               0.000109393              -0.001338437               0.999999984               0.000089903              -0.001357785               0.999999984               0.000064194              -0.001375144               0.999999984               0.000031519              -0.001390331               0.999999984              -0.000008377              -0.001403309               0.999999984              -0.000055412              -0.001414533               0.999999984              -0.000108883              -0.001424782               0.999999984               0.000221124              -0.001330536               0.999999984               0.000147490              -0.001321033               0.999999984               0.000115538              -0.001312314               0.999999984               0.000102147              -0.001311832               0.999999984               0.000096791              -0.001319423               0.999999984               0.000094304              -0.001333437               0.999999984               0.000092601              -0.001352183               0.999999984               0.000090365              -0.001374407               0.999999984               0.000086557              -0.001398871               0.999999984               0.000080043              -0.001424505               0.999999984               0.000069925              -0.001450353               0.999999984               0.000055409              -0.001475659               0.999999984               0.000035412              -0.001499829               0.999999984               0.000009124              -0.001522465               0.999999984              -0.000024470              -0.001543195               0.999999984              -0.000066322              -0.001561982               0.999999984              -0.000117195              -0.001579170               0.999999984               0.000148679              -0.001366772               0.999999984               0.000097495              -0.001377018               0.999999984               0.000073927              -0.001379028               0.999999984               0.000063312              -0.001384498               0.999999984               0.000058638              -0.001395752               0.999999984               0.000056324              -0.001412370               0.999999984               0.000054621              -0.001433438               0.999999984               0.000052752              -0.001458097               0.999999984               0.000050039              -0.001485439               0.999999984               0.000045781              -0.001514546               0.999999984               0.000039083              -0.001544722               0.999999984               0.000029238              -0.001575351               0.999999984               0.000015512              -0.001605759               0.999999984              -0.000003102              -0.001635544               0.999999984              -0.000027818              -0.001664035               0.999999984              -0.000060106              -0.001690716               0.999999984              -0.000101861              -0.001715214               0.999999984               0.000074709              -0.001388745               0.999999984               0.000048529              -0.001411748               0.999999984               0.000035990              -0.001421382               0.999999984               0.000030087              -0.001431409               0.999999984               0.000027333              -0.001445676               0.999999984               0.000025973              -0.001464637               0.999999984               0.000024883              -0.001487771               0.999999984               0.000023639              -0.001514374               0.999999984               0.000022234              -0.001543859               0.999999984               0.000020175              -0.001575546               0.999999984               0.000016803              -0.001608828               0.999999984               0.000011854              -0.001643192               0.999999984               0.000004802              -0.001678142               0.999999984              -0.000005016              -0.001713154               0.999999984              -0.000018261              -0.001747450               0.999999984              -0.000035991              -0.001780333               0.999999984              -0.000059818              -0.001810741               0.999999984              -0.000000000              -0.001396079               0.999999984              -0.000000000              -0.001423516               0.999999984               0.000000000              -0.001435944               0.999999984              -0.000000000              -0.001447674               0.999999984              -0.000000000              -0.001463105               0.999999984              -0.000000000              -0.001482970               0.999999984               0.000000000              -0.001506969               0.999999984              -0.000000000              -0.001534347               0.999999984              -0.000000000              -0.001564517               0.999999984              -0.000000000              -0.001597081               0.999999984              -0.000000000              -0.001631531               0.999999984               0.000000000              -0.001667333               0.999999984              -0.000000000              -0.001703937               0.999999984              -0.000000000              -0.001740840               0.999999984               0.000000000              -0.001777206               0.999999984               0.000000000              -0.001812222               0.999999984               0.000000000              -0.001844802               0.999999984               0.000785589              -0.000000000               0.999999984               0.000837262               0.000000000               0.999999984               0.000859710               0.000000000               0.999999984               0.000872257               0.000000000               0.999999984               0.000882006               0.000000000               0.999999984               0.000891603               0.000000000               0.999999984               0.000901997               0.000000000               0.999999984               0.000913639              -0.000000000               0.999999984               0.000926453               0.000000000               0.999999984               0.000940313               0.000000000               0.999999984               0.000954984              -0.000000000               0.999999984               0.000970052               0.000000000               0.999999984               0.000985267               0.000000000               0.999999984               0.001000237               0.000000000               0.999999984               0.001014242               0.000000000               0.999999984               0.001026422              -0.000000000               0.999999984               0.001035850               0.000000000               0.999999984               0.000781135               0.000133964               0.999999984               0.000828854               0.000108239               0.999999984               0.000848782               0.000096747               0.999999984               0.000859759               0.000092101               0.999999984               0.000868473               0.000091142               0.999999984               0.000877329               0.000091856               0.999999984               0.000887232               0.000093710               0.999999984               0.000898330               0.000096050               0.999999984               0.000910550               0.000098231               0.999999984               0.000923637               0.000100004               0.999999984               0.000937301               0.000101047               0.999999984               0.000951209               0.000100976               0.999999984               0.000964880               0.000099431               0.999999984               0.000977827               0.000095504               0.999999984               0.000989476               0.000088560               0.999999984               0.000999206               0.000077849               0.999999984               0.001006310               0.000062634               0.999999984               0.000768150               0.000266569               0.999999984               0.000804235               0.000215959               0.999999984               0.000816989               0.000194141               0.999999984               0.000823594               0.000186070               0.999999984               0.000829583               0.000184841               0.999999984               0.000836472               0.000187069               0.999999984               0.000844721               0.000191101               0.999999984               0.000854278               0.000196001               0.999999984               0.000864901               0.000200495               0.999999984               0.000876069               0.000203918               0.999999984               0.000887179               0.000205675               0.999999984               0.000897583               0.000205031               0.999999984               0.000906832               0.000201312               0.999999984               0.000914520               0.000193441               0.999999984               0.000920194               0.000180256               0.999999984               0.000923635               0.000160906               0.999999984               0.000924555               0.000134184               0.999999984               0.000746885               0.000396615               0.999999984               0.000764664               0.000322713               0.999999984               0.000767304               0.000292798               0.999999984               0.000768171               0.000282977               0.999999984               0.000770540               0.000282843               0.999999984               0.000774934               0.000287296               0.999999984               0.000781095               0.000294116               0.999999984               0.000788610               0.000301804               0.999999984               0.000796601               0.000308538               0.999999984               0.000804212               0.000313252               0.999999984               0.000810703               0.000315022               0.999999984               0.000815369               0.000313197               0.999999984               0.000817694               0.000307074               0.999999984               0.000817562               0.000295547               0.999999984               0.000814906               0.000277774               0.999999984               0.000809701               0.000253053               0.999999984               0.000802288               0.000220564               0.999999984               0.000717752               0.000522907               0.999999984               0.000712277               0.000428295               0.999999984               0.000703613               0.000393105               0.999999984               0.000698693               0.000383343               0.999999984               0.000697819               0.000385415               0.999999984               0.000700004               0.000392718               0.999999984               0.000704008               0.000402691               0.999999984               0.000708803               0.000413008               0.999999984               0.000713182               0.000421492               0.999999984               0.000716002               0.000426817               0.999999984               0.000716509               0.000428052               0.999999984               0.000714136               0.000424490               0.999999984               0.000708619               0.000415715               0.999999984               0.000699970               0.000401230               0.999999984               0.000688346               0.000380572               0.999999984               0.000674282               0.000353686               0.999999984               0.000658519               0.000321010               0.999999984               0.000681508               0.000644153               0.999999984               0.000649749               0.000532651               0.999999984               0.000630371               0.000494994               0.999999984               0.000621101               0.000486866               0.999999984               0.000618164               0.000491720               0.999999984               0.000618688               0.000502174               0.999999984               0.000620820               0.000514959               0.999999984               0.000622771               0.000527190               0.999999984               0.000622900               0.000536630               0.999999984               0.000620154               0.000541858               0.999999984               0.000613839               0.000542050               0.999999984               0.000603694               0.000536775               0.999999984               0.000589862               0.000525850               0.999999984               0.000572578               0.000509240               0.999999984               0.000552319               0.000487315               0.999999984               0.000529824               0.000460611               0.999999984               0.000505871               0.000430419               0.999999984               0.000638614               0.000759274               0.999999984               0.000580138               0.000635778               0.999999984               0.000552592               0.000597800               0.999999984               0.000541066               0.000592194               0.999999984               0.000537505               0.000599963               0.999999984               0.000537406               0.000613098               0.999999984               0.000537910               0.000627981               0.999999984               0.000536702               0.000641340               0.999999984               0.000531998               0.000650886               0.999999984               0.000522886               0.000655503               0.999999984               0.000509007               0.000654579               0.999999984               0.000490469               0.000647926               0.999999984               0.000467724               0.000635587               0.999999984               0.000441381               0.000618120               0.999999984               0.000412085               0.000596460               0.999999984               0.000380724               0.000571634               0.999999984               0.000348078               0.000544857               0.999999984               0.000589927               0.000867134               0.999999984               0.000506760               0.000737382               0.999999984               0.000474437               0.000700705               0.999999984               0.000463364               0.000697437               0.999999984               0.000460650               0.000707598               0.999999984               0.000460375               0.000722881               0.999999984               0.000459075               0.000739253               0.999999984               0.000454153               0.000753089               0.999999984               0.000443841               0.000762235               0.999999984               0.000427423               0.000766030               0.999999984               0.000405119               0.000764036               0.999999984               0.000377348               0.000756283               0.999999984               0.000344840               0.000743423               0.999999984               0.000308463               0.000726284               0.999999984               0.000269317               0.000706113               0.999999984               0.000228475               0.000684122               0.999999984               0.000186841               0.000661091               0.999999984               0.000537086               0.000965880               0.999999984               0.000432006               0.000837366               0.999999984               0.000400056               0.000802138               0.999999984               0.000391368               0.000800547               0.999999984               0.000390161               0.000812547               0.999999984               0.000389728               0.000829520               0.999999984               0.000386250               0.000846799               0.999999984               0.000376720               0.000860697               0.999999984               0.000359595               0.000869331               0.999999984               0.000334795               0.000872231               0.999999984               0.000302875               0.000869263               0.999999984               0.000264603               0.000860878               0.999999984               0.000221172               0.000848201               0.999999984               0.000174004               0.000832436               0.999999984               0.000124704               0.000814859               0.999999984               0.000074471               0.000796411               0.999999984               0.000024057               0.000777780               0.999999984               0.000482434               0.001059121               0.999999984               0.000369585               0.000948669               0.999999984               0.000334662               0.000909219               0.999999984               0.000324937               0.000902190               0.999999984               0.000323445               0.000909814               0.999999984               0.000323489               0.000924209               0.999999984               0.000321457               0.000941012               0.999999984               0.000315043               0.000957004               0.999999984               0.000302040               0.000969783               0.999999984               0.000281798               0.000978432               0.999999984               0.000254535               0.000982588               0.999999984               0.000220547               0.000982406               0.999999984               0.000180504               0.000978187               0.999999984               0.000135493               0.000971047               0.999999984               0.000086900               0.000961811               0.999999984               0.000036463               0.000951483               0.999999984              -0.000014593               0.000940579               0.999999984               0.000422587               0.001143836               0.999999984               0.000310041               0.001056243               0.999999984               0.000272211               0.001019016               0.999999984               0.000260806               0.001008964               0.999999984               0.000258420               0.001013530               0.999999984               0.000258267               0.001025923               0.999999984               0.000257021               0.001042190               0.999999984               0.000252718               0.001059571               0.999999984               0.000243266               0.001075744               0.999999984               0.000227313               0.001089310               0.999999984               0.000204664               0.001099590               0.999999984               0.000175198               0.001106462               0.999999984               0.000139362               0.001109897               0.999999984               0.000097474               0.001110446               0.999999984               0.000050549               0.001108919               0.999999984               0.000000309               0.001106085               0.999999984              -0.000051623               0.001102657               0.999999984               0.000358687               0.001218118               0.999999984               0.000253239               0.001156917               0.999999984               0.000214415               0.001126481               0.999999984               0.000201234               0.001116915               0.999999984               0.000197534               0.001120403               0.999999984               0.000196713               0.001131869               0.999999984               0.000195533               0.001148091               0.999999984               0.000192367               0.001166641               0.999999984               0.000185564               0.001185676               0.999999984               0.000173552               0.001203479               0.999999984               0.000155383               0.001219238               0.999999984               0.000130873               0.001232443               0.999999984               0.000099779               0.001242959               0.999999984               0.000062008               0.001250854               0.999999984               0.000017822               0.001256553               0.999999984              -0.000031604               0.001260839               0.999999984              -0.000084658               0.001264389               0.999999984               0.000291323               0.001280718               0.999999984               0.000199186               0.001246514               0.999999984               0.000162160               0.001226187               0.999999984               0.000148028               0.001220195               0.999999984               0.000143103               0.001224900               0.999999984               0.000141320               0.001236965               0.999999984               0.000139916               0.001253932               0.999999984               0.000137310               0.001273983               0.999999984               0.000132286               0.001295607               0.999999984               0.000123373               0.001317497               0.999999984               0.000109393               0.001338437               0.999999984               0.000089903               0.001357785               0.999999984               0.000064194               0.001375144               0.999999984               0.000031519               0.001390331               0.999999984              -0.000008377               0.001403309               0.999999984              -0.000055412               0.001414533               0.999999984              -0.000108883               0.001424782               0.999999984               0.000221124               0.001330536               0.999999984               0.000147490               0.001321033               0.999999984               0.000115538               0.001312314               0.999999984               0.000102147               0.001311832               0.999999984               0.000096791               0.001319423               0.999999984               0.000094304               0.001333437               0.999999984               0.000092601               0.001352183               0.999999984               0.000090365               0.001374407               0.999999984               0.000086557               0.001398871               0.999999984               0.000080043               0.001424505               0.999999984               0.000069925               0.001450353               0.999999984               0.000055409               0.001475659               0.999999984               0.000035412               0.001499829               0.999999984               0.000009124               0.001522465               0.999999984              -0.000024470               0.001543195               0.999999984              -0.000066322               0.001561982               0.999999984              -0.000117195               0.001579170               0.999999984               0.000148679               0.001366772               0.999999984               0.000097495               0.001377018               0.999999984               0.000073927               0.001379028               0.999999984               0.000063312               0.001384498               0.999999984               0.000058638               0.001395752               0.999999984               0.000056324               0.001412370               0.999999984               0.000054621               0.001433438               0.999999984               0.000052752               0.001458097               0.999999984               0.000050039               0.001485439               0.999999984               0.000045781               0.001514546               0.999999984               0.000039083               0.001544722               0.999999984               0.000029238               0.001575351               0.999999984               0.000015512               0.001605759               0.999999984              -0.000003102               0.001635544               0.999999984              -0.000027818               0.001664035               0.999999984              -0.000060106               0.001690716               0.999999984              -0.000101861               0.001715214               0.999999984               0.000074709               0.001388745               0.999999984               0.000048529               0.001411748               0.999999984               0.000035990               0.001421382               0.999999984               0.000030087               0.001431409               0.999999984               0.000027333               0.001445676               0.999999984               0.000025973               0.001464637               0.999999984               0.000024883               0.001487771               0.999999984               0.000023639               0.001514374               0.999999984               0.000022234               0.001543859               0.999999984               0.000020175               0.001575546               0.999999984               0.000016803               0.001608828               0.999999984               0.000011854               0.001643192               0.999999984               0.000004802               0.001678142               0.999999984              -0.000005016               0.001713154               0.999999984              -0.000018261               0.001747450               0.999999984              -0.000035991               0.001780333               0.999999984              -0.000059818               0.001810741               0.999999984               0.000000000               0.001396079               0.999999984               0.000000000               0.001423516               0.999999984              -0.000000000               0.001435944               0.999999984              -0.000000000               0.001447674               0.999999984              -0.000000000               0.001463105               0.999999984               0.000000000               0.001482970               0.999999984               0.000000000               0.001506969               0.999999984               0.000000000               0.001534347               0.999999984               0.000000000               0.001564517               0.999999984               0.000000000               0.001597081               0.999999984               0.000000000               0.001631531               0.999999984              -0.000000000               0.001667333               0.999999984              -0.000000000               0.001703937               0.999999984              -0.000000000               0.001740840               0.999999984              -0.000000000               0.001777206               0.999999984              -0.000000000               0.001812222               0.999999984              -0.000000000               0.001844802               0.999999984 </DataArray>
<DataArray type="Float64"                                    Name="stress"                                                      NumberOfComponents="10" format="ascii">
              0.002255329               0.024430396              -0.000000000              -0.002208046               0.008879399               0.006671353               0.000000000               0.000000000               0.000000000               0.000000000               0.002193154               0.018962795              -0.000000000              -0.001547913               0.006836840               0.005288927               0.000000000               0.000000000               0.000000000               0.000000000               0.002846120               0.014503782               0.000000000              -0.000745676               0.005083104               0.004337428               0.000000000               0.000000000               0.000000000               0.000000000               0.002684495               0.011962501              -0.000000000              -0.000488626               0.004150336               0.003661710               0.000000000               0.000000000               0.000000000               0.000000000               0.002299927               0.010355664              -0.000000000              -0.000431985               0.003595848               0.003163864               0.000000000               0.000000000               0.000000000               0.000000000               0.001880286               0.009236055              -0.000000000              -0.000449399               0.003228454               0.002779055               0.000000000               0.000000000               0.000000000               0.000000000               0.001485724               0.008410421               0.000000000              -0.000494155               0.002968164               0.002474009               0.000000000               0.000000000               0.000000000               0.000000000               0.001133664               0.007759698              -0.000000000              -0.000544837               0.002768153               0.002223316               0.000000000               0.000000000               0.000000000               0.000000000               0.000826900               0.007204616              -0.000000000              -0.000590488               0.002598344               0.002007856               0.000000000               0.000000000               0.000000000               0.000000000               0.000562255               0.006704604               0.000000000              -0.000627228               0.002443922               0.001816693               0.000000000               0.000000000               0.000000000               0.000000000               0.000343592               0.006232822              -0.000000000              -0.000650254               0.002294338               0.001644084               0.000000000               0.000000000               0.000000000               0.000000000               0.000166755               0.005764433               0.000000000              -0.000658020               0.002140798               0.001482779               0.000000000               0.000000000               0.000000000               0.000000000               0.000025719               0.005275217               0.000000000              -0.000649756               0.001974973               0.001325218               0.000000000               0.000000000               0.000000000               0.000000000              -0.000069122               0.004735752               0.000000000              -0.000617888               0.001784531               0.001166643               0.000000000               0.000000000               0.000000000               0.000000000              -0.000102487               0.004128833              -0.000000000              -0.000554535               0.001561109               0.001006574               0.000000000               0.000000000               0.000000000               0.000000000              -0.000069155               0.003437268               0.000000000              -0.000455591               0.001297608               0.000842018               0.000000000               0.000000000               0.000000000               0.000000000              -0.000092771               0.002906159               0.000000000              -0.000398058               0.001101396               0.000703338               0.000000000               0.000000000               0.000000000               0.000000000               0.002325462               0.023914152              -0.001652418              -0.002117216               0.008677043               0.006559827               0.000000000               0.000000000               0.000000000               0.000000000               0.002139620               0.018634265              -0.000801477              -0.001526922               0.006720333               0.005193411               0.000000000               0.000000000               0.000000000               0.000000000               0.002656487               0.014366535               0.000038156              -0.000799632               0.005055341               0.004255709               0.000000000               0.000000000               0.000000000               0.000000000               0.002442461               0.011930104               0.000385512              -0.000575339               0.004168441               0.003593102               0.000000000               0.000000000               0.000000000               0.000000000               0.002046165               0.010375335               0.000521610              -0.000529604               0.003634945               0.003105341               0.000000000               0.000000000               0.000000000               0.000000000               0.001633489               0.009289274               0.000568160              -0.000548600               0.003279260               0.002730660               0.000000000               0.000000000               0.000000000               0.000000000               0.001254291               0.008476974               0.000577825              -0.000589261               0.003022050               0.002432789               0.000000000               0.000000000               0.000000000               0.000000000               0.000924003               0.007831618               0.000562007              -0.000632450               0.002821330               0.002188880               0.000000000               0.000000000               0.000000000               0.000000000               0.000642222               0.007277777               0.000533001              -0.000668887               0.002648864               0.001979976               0.000000000               0.000000000               0.000000000               0.000000000               0.000407608               0.006774047               0.000501753              -0.000693901               0.002489293               0.001795392               0.000000000               0.000000000               0.000000000               0.000000000               0.000217425               0.006293347               0.000468685              -0.000705132               0.002332805               0.001627673               0.000000000               0.000000000               0.000000000               0.000000000               0.000070277               0.005813961               0.000433995              -0.000700390               0.002171431               0.001471041               0.000000000               0.000000000               0.000000000               0.000000000              -0.000035877               0.005317729               0.000388599              -0.000678168               0.001998615               0.001320446               0.000000000               0.000000000               0.000000000               0.000000000              -0.000097863               0.004785624               0.000325485              -0.000634900               0.001806825               0.001171925               0.000000000               0.000000000               0.000000000               0.000000000              -0.000111562               0.004201814               0.000244155              -0.000567061               0.001589611               0.001022550               0.000000000               0.000000000               0.000000000               0.000000000              -0.000072152               0.003557204               0.000137483              -0.000471707               0.001342958               0.000871252               0.000000000               0.000000000               0.000000000               0.000000000              -0.000091108               0.003072655               0.000088331              -0.000418247               0.001163624               0.000745377               0.000000000               0.000000000               0.000000000               0.000000000               0.002503504               0.022448343              -0.003070579              -0.001867226               0.008105114               0.006237889               0.000000000               0.000000000               0.000000000               0.000000000               0.001972243               0.017702510              -0.001491627              -0.001473220               0.006391851               0.004918631               0.000000000               0.000000000               0.000000000               0.000000000               0.002119081               0.013979519               0.000051762              -0.000952782               0.004977387               0.004024605               0.000000000               0.000000000               0.000000000               0.000000000               0.001770709               0.011821032               0.000668265              -0.000813611               0.004211508               0.003397897               0.000000000               0.000000000               0.000000000               0.000000000               0.001351727               0.010410101               0.000904628              -0.000794363               0.003734787               0.002940423               0.000000000               0.000000000               0.000000000               0.000000000               0.000970183               0.009402464               0.000981955              -0.000811488               0.003404619               0.002593132               0.000000000               0.000000000               0.000000000               0.000000000               0.000639897               0.008627580               0.000994024              -0.000838485               0.003155326               0.002316841               0.000000000               0.000000000               0.000000000               0.000000000               0.000365869               0.007993624               0.000963978              -0.000862000               0.002951848               0.002089848               0.000000000               0.000000000               0.000000000               0.000000000               0.000148506               0.007436120               0.000911076              -0.000873823               0.002769956               0.001896133               0.000000000               0.000000000               0.000000000               0.000000000              -0.000011593               0.006917497               0.000854819              -0.000869032               0.002595487               0.001726454               0.000000000               0.000000000               0.000000000               0.000000000              -0.000116877               0.006416136               0.000796823              -0.000845844               0.002420638               0.001574795               0.000000000               0.000000000               0.000000000               0.000000000              -0.000175888               0.005920691               0.000735550              -0.000806043               0.002242225               0.001436182               0.000000000               0.000000000               0.000000000               0.000000000              -0.000202310               0.005420662               0.000658402              -0.000753447               0.002058018               0.001304571               0.000000000               0.000000000               0.000000000               0.000000000              -0.000194913               0.004914177               0.000550657              -0.000687363               0.001867164               0.001179801               0.000000000               0.000000000               0.000000000               0.000000000              -0.000155941               0.004400691               0.000410757              -0.000608563               0.001669737               0.001061174               0.000000000               0.000000000               0.000000000               0.000000000              -0.000088982               0.003882234               0.000230597              -0.000518646               0.001466947               0.000948301               0.000000000               0.000000000               0.000000000               0.000000000              -0.000088349               0.003518586               0.000144588              -0.000472953               0.001330501               0.000857548               0.000000000               0.000000000               0.000000000               0.000000000               0.002673844               0.020232346              -0.004068694              -0.001526351               0.007252831               0.005726480               0.000000000               0.000000000               0.000000000               0.000000000               0.001653035               0.016305663              -0.001987369              -0.001418317               0.005907939               0.004489622               0.000000000               0.000000000               0.000000000               0.000000000               0.001286894               0.013398038               0.000017824              -0.001192167               0.004863357               0.003671190               0.000000000               0.000000000               0.000000000               0.000000000               0.000794346               0.011624302               0.000780829              -0.001155155               0.004259780               0.003104625               0.000000000               0.000000000               0.000000000               0.000000000               0.000378114               0.010403964               0.001059125              -0.001158700               0.003854187               0.002695487               0.000000000               0.000000000               0.000000000               0.000000000               0.000056784               0.009487463               0.001144303              -0.001164636               0.003550668               0.002386032               0.000000000               0.000000000               0.000000000               0.000000000              -0.000189045               0.008759154               0.001153735              -0.001165784               0.003308283               0.002142499               0.000000000               0.000000000               0.000000000               0.000000000              -0.000366586               0.008133920               0.001116190              -0.001154207               0.003096015               0.001941808               0.000000000               0.000000000               0.000000000               0.000000000              -0.000472114               0.007565963               0.001053020              -0.001122786               0.002896224               0.001773438               0.000000000               0.000000000               0.000000000               0.000000000              -0.000518460               0.007027841               0.000984701              -0.001072900               0.002700224               0.001627323               0.000000000               0.000000000               0.000000000               0.000000000              -0.000512581               0.006507752               0.000914289              -0.001005685               0.002504457               0.001498772               0.000000000               0.000000000               0.000000000               0.000000000              -0.000461641               0.006005042               0.000838957              -0.000923744               0.002309575               0.001385832               0.000000000               0.000000000               0.000000000               0.000000000              -0.000388345               0.005519746               0.000743327              -0.000835596               0.002118429               0.001282833               0.000000000               0.000000000               0.000000000               0.000000000              -0.000302905               0.005061486               0.000614643              -0.000746274               0.001935903               0.001189629               0.000000000               0.000000000               0.000000000               0.000000000              -0.000203290               0.004645155               0.000451877              -0.000656876               0.001767328               0.001110452               0.000000000               0.000000000               0.000000000               0.000000000              -0.000100593               0.004283097               0.000248757              -0.000573108               0.001618721               0.001045613               0.000000000               0.000000000               0.000000000               0.000000000              -0.000073491               0.004065917               0.000148122              -0.000535797               0.001533891               0.000998094               0.000000000               0.000000000               0.000000000               0.000000000               0.002688035               0.017521814              -0.004564778              -0.001182214               0.006234617               0.005052402               0.000000000               0.000000000               0.000000000               0.000000000               0.001160558               0.014627927              -0.002263544              -0.001393279               0.005340353               0.003947074               0.000000000               0.000000000               0.000000000               0.000000000               0.000259514               0.012690018              -0.000080397              -0.001488931               0.004726274               0.003237343               0.000000000               0.000000000               0.000000000               0.000000000              -0.000327699               0.011337526               0.000698579              -0.001540074               0.004292495               0.002752421               0.000000000               0.000000000               0.000000000               0.000000000              -0.000689217               0.010305305               0.000968243              -0.001546616               0.003950606               0.002403990               0.000000000               0.000000000               0.000000000               0.000000000              -0.000903697               0.009479714               0.001050522              -0.001523847               0.003667822               0.002143975               0.000000000               0.000000000               0.000000000               0.000000000              -0.001021206               0.008785464               0.001060681              -0.001481132               0.003422169               0.001941037               0.000000000               0.000000000               0.000000000               0.000000000              -0.001066964               0.008155133               0.001024881              -0.001419500               0.003191517               0.001772017               0.000000000               0.000000000               0.000000000               0.000000000              -0.001040482               0.007569734               0.000963899              -0.001336394               0.002968684               0.001632290               0.000000000               0.000000000               0.000000000               0.000000000              -0.000958888               0.007017935               0.000894521              -0.001236822               0.002751562               0.001514740               0.000000000               0.000000000               0.000000000               0.000000000              -0.000838548               0.006496766               0.000819390              -0.001126549               0.002541083               0.001414534               0.000000000               0.000000000               0.000000000               0.000000000              -0.000691509               0.006008520               0.000736396              -0.001010378               0.002339613               0.001329234               0.000000000               0.000000000               0.000000000               0.000000000              -0.000533486               0.005559884               0.000636024              -0.000895040               0.002151623               0.001256582               0.000000000               0.000000000               0.000000000               0.000000000              -0.000373501               0.005167755               0.000509304              -0.000786030               0.001984578               0.001198547               0.000000000               0.000000000               0.000000000               0.000000000              -0.000223841               0.004848391               0.000356376              -0.000689988               0.001846110               0.001156122               0.000000000               0.000000000               0.000000000               0.000000000              -0.000101137               0.004616266               0.000184145              -0.000614958               0.001743726               0.001128768               0.000000000               0.000000000               0.000000000               0.000000000              -0.000057169               0.004508393               0.000100653              -0.000584986               0.001697778               0.001112792               0.000000000               0.000000000               0.000000000               0.000000000               0.002421549               0.014603548              -0.004560772              -0.000917364               0.005173588               0.004256223               0.000000000               0.000000000               0.000000000               0.000000000               0.000502390               0.012852305              -0.002345263              -0.001418140               0.004756771               0.003338632               0.000000000               0.000000000               0.000000000               0.000000000              -0.000836485               0.011902418              -0.000268598              -0.001801480               0.004567926               0.002766447               0.000000000               0.000000000               0.000000000               0.000000000              -0.001427194               0.010943136               0.000426157              -0.001903085               0.004282037               0.002378952               0.000000000               0.000000000               0.000000000               0.000000000              -0.001664315               0.010079477               0.000664091              -0.001884048               0.003987808               0.002103760               0.000000000               0.000000000               0.000000000               0.000000000              -0.001730460               0.009324018               0.000745164              -0.001814420               0.003712782               0.001898361               0.000000000               0.000000000               0.000000000               0.000000000              -0.001699589               0.008644936               0.000764348              -0.001717959               0.003454269               0.001736311               0.000000000               0.000000000               0.000000000               0.000000000              -0.001591769               0.008010368               0.000743515              -0.001598206               0.003202831               0.001604625               0.000000000               0.000000000               0.000000000               0.000000000              -0.001426102               0.007417994               0.000701053              -0.001462034               0.002959985               0.001497951               0.000000000               0.000000000               0.000000000               0.000000000              -0.001224212               0.006872100               0.000647004              -0.001318089               0.002730040               0.001411951               0.000000000               0.000000000               0.000000000               0.000000000              -0.001003491               0.006375805               0.000583557              -0.001173282               0.002516341               0.001343059               0.000000000               0.000000000               0.000000000               0.000000000              -0.000784271               0.005930673               0.000508884              -0.001035433               0.002322016               0.001286582               0.000000000               0.000000000               0.000000000               0.000000000              -0.000576354               0.005540899               0.000420314              -0.000908743               0.002149862               0.001241119               0.000000000               0.000000000               0.000000000               0.000000000              -0.000381724               0.005222108               0.000318227              -0.000795908               0.002005988               0.001210080               0.000000000               0.000000000               0.000000000               0.000000000              -0.000215535               0.004987875               0.000205365              -0.000704308               0.001897378               0.001193070               0.000000000               0.000000000               0.000000000               0.000000000              -0.000091073               0.004843369               0.000095081              -0.000639572               0.001827631               0.001188059               0.000000000               0.000000000               0.000000000               0.000000000              -0.000045967               0.004787055               0.000047525              -0.000615618               0.001800875               0.001185257               0.000000000               0.000000000               0.000000000               0.000000000               0.001793028               0.011723652              -0.004142734              -0.000793073               0.004172202               0.003379128               0.000000000               0.000000000               0.000000000               0.000000000              -0.000301624               0.011114195              -0.002293892              -0.001502381               0.004205488               0.002703107               0.000000000               0.000000000               0.000000000               0.000000000              -0.001883098               0.011069686              -0.000558125              -0.002089867               0.004386481               0.002296613               0.000000000               0.000000000               0.000000000               0.000000000              -0.002358724               0.010430120               0.000006922              -0.002188281               0.004206099               0.002017818               0.000000000               0.000000000               0.000000000               0.000000000              -0.002422686               0.009699515               0.000215284              -0.002120941               0.003940120               0.001819178               0.000000000               0.000000000               0.000000000               0.000000000              -0.002319011               0.009003828               0.000309769              -0.001995103               0.003666280               0.001671177               0.000000000               0.000000000               0.000000000               0.000000000              -0.002127870               0.008351638               0.000356960              -0.001841901               0.003397819               0.001555917               0.000000000               0.000000000               0.000000000               0.000000000              -0.001871084               0.007732537               0.000368012              -0.001668220               0.003133560               0.001465340               0.000000000               0.000000000               0.000000000               0.000000000              -0.001576721               0.007158120               0.000360522              -0.001486032               0.002881360               0.001395328               0.000000000               0.000000000               0.000000000               0.000000000              -0.001276539               0.006642390               0.000340297              -0.001308998               0.002650440               0.001341443               0.000000000               0.000000000               0.000000000               0.000000000              -0.000986571               0.006188508               0.000305230              -0.001143525               0.002443990               0.001300466               0.000000000               0.000000000               0.000000000               0.000000000              -0.000724205               0.005796269               0.000256672              -0.000996108               0.002264106               0.001267998               0.000000000               0.000000000               0.000000000               0.000000000              -0.000498288               0.005472547               0.000198486              -0.000870924               0.002114472               0.001243548               0.000000000               0.000000000               0.000000000               0.000000000              -0.000307888               0.005226205               0.000138848              -0.000768732               0.001998295               0.001229563               0.000000000               0.000000000               0.000000000               0.000000000              -0.000160921               0.005059380               0.000082158              -0.000692766               0.001917365               0.001224599               0.000000000               0.000000000               0.000000000               0.000000000              -0.000062865               0.004965748               0.000034191              -0.000644291               0.001869997               0.001225706               0.000000000               0.000000000               0.000000000               0.000000000              -0.000032184               0.004928387               0.000017582              -0.000628116               0.001852151               0.001224035               0.000000000               0.000000000               0.000000000               0.000000000               0.000838611               0.009057677              -0.003430126              -0.000817732               0.003291772               0.002474040               0.000000000               0.000000000               0.000000000               0.000000000              -0.001203811               0.009511639              -0.002164838              -0.001640381               0.003717308               0.002076927               0.000000000               0.000000000               0.000000000               0.000000000              -0.002782881               0.010202619              -0.000939847              -0.002318902               0.004173806               0.001854904               0.000000000               0.000000000               0.000000000               0.000000000              -0.003042205               0.009804490              -0.000498911              -0.002366382               0.004056925               0.001690543               0.000000000               0.000000000               0.000000000               0.000000000              -0.002904646               0.009192615              -0.000287969              -0.002238314               0.003810279               0.001571965               0.000000000               0.000000000               0.000000000               0.000000000              -0.002631752               0.008569694              -0.000156351              -0.002058114               0.003542574               0.001484460               0.000000000               0.000000000               0.000000000               0.000000000              -0.002290753               0.007962587              -0.000066428              -0.001854351               0.003272286               0.001417935               0.000000000               0.000000000               0.000000000               0.000000000              -0.001906228               0.007381005              -0.000011315              -0.001637457               0.003006129               0.001368672               0.000000000               0.000000000               0.000000000               0.000000000              -0.001510426               0.006850105               0.000027173              -0.001422669               0.002757569               0.001334899               0.000000000               0.000000000               0.000000000               0.000000000              -0.001143435               0.006378777               0.000050881              -0.001226132               0.002534948               0.001308816               0.000000000               0.000000000               0.000000000               0.000000000              -0.000821138               0.005969304               0.000055845              -0.001054087               0.002341111               0.001287023               0.000000000               0.000000000               0.000000000               0.000000000              -0.000548553               0.005629121               0.000050036              -0.000909345               0.002179470               0.001270125               0.000000000               0.000000000               0.000000000               0.000000000              -0.000330802               0.005367325               0.000037918              -0.000794964               0.002054079               0.001259114               0.000000000               0.000000000               0.000000000               0.000000000              -0.000171983               0.005182446               0.000024787              -0.000712298               0.001964897               0.001252600               0.000000000               0.000000000               0.000000000               0.000000000              -0.000071642               0.005065088               0.000014880              -0.000660000               0.001908346               0.001248346               0.000000000               0.000000000               0.000000000               0.000000000              -0.000021985               0.005000133               0.000007047              -0.000633260               0.001877781               0.001244521               0.000000000               0.000000000               0.000000000               0.000000000              -0.000012683               0.004974969               0.000005357              -0.000626626               0.001867181               0.001240556               0.000000000               0.000000000               0.000000000               0.000000000              -0.000304644               0.006795421              -0.002547563              -0.000963669               0.002586340               0.001622671               0.000000000               0.000000000               0.000000000               0.000000000              -0.002087041               0.008073588              -0.002014787              -0.001791835               0.003288447               0.001496611               0.000000000               0.000000000               0.000000000               0.000000000              -0.003479275               0.009340470              -0.001398166              -0.002472281               0.003937552               0.001465271               0.000000000               0.000000000               0.000000000               0.000000000              -0.003496228               0.009202428              -0.001037603              -0.002461383               0.003887906               0.001426523               0.000000000               0.000000000               0.000000000               0.000000000              -0.003186484               0.008740613              -0.000797204              -0.002287502               0.003676009               0.001388507               0.000000000               0.000000000               0.000000000               0.000000000              -0.002780451               0.008217492              -0.000618311              -0.002069850               0.003429087               0.001359236               0.000000000               0.000000000               0.000000000               0.000000000              -0.002328262               0.007680689              -0.000479001              -0.001833180               0.003171264               0.001338084               0.000000000               0.000000000               0.000000000               0.000000000              -0.001845462               0.007157069              -0.000372392              -0.001586678               0.002914558               0.001327881               0.000000000               0.000000000               0.000000000               0.000000000              -0.001380546               0.006673407              -0.000283683              -0.001351877               0.002675073               0.001323195               0.000000000               0.000000000               0.000000000               0.000000000              -0.000971740               0.006236809              -0.000212192              -0.001144001               0.002460249               0.001316248               0.000000000               0.000000000               0.000000000               0.000000000              -0.000629701               0.005854456              -0.000156837              -0.000967943               0.002274114               0.001306171               0.000000000               0.000000000               0.000000000               0.000000000              -0.000358272               0.005542442              -0.000109870              -0.000827155               0.002123181               0.001296025               0.000000000               0.000000000               0.000000000               0.000000000              -0.000164226               0.005306279              -0.000067958              -0.000724868               0.002010365               0.001285497               0.000000000               0.000000000               0.000000000               0.000000000              -0.000046971               0.005147620              -0.000035094              -0.000661065               0.001936211               0.001275146               0.000000000               0.000000000               0.000000000               0.000000000               0.000003276               0.005051894              -0.000012516              -0.000630257               0.001894033               0.001263777               0.000000000               0.000000000               0.000000000               0.000000000               0.000013620               0.005004962              -0.000001251              -0.000620511               0.001875141               0.001254630               0.000000000               0.000000000               0.000000000               0.000000000               0.000010337               0.004990888               0.000002384              -0.000619983               0.001870274               0.001250291               0.000000000               0.000000000               0.000000000               0.000000000              -0.001650080               0.004687556              -0.001609504              -0.001204722               0.001964077               0.000759354               0.000000000               0.000000000               0.000000000               0.000000000              -0.002825416               0.006429067              -0.001848666              -0.001863160               0.002764054               0.000900894               0.000000000               0.000000000               0.000000000               0.000000000              -0.003887621               0.008120769              -0.001882506              -0.002472948               0.003531212               0.001058263               0.000000000               0.000000000               0.000000000               0.000000000              -0.003760278               0.008364763              -0.001612817              -0.002455694               0.003606791               0.001151097               0.000000000               0.000000000               0.000000000               0.000000000              -0.003366519               0.008163064              -0.001347674              -0.002282822               0.003481935               0.001199112               0.000000000               0.000000000               0.000000000               0.000000000              -0.002913054               0.007836445              -0.001121588              -0.002071946               0.003302771               0.001230825               0.000000000               0.000000000               0.000000000               0.000000000              -0.002440741               0.007461895              -0.000934788              -0.001848010               0.003103277               0.001255266               0.000000000               0.000000000               0.000000000               0.000000000              -0.001949024               0.007062513              -0.000778841              -0.001613694               0.002892045               0.001278351               0.000000000               0.000000000               0.000000000               0.000000000              -0.001466788               0.006665646              -0.000639203              -0.001383248               0.002682942               0.001299694               0.000000000               0.000000000               0.000000000               0.000000000              -0.001034951               0.006289381              -0.000516249              -0.001174277               0.002487865               0.001313588               0.000000000               0.000000000               0.000000000               0.000000000              -0.000668677               0.005945399              -0.000405561              -0.000993926               0.002313089               0.001319162               0.000000000               0.000000000               0.000000000               0.000000000              -0.000375750               0.005641401              -0.000301507              -0.000846079               0.002162474               0.001316395               0.000000000               0.000000000               0.000000000               0.000000000              -0.000157538               0.005395003              -0.000203531              -0.000733450               0.002042800               0.001309350               0.000000000               0.000000000               0.000000000               0.000000000              -0.000017709               0.005216780              -0.000115828              -0.000658737               0.001958488               0.001299751               0.000000000               0.000000000               0.000000000               0.000000000               0.000047405               0.005098314              -0.000051077              -0.000619511               0.001905925               0.001286414               0.000000000               0.000000000               0.000000000               0.000000000               0.000061258               0.005030587              -0.000015286              -0.000605850               0.001878796               0.001272945               0.000000000               0.000000000               0.000000000               0.000000000               0.000055138               0.005004619              -0.000003065              -0.000604899               0.001869823               0.001264924               0.000000000               0.000000000               0.000000000               0.000000000              -0.003382274               0.002785452              -0.000683234              -0.001616531               0.001467317              -0.000149214               0.000000000               0.000000000               0.000000000               0.000000000              -0.003660386               0.004789545              -0.001609859              -0.001971333               0.002253610               0.000282276               0.000000000               0.000000000               0.000000000               0.000000000              -0.004204111               0.006712340              -0.002267964              -0.002415579               0.003042616               0.000627038               0.000000000               0.000000000               0.000000000               0.000000000              -0.003942258               0.007322945              -0.002164585              -0.002393709               0.003238860               0.000845151               0.000000000               0.000000000               0.000000000               0.000000000              -0.003487748               0.007428233              -0.001912965              -0.002236429               0.003221529               0.000985100               0.000000000               0.000000000               0.000000000               0.000000000              -0.003009727               0.007334092              -0.001658878              -0.002045405               0.003126474               0.001081070               0.000000000               0.000000000               0.000000000               0.000000000              -0.002538741               0.007146426              -0.001434716              -0.001845327               0.002997227               0.001151900               0.000000000               0.000000000               0.000000000               0.000000000              -0.002067209               0.006896366              -0.001236930              -0.001637245               0.002844514               0.001207269               0.000000000               0.000000000               0.000000000               0.000000000              -0.001589904               0.006613188              -0.001054761              -0.001422859               0.002678660               0.001255801               0.000000000               0.000000000               0.000000000               0.000000000              -0.001139067               0.006317700              -0.000886453              -0.001216860               0.002511499               0.001294639               0.000000000               0.000000000               0.000000000               0.000000000              -0.000740194               0.006029747              -0.000728595              -0.001031289               0.002353659               0.001322370               0.000000000               0.000000000               0.000000000               0.000000000              -0.000402178               0.005754815              -0.000577762              -0.000870167               0.002208308               0.001338141               0.000000000               0.000000000               0.000000000               0.000000000              -0.000131911               0.005509834              -0.000429686              -0.000738194               0.002082657               0.001344463               0.000000000               0.000000000               0.000000000               0.000000000               0.000061293               0.005312164              -0.000282670              -0.000641034               0.001984382               0.001343348               0.000000000               0.000000000               0.000000000               0.000000000               0.000168886               0.005164838              -0.000156138              -0.000582271               0.001915686               0.001333415               0.000000000               0.000000000               0.000000000               0.000000000               0.000196442               0.005064644              -0.000063877              -0.000559413               0.001874669               0.001315256               0.000000000               0.000000000               0.000000000               0.000000000               0.000183614               0.005021401              -0.000024275              -0.000558818               0.001860056               0.001301238               0.000000000               0.000000000               0.000000000               0.000000000              -0.005385153               0.001237470               0.000145576              -0.002174113               0.001137187              -0.001036926               0.000000000               0.000000000               0.000000000               0.000000000              -0.004646299               0.003244260              -0.001282401              -0.002147890               0.001797371              -0.000350520               0.000000000               0.000000000               0.000000000               0.000000000              -0.004460122               0.005120178              -0.002436504              -0.002312563               0.002477562               0.000164999               0.000000000               0.000000000               0.000000000               0.000000000              -0.003987534               0.005994061              -0.002538996              -0.002244578               0.002746192               0.000501614               0.000000000               0.000000000               0.000000000               0.000000000              -0.003461181               0.006382907              -0.002353900              -0.002095802               0.002826214               0.000730412               0.000000000               0.000000000               0.000000000               0.000000000              -0.002959786               0.006529512              -0.002109007              -0.001926105               0.002818517               0.000892412               0.000000000               0.000000000               0.000000000               0.000000000              -0.002490322               0.006542061              -0.001872976              -0.001751625               0.002764540               0.001012915               0.000000000               0.000000000               0.000000000               0.000000000              -0.002039335               0.006466541              -0.001657733              -0.001573065               0.002679847               0.001106782               0.000000000               0.000000000               0.000000000               0.000000000              -0.001585869               0.006327372              -0.001455140              -0.001385619               0.002570976               0.001185356               0.000000000               0.000000000               0.000000000               0.000000000              -0.001138108               0.006147469              -0.001260495              -0.001195222               0.002447543               0.001252321               0.000000000               0.000000000               0.000000000               0.000000000              -0.000718774               0.005949719              -0.001075112              -0.001013253               0.002320971               0.001307718               0.000000000               0.000000000               0.000000000               0.000000000              -0.000338806               0.005745778              -0.000895497              -0.000845273               0.002196998               0.001351725               0.000000000               0.000000000               0.000000000               0.000000000              -0.000015312               0.005545709              -0.000709083              -0.000698954               0.002081536               0.001382582               0.000000000               0.000000000               0.000000000               0.000000000               0.000236166               0.005360259              -0.000512876              -0.000581469               0.001980558               0.001399089               0.000000000               0.000000000               0.000000000               0.000000000               0.000402150               0.005206718              -0.000320399              -0.000500032               0.001902233               0.001402200               0.000000000               0.000000000               0.000000000               0.000000000               0.000467740               0.005092338              -0.000149513              -0.000461139               0.001851142               0.001390003               0.000000000               0.000000000               0.000000000               0.000000000               0.000460295               0.005036659              -0.000067564              -0.000456970               0.001831193               0.001374222               0.000000000               0.000000000               0.000000000               0.000000000              -0.007511314               0.000113009               0.000756915              -0.002830867               0.000981285              -0.001849581               0.000000000               0.000000000               0.000000000               0.000000000              -0.005719797               0.001875678              -0.000917109              -0.002379380               0.001418343              -0.000961037               0.000000000               0.000000000               0.000000000               0.000000000              -0.004683221               0.003484393              -0.002358261              -0.002191753               0.001892035              -0.000299718               0.000000000               0.000000000               0.000000000               0.000000000              -0.003919728               0.004488055              -0.002640980              -0.002030901               0.002172969               0.000142068               0.000000000               0.000000000               0.000000000               0.000000000              -0.003291573               0.005094577              -0.002549137              -0.001871159               0.002321894               0.000450735               0.000000000               0.000000000               0.000000000               0.000000000              -0.002761227               0.005454948              -0.002350205              -0.001717325               0.002390739               0.000673413               0.000000000               0.000000000               0.000000000               0.000000000              -0.002287729               0.005665806              -0.002137200              -0.001566121               0.002410623               0.000844502               0.000000000               0.000000000               0.000000000               0.000000000              -0.001847304               0.005776384              -0.001934489              -0.001414784               0.002397036               0.000982252               0.000000000               0.000000000               0.000000000               0.000000000              -0.001419040               0.005807456              -0.001737588              -0.001258070               0.002355155               0.001097086               0.000000000               0.000000000               0.000000000               0.000000000              -0.000992166               0.005773666              -0.001542642              -0.001093769               0.002289125               0.001195357               0.000000000               0.000000000               0.000000000               0.000000000              -0.000569125               0.005695650              -0.001355977              -0.000925376               0.002206990               0.001281613               0.000000000               0.000000000               0.000000000               0.000000000              -0.000163102               0.005593027              -0.001170419              -0.000760290               0.002117753               0.001357463               0.000000000               0.000000000               0.000000000               0.000000000               0.000208084               0.005472174              -0.000968333              -0.000605989               0.002026036               0.001420047               0.000000000               0.000000000               0.000000000               0.000000000               0.000528151               0.005336979              -0.000746496              -0.000469065               0.001935330               0.001466265               0.000000000               0.000000000               0.000000000               0.000000000               0.000777175               0.005203409              -0.000507376              -0.000358985               0.001854114               0.001495129               0.000000000               0.000000000               0.000000000               0.000000000               0.000927427               0.005093227              -0.000257005              -0.000288868               0.001794015               0.001505147               0.000000000               0.000000000               0.000000000               0.000000000               0.000968056               0.005041397              -0.000129344              -0.000267153               0.001769500               0.001502347               0.000000000               0.000000000               0.000000000               0.000000000              -0.009558518              -0.000602878               0.001045950              -0.003509082               0.000968728              -0.002540354               0.000000000               0.000000000               0.000000000               0.000000000              -0.006786210               0.000769639              -0.000575766              -0.002641031               0.001136882              -0.001504149               0.000000000               0.000000000               0.000000000               0.000000000              -0.004887939               0.001967226              -0.002031879              -0.002078878               0.001348691              -0.000730186               0.000000000               0.000000000               0.000000000               0.000000000              -0.003790034               0.002971554              -0.002414787              -0.001792704               0.001588074              -0.000204630               0.000000000               0.000000000               0.000000000               0.000000000              -0.003031675               0.003715320              -0.002408743              -0.001601290               0.001772190               0.000170899               0.000000000               0.000000000               0.000000000               0.000000000              -0.002448891               0.004248188              -0.002273825              -0.001449355               0.001899166               0.000449811               0.000000000               0.000000000               0.000000000               0.000000000              -0.001965230               0.004634911              -0.002109926              -0.001316323               0.001983728               0.000667405               0.000000000               0.000000000               0.000000000               0.000000000              -0.001532155               0.004915944              -0.001944948              -0.001189049               0.002034981               0.000845931               0.000000000               0.000000000               0.000000000               0.000000000              -0.001122403               0.005106125              -0.001780259              -0.001059165               0.002055079               0.000995914               0.000000000               0.000000000               0.000000000               0.000000000              -0.000713088               0.005222500              -0.001614344              -0.000920219               0.002047555               0.001127336               0.000000000               0.000000000               0.000000000               0.000000000              -0.000297380               0.005283790              -0.001451497              -0.000771990               0.002018575               0.001246585               0.000000000               0.000000000               0.000000000               0.000000000               0.000118684               0.005301907              -0.001282606              -0.000618231               0.001973361               0.001355130               0.000000000               0.000000000               0.000000000               0.000000000               0.000531957               0.005287369              -0.001096475              -0.000461437               0.001916251               0.001454814               0.000000000               0.000000000               0.000000000               0.000000000               0.000931527               0.005241065              -0.000885591              -0.000305810               0.001848941               0.001543131               0.000000000               0.000000000               0.000000000               0.000000000               0.001295417               0.005166213              -0.000637795              -0.000159995               0.001775385               0.001615390               0.000000000               0.000000000               0.000000000               0.000000000               0.001596322               0.005082071              -0.000343587              -0.000036639               0.001706220               0.001669581               0.000000000               0.000000000               0.000000000               0.000000000               0.001756794               0.005050322              -0.000190024               0.000027507               0.001674255               0.001701762               0.000000000               0.000000000               0.000000000               0.000000000              -0.011281914              -0.000989806               0.000970824              -0.004106989               0.001039054              -0.003067935               0.000000000               0.000000000               0.000000000               0.000000000              -0.007712755              -0.000028217              -0.000307299              -0.002888754               0.000953506              -0.001935248               0.000000000               0.000000000               0.000000000               0.000000000              -0.005068194               0.000735362              -0.001488282              -0.001992491               0.000909278              -0.001083214               0.000000000               0.000000000               0.000000000               0.000000000              -0.003649686               0.001662092              -0.001851184              -0.001576392               0.001079486              -0.000496905               0.000000000               0.000000000               0.000000000               0.000000000              -0.002758108               0.002469299              -0.001896449              -0.001342951               0.001270740              -0.000072211               0.000000000               0.000000000               0.000000000               0.000000000              -0.002114053               0.003118853              -0.001823655              -0.001182624               0.001433815               0.000251190               0.000000000               0.000000000               0.000000000               0.000000000              -0.001609173               0.003635546              -0.001715898              -0.001057882               0.001564463               0.000506582               0.000000000               0.000000000               0.000000000               0.000000000              -0.001179008               0.004045651              -0.001602919              -0.000947833               0.001664481               0.000716648               0.000000000               0.000000000               0.000000000               0.000000000              -0.000777258               0.004364099              -0.001490199              -0.000836983               0.001733679               0.000896696               0.000000000               0.000000000               0.000000000               0.000000000              -0.000378435               0.004608543              -0.001372771              -0.000717980               0.001775492               0.001057512               0.000000000               0.000000000               0.000000000               0.000000000               0.000028559               0.004796985              -0.001250726              -0.000588913               0.001795283               0.001206370               0.000000000               0.000000000               0.000000000               0.000000000               0.000453294               0.004935732              -0.001123948              -0.000446981               0.001794221               0.001347240               0.000000000               0.000000000               0.000000000               0.000000000               0.000905809               0.005037032              -0.000983657              -0.000289950               0.001775644               0.001485694               0.000000000               0.000000000               0.000000000               0.000000000               0.001382873               0.005095462              -0.000817585              -0.000118356               0.001737922               0.001619566               0.000000000               0.000000000               0.000000000               0.000000000               0.001880312               0.005102949              -0.000610689               0.000067247               0.001678550               0.001745797               0.000000000               0.000000000               0.000000000               0.000000000               0.002390182               0.005066591              -0.000341605               0.000262992               0.001601183               0.001864175               0.000000000               0.000000000               0.000000000               0.000000000               0.002742703               0.005072759              -0.000201285               0.000394415               0.001559431               0.001953846               0.000000000               0.000000000               0.000000000               0.000000000              -0.012432866              -0.001154367               0.000578877              -0.004518026               0.001121212              -0.003396814               0.000000000               0.000000000               0.000000000               0.000000000              -0.008349150              -0.000500976              -0.000124727              -0.003068307               0.000855771              -0.002212536               0.000000000               0.000000000               0.000000000               0.000000000              -0.005197642              -0.000067157              -0.000786501              -0.001940720               0.000624516              -0.001316203               0.000000000               0.000000000               0.000000000               0.000000000              -0.003541568               0.000768968              -0.001006771              -0.001424207               0.000731053              -0.000693154               0.000000000               0.000000000               0.000000000               0.000000000              -0.002544344               0.001595946              -0.001049595              -0.001153620               0.000916515              -0.000237105               0.000000000               0.000000000               0.000000000               0.000000000              -0.001858097               0.002307225              -0.001021324              -0.000985187               0.001097463               0.000112275               0.000000000               0.000000000               0.000000000               0.000000000              -0.001329572               0.002896291              -0.000968125              -0.000860624               0.001252295               0.000391671               0.000000000               0.000000000               0.000000000               0.000000000              -0.000887793               0.003382162              -0.000912808              -0.000755691               0.001379273               0.000623582               0.000000000               0.000000000               0.000000000               0.000000000              -0.000489460               0.003783227              -0.000857451              -0.000656450               0.001479879               0.000823430               0.000000000               0.000000000               0.000000000               0.000000000              -0.000102749               0.004112860              -0.000795360              -0.000552637               0.001555152               0.001002515               0.000000000               0.000000000               0.000000000               0.000000000               0.000300102               0.004387865              -0.000730201              -0.000435944               0.001607922               0.001171978               0.000000000               0.000000000               0.000000000               0.000000000               0.000736013               0.004617189              -0.000663129              -0.000301144               0.001639429               0.001338285               0.000000000               0.000000000               0.000000000               0.000000000               0.001218483               0.004806703              -0.000586179              -0.000143907               0.001650187               0.001506280               0.000000000               0.000000000               0.000000000               0.000000000               0.001757904               0.004944761              -0.000493638               0.000041118               0.001634531               0.001675649               0.000000000               0.000000000               0.000000000               0.000000000               0.002368459               0.005024468              -0.000375781               0.000260111               0.001588102               0.001848213               0.000000000               0.000000000               0.000000000               0.000000000               0.003066989               0.005038977              -0.000213238               0.000520244               0.001506228               0.002026471               0.000000000               0.000000000               0.000000000               0.000000000               0.003603263               0.005084515              -0.000129053               0.000715652               0.001456271               0.002171923               0.000000000               0.000000000               0.000000000               0.000000000              -0.012836275              -0.001193640               0.000000000              -0.004664395               0.001156911              -0.003507485               0.000000000               0.000000000               0.000000000               0.000000000              -0.008576215              -0.000654739              -0.000000000              -0.003134236               0.000826493              -0.002307743               0.000000000               0.000000000               0.000000000               0.000000000              -0.005244925              -0.000345223              -0.000000000              -0.001923693               0.000526153              -0.001397540               0.000000000               0.000000000               0.000000000               0.000000000              -0.003500732               0.000451021               0.000000000              -0.001369151               0.000606720              -0.000762431               0.000000000               0.000000000               0.000000000               0.000000000              -0.002463019               0.001280303               0.000000000              -0.001083668               0.000787985              -0.000295683               0.000000000               0.000000000               0.000000000               0.000000000              -0.001762368               0.002010522               0.000000000              -0.000912201               0.000974234               0.000062033               0.000000000               0.000000000               0.000000000               0.000000000              -0.001222579               0.002622951               0.000000000              -0.000786334               0.001136420               0.000350086               0.000000000               0.000000000               0.000000000               0.000000000              -0.000771017               0.003130220               0.000000000              -0.000680407               0.001270199               0.000589791               0.000000000               0.000000000               0.000000000               0.000000000              -0.000375311               0.003557108              -0.000000000              -0.000585379               0.001380817               0.000795438               0.000000000               0.000000000               0.000000000               0.000000000               0.000005385               0.003920063              -0.000000000              -0.000487987               0.001469337               0.000981350               0.000000000               0.000000000               0.000000000               0.000000000               0.000407355               0.004229333              -0.000000000              -0.000375908               0.001535066               0.001159158               0.000000000               0.000000000               0.000000000               0.000000000               0.000845769               0.004490213              -0.000000000              -0.000244113               0.001578094               0.001333981               0.000000000               0.000000000               0.000000000               0.000000000               0.001340127               0.004709871               0.000000000              -0.000086186               0.001598670               0.001512484               0.000000000               0.000000000               0.000000000               0.000000000               0.001906447               0.004876654               0.000000000               0.000105335               0.001590424               0.001695758               0.000000000               0.000000000               0.000000000               0.000000000               0.002561149               0.004980866              -0.000000000               0.000337819               0.001547666               0.001885485               0.000000000               0.000000000               0.000000000               0.000000000               0.003333840               0.005016639              -0.000000000               0.000623104               0.001464495               0.002087599               0.000000000               0.000000000               0.000000000               0.000000000               0.003944391               0.005081138               0.000000000               0.000843996               0.001412364               0.002256360               0.000000000               0.000000000               0.000000000               0.000000000               0.000000000               0.000000000               0.000000000               0.000000000               0.000000000               0.000000000               0.000000000               0.000000000               0.000000000               0.000000000               0.000000000               0.000000000               0.000000000               0.000000000               0.000000000               0.000000000               0.000000000               0.000000000               0.000000000               0.000000000               0.000000000               0.000000000               0.000000000               0.000000000               0.000000000               0.000000000               0.000000000               0.000000000               0.000000000               0.000000000               0.000000000               0.000000000               0.000000000               0.000000000               0.000000000               0.000000000               0.000000000               0.000000000               0.000000000               0.000000000               0.000000000               0.000000000               0.000000000               0.000000000               0.000000000               0.000000000               0.000000000               0.000000000               0.000000000               0.000000000               0.000000000               0.000000000               0.000000000               0.000000000               0.000000000               0.000000000               0.000000000               0.000000000               0.000000000               0.000000000               0.000000000               0.000000000               0.000000000               0.000000000               0.000000000               0.000000000               0.000000000               0.000000000               0.000000000               0.000000000               0.000000000               0.000000000               0.000000000               0.000000000               0.000000000               0.000000000               0.000000000               0.000000000               0.000000000               0.000000000               0.000000000               0.000000000               0.000000000               0.000000000               0.000000000               0.000000000               0.000000000               0.000000000               0.000000000               0.000000000               0.000000000               0.000000000               0.000000000               0.000000000               0.000000000               0.000000000               0.000000000               0.000000000               0.000000000               0.000000000               0.000000000               0.000000000               0.000000000               0.000000000               0.000000000               0.000000000               0.000000000               0.000000000               0.000000000               0.000000000               0.000000000               0.000000000               0.000000000               0.000000000               0.000000000               0.000000000               0.000000000               0.000000000               0.000000000               0.000000000               0.000000000               0.000000000               0.000000000               0.000000000               0.000000000               0.000000000               0.000000000               0.000000000               0.000000000               0.000000000               0.000000000               0.000000000               0.000000000               0.000000000               0.000000000               0.000000000               0.000000000               0.000000000               0.000000000               0.000000000               0.000000000               0.000000000               0.000000000               0.000000000               0.000000000               0.000000000               0.000000000               0.000000000               0.000000000               0.000000000               0.000000000               0.000000000               0.000000000               0.000000000               0.000000000               0.000000000               0.000000000               0.000000000               0.000000000               0.000000000               0.000000000               0.000000000               0.000000000               0.000000000               0.000000000               0.000000000               0.000000000               0.000000000               0.000000000               0.000000000               0.002325462               0.023914152               0.001652418              -0.002117216               0.008677043               0.006559827               0.000000000               0.000000000               0.000000000               0.000000000               0.002139620               0.018634265               0.000801477              -0.001526922               0.006720333               0.005193411               0.000000000               0.000000000               0.000000000               0.000000000               0.002656487               0.014366535              -0.000038156              -0.000799632               0.005055341               0.004255709               0.000000000               0.000000000               0.000000000               0.000000000               0.002442461               0.011930104              -0.000385512              -0.000575339               0.004168441               0.003593102               0.000000000               0.000000000               0.000000000               0.000000000               0.002046165               0.010375335              -0.000521610              -0.000529604               0.003634945               0.003105341               0.000000000               0.000000000               0.000000000               0.000000000               0.001633489               0.009289274              -0.000568160              -0.000548600               0.003279260               0.002730660               0.000000000               0.000000000               0.000000000               0.000000000               0.001254291               0.008476974              -0.000577825              -0.000589261               0.003022050               0.002432789               0.000000000               0.000000000               0.000000000               0.000000000               0.000924003               0.007831618              -0.000562007              -0.000632450               0.002821330               0.002188880               0.000000000               0.000000000               0.000000000               0.000000000               0.000642222               0.007277777              -0.000533001              -0.000668887               0.002648864               0.001979976               0.000000000               0.000000000               0.000000000               0.000000000               0.000407608               0.006774047              -0.000501753              -0.000693901               0.002489293               0.001795392               0.000000000               0.000000000               0.000000000               0.000000000               0.000217425               0.006293347              -0.000468685              -0.000705132               0.002332805               0.001627673               0.000000000               0.000000000               0.000000000               0.000000000               0.000070277               0.005813961              -0.000433995              -0.000700390               0.002171431               0.001471041               0.000000000               0.000000000               0.000000000               0.000000000              -0.000035877               0.005317729              -0.000388599              -0.000678168               0.001998615               0.001320446               0.000000000               0.000000000               0.000000000               0.000000000              -0.000097863               0.004785624              -0.000325485              -0.000634900               0.001806825               0.001171925               0.000000000               0.000000000               0.000000000               0.000000000              -0.000111562               0.004201814              -0.000244155              -0.000567061               0.001589611               0.001022550               0.000000000               0.000000000               0.000000000               0.000000000              -0.000072152               0.003557204              -0.000137483              -0.000471707               0.001342958               0.000871252               0.000000000               0.000000000               0.000000000               0.000000000              -0.000091108               0.003072655              -0.000088331              -0.000418247               0.001163624               0.000745377               0.000000000               0.000000000               0.000000000               0.000000000               0.002503504               0.022448343               0.003070579              -0.001867226               0.008105114               0.006237889               0.000000000               0.000000000               0.000000000               0.000000000               0.001972243               0.017702510               0.001491627              -0.001473220               0.006391851               0.004918631               0.000000000               0.000000000               0.000000000               0.000000000               0.002119081               0.013979519              -0.000051762              -0.000952782               0.004977387               0.004024605               0.000000000               0.000000000               0.000000000               0.000000000               0.001770709               0.011821032              -0.000668265              -0.000813611               0.004211508               0.003397897               0.000000000               0.000000000               0.000000000               0.000000000               0.001351727               0.010410101              -0.000904628              -0.000794363               0.003734787               0.002940423               0.000000000               0.000000000               0.000000000               0.000000000               0.000970183               0.009402464              -0.000981955              -0.000811488               0.003404619               0.002593132               0.000000000               0.000000000               0.000000000               0.000000000               0.000639897               0.008627580              -0.000994024              -0.000838485               0.003155326               0.002316841               0.000000000               0.000000000               0.000000000               0.000000000               0.000365869               0.007993624              -0.000963978              -0.000862000               0.002951848               0.002089848               0.000000000               0.000000000               0.000000000               0.000000000               0.000148506               0.007436120              -0.000911076              -0.000873823               0.002769956               0.001896133               0.000000000               0.000000000               0.000000000               0.000000000              -0.000011593               0.006917497              -0.000854819              -0.000869032               0.002595487               0.001726454               0.000000000               0.000000000               0.000000000               0.000000000              -0.000116877               0.006416136              -0.000796823              -0.000845844               0.002420638               0.001574795               0.000000000               0.000000000               0.000000000               0.000000000              -0.000175888               0.005920691              -0.000735550              -0.000806043               0.002242225               0.001436182               0.000000000               0.000000000               0.000000000               0.000000000              -0.000202310               0.005420662              -0.000658402              -0.000753447               0.002058018               0.001304571               0.000000000               0.000000000               0.000000000               0.000000000              -0.000194913               0.004914177              -0.000550657              -0.000687363               0.001867164               0.001179801               0.000000000               0.000000000               0.000000000               0.000000000              -0.000155941               0.004400691              -0.000410757              -0.000608563               0.001669737               0.001061174               0.000000000               0.000000000               0.000000000               0.000000000              -0.000088982               0.003882234              -0.000230597              -0.000518646               0.001466947               0.000948301               0.000000000               0.000000000               0.000000000               0.000000000              -0.000088349               0.003518586              -0.000144588              -0.000472953               0.001330501               0.000857548               0.000000000               0.000000000               0.000000000               0.000000000               0.002673844               0.020232346               0.004068694              -0.001526351               0.007252831               0.005726480               0.000000000               0.000000000               0.000000000               0.000000000               0.001653035               0.016305663               0.001987369              -0.001418317               0.005907939               0.004489622               0.000000000               0.000000000               0.000000000               0.000000000               0.001286894               0.013398038              -0.000017824              -0.001192167               0.004863357               0.003671190               0.000000000               0.000000000               0.000000000               0.000000000               0.000794346               0.011624302              -0.000780829              -0.001155155               0.004259780               0.003104625               0.000000000               0.000000000               0.000000000               0.000000000               0.000378114               0.010403964              -0.001059125              -0.001158700               0.003854187               0.002695487               0.000000000               0.000000000               0.000000000               0.000000000               0.000056784               0.009487463              -0.001144303              -0.001164636               0.003550668               0.002386032               0.000000000               0.000000000               0.000000000               0.000000000              -0.000189045               0.008759154              -0.001153735              -0.001165784               0.003308283               0.002142499               0.000000000               0.000000000               0.000000000               0.000000000              -0.000366586               0.008133920              -0.001116190              -0.001154207               0.003096015               0.001941808               0.000000000               0.000000000               0.000000000               0.000000000              -0.000472114               0.007565963              -0.001053020              -0.001122786               0.002896224               0.001773438               0.000000000               0.000000000               0.000000000               0.000000000              -0.000518460               0.007027841              -0.000984701              -0.001072900               0.002700224               0.001627323               0.000000000               0.000000000               0.000000000               0.000000000              -0.000512581               0.006507752              -0.000914289              -0.001005685               0.002504457               0.001498772               0.000000000               0.000000000               0.000000000               0.000000000              -0.000461641               0.006005042              -0.000838957              -0.000923744               0.002309575               0.001385832               0.000000000               0.000000000               0.000000000               0.000000000              -0.000388345               0.005519746              -0.000743327              -0.000835596               0.002118429               0.001282833               0.000000000               0.000000000               0.000000000               0.000000000              -0.000302905               0.005061486              -0.000614643              -0.000746274               0.001935903               0.001189629               0.000000000               0.000000000               0.000000000               0.000000000              -0.000203290               0.004645155              -0.000451877              -0.000656876               0.001767328               0.001110452               0.000000000               0.000000000               0.000000000               0.000000000              -0.000100593               0.004283097              -0.000248757              -0.000573108               0.001618721               0.001045613               0.000000000               0.000000000               0.000000000               0.000000000              -0.000073491               0.004065917              -0.000148122              -0.000535797               0.001533891               0.000998094               0.000000000               0.000000000               0.000000000               0.000000000               0.002688035               0.017521814               0.004564778              -0.001182214               0.006234617               0.005052402               0.000000000               0.000000000               0.000000000               0.000000000               0.001160558               0.014627927               0.002263544              -0.001393279               0.005340353               0.003947074               0.000000000               0.000000000               0.000000000               0.000000000               0.000259514               0.012690018               0.000080397              -0.001488931               0.004726274               0.003237343               0.000000000               0.000000000               0.000000000               0.000000000              -0.000327699               0.011337526              -0.000698579              -0.001540074               0.004292495               0.002752421               0.000000000               0.000000000               0.000000000               0.000000000              -0.000689217               0.010305305              -0.000968243              -0.001546616               0.003950606               0.002403990               0.000000000               0.000000000               0.000000000               0.000000000              -0.000903697               0.009479714              -0.001050522              -0.001523847               0.003667822               0.002143975               0.000000000               0.000000000               0.000000000               0.000000000              -0.001021206               0.008785464              -0.001060681              -0.001481132               0.003422169               0.001941037               0.000000000               0.000000000               0.000000000               0.000000000              -0.001066964               0.008155133              -0.001024881              -0.001419500               0.003191517               0.001772017               0.000000000               0.000000000               0.000000000               0.000000000              -0.001040482               0.007569734              -0.000963899              -0.001336394               0.002968684               0.001632290               0.000000000               0.000000000               0.000000000               0.000000000              -0.000958888               0.007017935              -0.000894521              -0.001236822               0.002751562               0.001514740               0.000000000               0.000000000               0.000000000               0.000000000              -0.000838548               0.006496766              -0.000819390              -0.001126549               0.002541083               0.001414534               0.000000000               0.000000000               0.000000000               0.000000000              -0.000691509               0.006008520              -0.000736396              -0.001010378               0.002339613               0.001329234               0.000000000               0.000000000               0.000000000               0.000000000              -0.000533486               0.005559884              -0.000636024              -0.000895040               0.002151623               0.001256582               0.000000000               0.000000000               0.000000000               0.000000000              -0.000373501               0.005167755              -0.000509304              -0.000786030               0.001984578               0.001198547               0.000000000               0.000000000               0.000000000               0.000000000              -0.000223841               0.004848391              -0.000356376              -0.000689988               0.001846110               0.001156122               0.000000000               0.000000000               0.000000000               0.000000000              -0.000101137               0.004616266              -0.000184145              -0.000614958               0.001743726               0.001128768               0.000000000               0.000000000               0.000000000               0.000000000              -0.000057169               0.004508393              -0.000100653              -0.000584986               0.001697778               0.001112792               0.000000000               0.000000000               0.000000000               0.000000000               0.002421549               0.014603548               0.004560772              -0.000917364               0.005173588               0.004256223               0.000000000               0.000000000               0.000000000               0.000000000               0.000502390               0.012852305               0.002345263              -0.001418140               0.004756771               0.003338632               0.000000000               0.000000000               0.000000000               0.000000000              -0.000836485               0.011902418               0.000268598              -0.001801480               0.004567926               0.002766447               0.000000000               0.000000000               0.000000000               0.000000000              -0.001427194               0.010943136              -0.000426157              -0.001903085               0.004282037               0.002378952               0.000000000               0.000000000               0.000000000               0.000000000              -0.001664315               0.010079477              -0.000664091              -0.001884048               0.003987808               0.002103760               0.000000000               0.000000000               0.000000000               0.000000000              -0.001730460               0.009324018              -0.000745164              -0.001814420               0.003712782               0.001898361               0.000000000               0.000000000               0.000000000               0.000000000              -0.001699589               0.008644936              -0.000764348              -0.001717959               0.003454269               0.001736311               0.000000000               0.000000000               0.000000000               0.000000000              -0.001591769               0.008010368              -0.000743515              -0.001598206               0.003202831               0.001604625               0.000000000               0.000000000               0.000000000               0.000000000              -0.001426102               0.007417994              -0.000701053              -0.001462034               0.002959985               0.001497951               0.000000000               0.000000000               0.000000000               0.000000000              -0.001224212               0.006872100              -0.000647004              -0.001318089               0.002730040               0.001411951               0.000000000               0.000000000               0.000000000               0.000000000              -0.001003491               0.006375805              -0.000583557              -0.001173282               0.002516341               0.001343059               0.000000000               0.000000000               0.000000000               0.000000000              -0.000784271               0.005930673              -0.000508884              -0.001035433               0.002322016               0.001286582               0.000000000               0.000000000               0.000000000               0.000000000              -0.000576354               0.005540899              -0.000420314              -0.000908743               0.002149862               0.001241119               0.000000000               0.000000000               0.000000000               0.000000000              -0.000381724               0.005222108              -0.000318227              -0.000795908               0.002005988               0.001210080               0.000000000               0.000000000               0.000000000               0.000000000              -0.000215535               0.004987875              -0.000205365              -0.000704308               0.001897378               0.001193070               0.000000000               0.000000000               0.000000000               0.000000000              -0.000091073               0.004843369              -0.000095081              -0.000639572               0.001827631               0.001188059               0.000000000               0.000000000               0.000000000               0.000000000              -0.000045967               0.004787055              -0.000047525              -0.000615618               0.001800875               0.001185257               0.000000000               0.000000000               0.000000000               0.000000000               0.001793028               0.011723652               0.004142734              -0.000793073               0.004172202               0.003379128               0.000000000               0.000000000               0.000000000               0.000000000              -0.000301624               0.011114195               0.002293892              -0.001502381               0.004205488               0.002703107               0.000000000               0.000000000               0.000000000               0.000000000              -0.001883098               0.011069686               0.000558125              -0.002089867               0.004386481               0.002296613               0.000000000               0.000000000               0.000000000               0.000000000              -0.002358724               0.010430120              -0.000006922              -0.002188281               0.004206099               0.002017818               0.000000000               0.000000000               0.000000000               0.000000000              -0.002422686               0.009699515              -0.000215284              -0.002120941               0.003940120               0.001819178               0.000000000               0.000000000               0.000000000               0.000000000              -0.002319011               0.009003828              -0.000309769              -0.001995103               0.003666280               0.001671177               0.000000000               0.000000000               0.000000000               0.000000000              -0.002127870               0.008351638              -0.000356960              -0.001841901               0.003397819               0.001555917               0.000000000               0.000000000               0.000000000               0.000000000              -0.001871084               0.007732537              -0.000368012              -0.001668220               0.003133560               0.001465340               0.000000000               0.000000000               0.000000000               0.000000000              -0.001576721               0.007158120              -0.000360522              -0.001486032               0.002881360               0.001395328               0.000000000               0.000000000               0.000000000               0.000000000              -0.001276539               0.006642390              -0.000340297              -0.001308998               0.002650440               0.001341443               0.000000000               0.000000000               0.000000000               0.000000000              -0.000986571               0.006188508              -0.000305230              -0.001143525               0.002443990               0.001300466               0.000000000               0.000000000               0.000000000               0.000000000              -0.000724205               0.005796269              -0.000256672              -0.000996108               0.002264106               0.001267998               0.000000000               0.000000000               0.000000000               0.000000000              -0.000498288               0.005472547              -0.000198486              -0.000870924               0.002114472               0.001243548               0.000000000               0.000000000               0.000000000               0.000000000              -0.000307888               0.005226205              -0.000138848              -0.000768732               0.001998295               0.001229563               0.000000000               0.000000000               0.000000000               0.000000000              -0.000160921               0.005059380              -0.000082158              -0.000692766               0.001917365               0.001224599               0.000000000               0.000000000               0.000000000               0.000000000              -0.000062865               0.004965748              -0.000034191              -0.000644291               0.001869997               0.001225706               0.000000000               0.000000000               0.000000000               0.000000000              -0.000032184               0.004928387              -0.000017582              -0.000628116               0.001852151               0.001224035               0.000000000               0.000000000               0.000000000               0.000000000               0.000838611               0.009057677               0.003430126              -0.000817732               0.003291772               0.002474040               0.000000000               0.000000000               0.000000000               0.000000000              -0.001203811               0.009511639               0.002164838              -0.001640381               0.003717308               0.002076927               0.000000000               0.000000000               0.000000000               0.000000000              -0.002782881               0.010202619               0.000939847              -0.002318902               0.004173806               0.001854904               0.000000000               0.000000000               0.000000000               0.000000000              -0.003042205               0.009804490               0.000498911              -0.002366382               0.004056925               0.001690543               0.000000000               0.000000000               0.000000000               0.000000000              -0.002904646               0.009192615               0.000287969              -0.002238314               0.003810279               0.001571965               0.000000000               0.000000000               0.000000000               0.000000000              -0.002631752               0.008569694               0.000156351              -0.002058114               0.003542574               0.001484460               0.000000000               0.000000000               0.000000000               0.000000000              -0.002290753               0.007962587               0.000066428              -0.001854351               0.003272286               0.001417935               0.000000000               0.000000000               0.000000000               0.000000000              -0.001906228               0.007381005               0.000011315              -0.001637457               0.003006129               0.001368672               0.000000000               0.000000000               0.000000000               0.000000000              -0.001510426               0.006850105              -0.000027173              -0.001422669               0.002757569               0.001334899               0.000000000               0.000000000               0.000000000               0.000000000              -0.001143435               0.006378777              -0.000050881              -0.001226132               0.002534948               0.001308816               0.000000000               0.000000000               0.000000000               0.000000000              -0.000821138               0.005969304              -0.000055845              -0.001054087               0.002341111               0.001287023               0.000000000               0.000000000               0.000000000               0.000000000              -0.000548553               0.005629121              -0.000050036              -0.000909345               0.002179470               0.001270125               0.000000000               0.000000000               0.000000000               0.000000000              -0.000330802               0.005367325              -0.000037918              -0.000794964               0.002054079               0.001259114               0.000000000               0.000000000               0.000000000               0.000000000              -0.000171983               0.005182446              -0.000024787              -0.000712298               0.001964897               0.001252600               0.000000000               0.000000000               0.000000000               0.000000000              -0.000071642               0.005065088              -0.000014880              -0.000660000               0.001908346               0.001248346               0.000000000               0.000000000               0.000000000               0.000000000              -0.000021985               0.005000133              -0.000007047              -0.000633260               0.001877781               0.001244521               0.000000000               0.000000000               0.000000000               0.000000000              -0.000012683               0.004974969              -0.000005357              -0.000626626               0.001867181               0.001240556               0.000000000               0.000000000               0.000000000               0.000000000              -0.000304644               0.006795421               0.002547563              -0.000963669               0.002586340               0.001622671               0.000000000               0.000000000               0.000000000               0.000000000              -0.002087041               0.008073588               0.002014787              -0.001791835               0.003288447               0.001496611               0.000000000               0.000000000               0.000000000               0.000000000              -0.003479275               0.009340470               0.001398166              -0.002472281               0.003937552               0.001465271               0.000000000               0.000000000               0.000000000               0.000000000              -0.003496228               0.009202428               0.001037603              -0.002461383               0.003887906               0.001426523               0.000000000               0.000000000               0.000000000               0.000000000              -0.003186484               0.008740613               0.000797204              -0.002287502               0.003676009               0.001388507               0.000000000               0.000000000               0.000000000               0.000000000              -0.002780451               0.008217492               0.000618311              -0.002069850               0.003429087               0.001359236               0.000000000               0.000000000               0.000000000               0.000000000              -0.002328262               0.007680689               0.000479001              -0.001833180               0.003171264               0.001338084               0.000000000               0.000000000               0.000000000               0.000000000              -0.001845462               0.007157069               0.000372392              -0.001586678               0.002914558               0.001327881               0.000000000               0.000000000               0.000000000               0.000000000              -0.001380546               0.006673407               0.000283683              -0.001351877               0.002675073               0.001323195               0.000000000               0.000000000               0.000000000               0.000000000              -0.000971740               0.006236809               0.000212192              -0.001144001               0.002460249               0.001316248               0.000000000               0.000000000               0.000000000               0.000000000              -0.000629701               0.005854456               0.000156837              -0.000967943               0.002274114               0.001306171               0.000000000               0.000000000               0.000000000               0.000000000              -0.000358272               0.005542442               0.000109870              -0.000827155               0.002123181               0.001296025               0.000000000               0.000000000               0.000000000               0.000000000              -0.000164226               0.005306279               0.000067958              -0.000724868               0.002010365               0.001285497               0.000000000               0.000000000               0.000000000               0.000000000              -0.000046971               0.005147620               0.000035094              -0.000661065               0.001936211               0.001275146               0.000000000               0.000000000               0.000000000               0.000000000               0.000003276               0.005051894               0.000012516              -0.000630257               0.001894033               0.001263777               0.000000000               0.000000000               0.000000000               0.000000000               0.000013620               0.005004962               0.000001251              -0.000620511               0.001875141               0.001254630               0.000000000               0.000000000               0.000000000               0.000000000               0.000010337               0.004990888              -0.000002384              -0.000619983               0.001870274               0.001250291               0.000000000               0.000000000               0.000000000               0.000000000              -0.001650080               0.004687556               0.001609504              -0.001204722               0.001964077               0.000759354               0.000000000               0.000000000               0.000000000               0.000000000              -0.002825416               0.006429067               0.001848666              -0.001863160               0.002764054               0.000900894               0.000000000               0.000000000               0.000000000               0.000000000              -0.003887621               0.008120769               0.001882506              -0.002472948               0.003531212               0.001058263               0.000000000               0.000000000               0.000000000               0.000000000              -0.003760278               0.008364763               0.001612817              -0.002455694               0.003606791               0.001151097               0.000000000               0.000000000               0.000000000               0.000000000              -0.003366519               0.008163064               0.001347674              -0.002282822               0.003481935               0.001199112               0.000000000               0.000000000               0.000000000               0.000000000              -0.002913054               0.007836445               0.001121588              -0.002071946               0.003302771               0.001230825               0.000000000               0.000000000               0.000000000               0.000000000              -0.002440741               0.007461895               0.000934788              -0.001848010               0.003103277               0.001255266               0.000000000               0.000000000               0.000000000               0.000000000              -0.001949024               0.007062513               0.000778841              -0.001613694               0.002892045               0.001278351               0.000000000               0.000000000               0.000000000               0.000000000              -0.001466788               0.006665646               0.000639203              -0.001383248               0.002682942               0.001299694               0.000000000               0.000000000               0.000000000               0.000000000              -0.001034951               0.006289381               0.000516249              -0.001174277               0.002487865               0.001313588               0.000000000               0.000000000               0.000000000               0.000000000              -0.000668677               0.005945399               0.000405561              -0.000993926               0.002313089               0.001319162               0.000000000               0.000000000               0.000000000               0.000000000              -0.000375750               0.005641401               0.000301507              -0.000846079               0.002162474               0.001316395               0.000000000               0.000000000               0.000000000               0.000000000              -0.000157538               0.005395003               0.000203531              -0.000733450               0.002042800               0.001309350               0.000000000               0.000000000               0.000000000               0.000000000              -0.000017709               0.005216780               0.000115828              -0.000658737               0.001958488               0.001299751               0.000000000               0.000000000               0.000000000               0.000000000               0.000047405               0.005098314               0.000051077              -0.000619511               0.001905925               0.001286414               0.000000000               0.000000000               0.000000000               0.000000000               0.000061258               0.005030587               0.000015286              -0.000605850               0.001878796               0.001272945               0.000000000               0.000000000               0.000000000               0.000000000               0.000055138               0.005004619               0.000003065              -0.000604899               0.001869823               0.001264924               0.000000000               0.000000000               0.000000000               0.000000000              -0.003382274               0.002785452               0.000683234              -0.001616531               0.001467317              -0.000149214               0.000000000               0.000000000               0.000000000               0.000000000              -0.003660386               0.004789545               0.001609859              -0.001971333               0.002253610               0.000282276               0.000000000               0.000000000               0.000000000               0.000000000              -0.004204111               0.006712340               0.002267964              -0.002415579               0.003042616               0.000627038               0.000000000               0.000000000               0.000000000               0.000000000              -0.003942258               0.007322945               0.002164585              -0.002393709               0.003238860               0.000845151               0.000000000               0.000000000               0.000000000               0.000000000              -0.003487748               0.007428233               0.001912965              -0.002236429               0.003221529               0.000985100               0.000000000               0.000000000               0.000000000               0.000000000              -0.003009727               0.007334092               0.001658878              -0.002045405               0.003126474               0.001081070               0.000000000               0.000000000               0.000000000               0.000000000              -0.002538741               0.007146426               0.001434716              -0.001845327               0.002997227               0.001151900               0.000000000               0.000000000               0.000000000               0.000000000              -0.002067209               0.006896366               0.001236930              -0.001637245               0.002844514               0.001207269               0.000000000               0.000000000               0.000000000               0.000000000              -0.001589904               0.006613188               0.001054761              -0.001422859               0.002678660               0.001255801               0.000000000               0.000000000               0.000000000               0.000000000              -0.001139067               0.006317700               0.000886453              -0.001216860               0.002511499               0.001294639               0.000000000               0.000000000               0.000000000               0.000000000              -0.000740194               0.006029747               0.000728595              -0.001031289               0.002353659               0.001322370               0.000000000               0.000000000               0.000000000               0.000000000              -0.000402178               0.005754815               0.000577762              -0.000870167               0.002208308               0.001338141               0.000000000               0.000000000               0.000000000               0.000000000              -0.000131911               0.005509834               0.000429686              -0.000738194               0.002082657               0.001344463               0.000000000               0.000000000               0.000000000               0.000000000               0.000061293               0.005312164               0.000282670              -0.000641034               0.001984382               0.001343348               0.000000000               0.000000000               0.000000000               0.000000000               0.000168886               0.005164838               0.000156138              -0.000582271               0.001915686               0.001333415               0.000000000               0.000000000               0.000000000               0.000000000               0.000196442               0.005064644               0.000063877              -0.000559413               0.001874669               0.001315256               0.000000000               0.000000000               0.000000000               0.000000000               0.000183614               0.005021401               0.000024275              -0.000558818               0.001860056               0.001301238               0.000000000               0.000000000               0.000000000               0.000000000              -0.005385153               0.001237470              -0.000145576              -0.002174113               0.001137187              -0.001036926               0.000000000               0.000000000               0.000000000               0.000000000              -0.004646299               0.003244260               0.001282401              -0.002147890               0.001797371              -0.000350520               0.000000000               0.000000000               0.000000000               0.000000000              -0.004460122               0.005120178               0.002436504              -0.002312563               0.002477562               0.000164999               0.000000000               0.000000000               0.000000000               0.000000000              -0.003987534               0.005994061               0.002538996              -0.002244578               0.002746192               0.000501614               0.000000000               0.000000000               0.000000000               0.000000000              -0.003461181               0.006382907               0.002353900              -0.002095802               0.002826214               0.000730412               0.000000000               0.000000000               0.000000000               0.000000000              -0.002959786               0.006529512               0.002109007              -0.001926105               0.002818517               0.000892412               0.000000000               0.000000000               0.000000000               0.000000000              -0.002490322               0.006542061               0.001872976              -0.001751625               0.002764540               0.001012915               0.000000000               0.000000000               0.000000000               0.000000000              -0.002039335               0.006466541               0.001657733              -0.001573065               0.002679847               0.001106782               0.000000000               0.000000000               0.000000000               0.000000000              -0.001585869               0.006327372               0.001455140              -0.001385619               0.002570976               0.001185356               0.000000000               0.000000000               0.000000000               0.000000000              -0.001138108               0.006147469               0.001260495              -0.001195222               0.002447543               0.001252321               0.000000000               0.000000000               0.000000000               0.000000000              -0.000718774               0.005949719               0.001075112              -0.001013253               0.002320971               0.001307718               0.000000000               0.000000000               0.000000000               0.000000000              -0.000338806               0.005745778               0.000895497              -0.000845273               0.002196998               0.001351725               0.000000000               0.000000000               0.000000000               0.000000000              -0.000015312               0.005545709               0.000709083              -0.000698954               0.002081536               0.001382582               0.000000000               0.000000000               0.000000000               0.000000000               0.000236166               0.005360259               0.000512876              -0.000581469               0.001980558               0.001399089               0.000000000               0.000000000               0.000000000               0.000000000               0.000402150               0.005206718               0.000320399              -0.000500032               0.001902233               0.001402200               0.000000000               0.000000000               0.000000000               0.000000000               0.000467740               0.005092338               0.000149513              -0.000461139               0.001851142               0.001390003               0.000000000               0.000000000               0.000000000               0.000000000               0.000460295               0.005036659               0.000067564              -0.000456970               0.001831193               0.001374222               0.000000000               0.000000000               0.000000000               0.000000000              -0.007511314               0.000113009              -0.000756915              -0.002830867               0.000981285              -0.001849581               0.000000000               0.000000000               0.000000000               0.000000000              -0.005719797               0.001875678               0.000917109              -0.002379380               0.001418343              -0.000961037               0.000000000               0.000000000               0.000000000               0.000000000              -0.004683221               0.003484393               0.002358261              -0.002191753               0.001892035              -0.000299718               0.000000000               0.000000000               0.000000000               0.000000000              -0.003919728               0.004488055               0.002640980              -0.002030901               0.002172969               0.000142068               0.000000000               0.000000000               0.000000000               0.000000000              -0.003291573               0.005094577               0.002549137              -0.001871159               0.002321894               0.000450735               0.000000000               0.000000000               0.000000000               0.000000000              -0.002761227               0.005454948               0.002350205              -0.001717325               0.002390739               0.000673413               0.000000000               0.000000000               0.000000000               0.000000000              -0.002287729               0.005665806               0.002137200              -0.001566121               0.002410623               0.000844502               0.000000000               0.000000000               0.000000000               0.000000000              -0.001847304               0.005776384               0.001934489              -0.001414784               0.002397036               0.000982252               0.000000000               0.000000000               0.000000000               0.000000000              -0.001419040               0.005807456               0.001737588              -0.001258070               0.002355155               0.001097086               0.000000000               0.000000000               0.000000000               0.000000000              -0.000992166               0.005773666               0.001542642              -0.001093769               0.002289125               0.001195357               0.000000000               0.000000000               0.000000000               0.000000000              -0.000569125               0.005695650               0.001355977              -0.000925376               0.002206990               0.001281613               0.000000000               0.000000000               0.000000000               0.000000000              -0.000163102               0.005593027               0.001170419              -0.000760290               0.002117753               0.001357463               0.000000000               0.000000000               0.000000000               0.000000000               0.000208084               0.005472174               0.000968333              -0.000605989               0.002026036               0.001420047               0.000000000               0.000000000               0.000000000               0.000000000               0.000528151               0.005336979               0.000746496              -0.000469065               0.001935330               0.001466265               0.000000000               0.000000000               0.000000000               0.000000000               0.000777175               0.005203409               0.000507376              -0.000358985               0.001854114               0.001495129               0.000000000               0.000000000               0.000000000               0.000000000               0.000927427               0.005093227               0.000257005              -0.000288868               0.001794015               0.001505147               0.000000000               0.000000000               0.000000000               0.000000000               0.000968056               0.005041397               0.000129344              -0.000267153               0.001769500               0.001502347               0.000000000               0.000000000               0.000000000               0.000000000              -0.009558518              -0.000602878              -0.001045950              -0.003509082               0.000968728              -0.002540354               0.000000000               0.000000000               0.000000000               0.000000000              -0.006786210               0.000769639               0.000575766              -0.002641031               0.001136882              -0.001504149               0.000000000               0.000000000               0.000000000               0.000000000              -0.004887939               0.001967226               0.002031879              -0.002078878               0.001348691              -0.000730186               0.000000000               0.000000000               0.000000000               0.000000000              -0.003790034               0.002971554               0.002414787              -0.001792704               0.001588074              -0.000204630               0.000000000               0.000000000               0.000000000               0.000000000              -0.003031675               0.003715320               0.002408743              -0.001601290               0.001772190               0.000170899               0.000000000               0.000000000               0.000000000               0.000000000              -0.002448891               0.004248188               0.002273825              -0.001449355               0.001899166               0.000449811               0.000000000               0.000000000               0.000000000               0.000000000              -0.001965230               0.004634911               0.002109926              -0.001316323               0.001983728               0.000667405               0.000000000               0.000000000               0.000000000               0.000000000              -0.001532155               0.004915944               0.001944948              -0.001189049               0.002034981               0.000845931               0.000000000               0.000000000               0.000000000               0.000000000              -0.001122403               0.005106125               0.001780259              -0.001059165               0.002055079               0.000995914               0.000000000               0.000000000               0.000000000               0.000000000              -0.000713088               0.005222500               0.001614344              -0.000920219               0.002047555               0.001127336               0.000000000               0.000000000               0.000000000               0.000000000              -0.000297380               0.005283790               0.001451497              -0.000771990               0.002018575               0.001246585               0.000000000               0.000000000               0.000000000               0.000000000               0.000118684               0.005301907               0.001282606              -0.000618231               0.001973361               0.001355130               0.000000000               0.000000000               0.000000000               0.000000000               0.000531957               0.005287369               0.001096475              -0.000461437               0.001916251               0.001454814               0.000000000               0.000000000               0.000000000               0.000000000               0.000931527               0.005241065               0.000885591              -0.000305810               0.001848941               0.001543131               0.000000000               0.000000000               0.000000000               0.000000000               0.001295417               0.005166213               0.000637795              -0.000159995               0.001775385               0.001615390               0.000000000               0.000000000               0.000000000               0.000000000               0.001596322               0.005082071               0.000343587              -0.000036639               0.001706220               0.001669581               0.000000000               0.000000000               0.000000000               0.000000000               0.001756794               0.005050322               0.000190024               0.000027507               0.001674255               0.001701762               0.000000000               0.000000000               0.000000000               0.000000000              -0.011281914              -0.000989806              -0.000970824              -0.004106989               0.001039054              -0.003067935               0.000000000               0.000000000               0.000000000               0.000000000              -0.007712755              -0.000028217               0.000307299              -0.002888754               0.000953506              -0.001935248               0.000000000               0.000000000               0.000000000               0.000000000              -0.005068194               0.000735362               0.001488282              -0.001992491               0.000909278              -0.001083214               0.000000000               0.000000000               0.000000000               0.000000000              -0.003649686               0.001662092               0.001851184              -0.001576392               0.001079486              -0.000496905               0.000000000               0.000000000               0.000000000               0.000000000              -0.002758108               0.002469299               0.001896449              -0.001342951               0.001270740              -0.000072211               0.000000000               0.000000000               0.000000000               0.000000000              -0.002114053               0.003118853               0.001823655              -0.001182624               0.001433815               0.000251190               0.000000000               0.000000000               0.000000000               0.000000000              -0.001609173               0.003635546               0.001715898              -0.001057882               0.001564463               0.000506582               0.000000000               0.000000000               0.000000000               0.000000000              -0.001179008               0.004045651               0.001602919              -0.000947833               0.001664481               0.000716648               0.000000000               0.000000000               0.000000000               0.000000000              -0.000777258               0.004364099               0.001490199              -0.000836983               0.001733679               0.000896696               0.000000000               0.000000000               0.000000000               0.000000000              -0.000378435               0.004608543               0.001372771              -0.000717980               0.001775492               0.001057512               0.000000000               0.000000000               0.000000000               0.000000000               0.000028559               0.004796985               0.001250726              -0.000588913               0.001795283               0.001206370               0.000000000               0.000000000               0.000000000               0.000000000               0.000453294               0.004935732               0.001123948              -0.000446981               0.001794221               0.001347240               0.000000000               0.000000000               0.000000000               0.000000000               0.000905809               0.005037032               0.000983657              -0.000289950               0.001775644               0.001485694               0.000000000               0.000000000               0.000000000               0.000000000               0.001382873               0.005095462               0.000817585              -0.000118356               0.001737922               0.001619566               0.000000000               0.000000000               0.000000000               0.000000000               0.001880312               0.005102949               0.000610689               0.000067247               0.001678550               0.001745797               0.000000000               0.000000000               0.000000000               0.000000000               0.002390182               0.005066591               0.000341605               0.000262992               0.001601183               0.001864175               0.000000000               0.000000000               0.000000000               0.000000000               0.002742703               0.005072759               0.000201285               0.000394415               0.001559431               0.001953846               0.000000000               0.000000000               0.000000000               0.000000000              -0.012432866              -0.001154367              -0.000578877              -0.004518026               0.001121212              -0.003396814               0.000000000               0.000000000               0.000000000               0.000000000              -0.008349150              -0.000500976               0.000124727              -0.003068307               0.000855771              -0.002212536               0.000000000               0.000000000               0.000000000               0.000000000              -0.005197642              -0.000067157               0.000786501              -0.001940720               0.000624516              -0.001316203               0.000000000               0.000000000               0.000000000               0.000000000              -0.003541568               0.000768968               0.001006771              -0.001424207               0.000731053              -0.000693154               0.000000000               0.000000000               0.000000000               0.000000000              -0.002544344               0.001595946               0.001049595              -0.001153620               0.000916515              -0.000237105               0.000000000               0.000000000               0.000000000               0.000000000              -0.001858097               0.002307225               0.001021324              -0.000985187               0.001097463               0.000112275               0.000000000               0.000000000               0.000000000               0.000000000              -0.001329572               0.002896291               0.000968125              -0.000860624               0.001252295               0.000391671               0.000000000               0.000000000               0.000000000               0.000000000              -0.000887793               0.003382162               0.000912808              -0.000755691               0.001379273               0.000623582               0.000000000               0.000000000               0.000000000               0.000000000              -0.000489460               0.003783227               0.000857451              -0.000656450               0.001479879               0.000823430               0.000000000               0.000000000               0.000000000               0.000000000              -0.000102749               0.004112860               0.000795360              -0.000552637               0.001555152               0.001002515               0.000000000               0.000000000               0.000000000               0.000000000               0.000300102               0.004387865               0.000730201              -0.000435944               0.001607922               0.001171978               0.000000000               0.000000000               0.000000000               0.000000000               0.000736013               0.004617189               0.000663129              -0.000301144               0.001639429               0.001338285               0.000000000               0.000000000               0.000000000               0.000000000               0.001218483               0.004806703               0.000586179              -0.000143907               0.001650187               0.001506280               0.000000000               0.000000000               0.000000000               0.000000000               0.001757904               0.004944761               0.000493638               0.000041118               0.001634531               0.001675649               0.000000000               0.000000000               0.000000000               0.000000000               0.002368459               0.005024468               0.000375781               0.000260111               0.001588102               0.001848213               0.000000000               0.000000000               0.000000000               0.000000000               0.003066989               0.005038977               0.000213238               0.000520244               0.001506228               0.002026471               0.000000000               0.000000000               0.000000000               0.000000000               0.003603263               0.005084515               0.000129053               0.000715652               0.001456271               0.002171923               0.000000000               0.000000000               0.000000000               0.000000000              -0.012836275              -0.001193640               0.000000000              -0.004664395               0.001156911              -0.003507485               0.000000000               0.000000000               0.000000000               0.000000000              -0.008576215              -0.000654739              -0.000000000              -0.003134236               0.000826493              -0.002307743               0.000000000               0.000000000               0.000000000               0.000000000              -0.005244925              -0.000345223               0.000000000              -0.001923693               0.000526153              -0.001397540               0.000000000               0.000000000               0.000000000               0.000000000              -0.003500732               0.000451021               0.000000000              -0.001369151               0.000606720              -0.000762431               0.000000000               0.000000000               0.000000000               0.000000000              -0.002463019               0.001280303              -0.000000000              -0.001083668               0.000787985              -0.000295683               0.000000000               0.000000000               0.000000000               0.000000000              -0.001762368               0.002010522               0.000000000              -0.000912201               0.000974234               0.000062033               0.000000000               0.000000000               0.000000000               0.000000000              -0.001222579               0.002622951               0.000000000              -0.000786334               0.001136420               0.000350086               0.000000000               0.000000000               0.000000000               0.000000000              -0.000771017               0.003130220               0.000000000              -0.000680407               0.001270199               0.000589791               0.000000000               0.000000000               0.000000000               0.000000000              -0.000375311               0.003557108              -0.000000000              -0.000585379               0.001380817               0.000795438               0.000000000               0.000000000               0.000000000               0.000000000               0.000005385               0.003920063               0.000000000              -0.000487987               0.001469337               0.000981350               0.000000000               0.000000000               0.000000000               0.000000000               0.000407355               0.004229333              -0.000000000              -0.000375908               0.001535066               0.001159158               0.000000000               0.000000000               0.000000000               0.000000000               0.000845769               0.004490213              -0.000000000              -0.000244113               0.001578094               0.001333981               0.000000000               0.000000000               0.000000000               0.000000000               0.001340127               0.004709871               0.000000000              -0.000086186               0.001598670               0.001512484               0.000000000               0.000000000               0.000000000               0.000000000               0.001906447               0.004876654              -0.000000000               0.000105335               0.001590424               0.001695758               0.000000000               0.000000000               0.000000000               0.000000000               0.002561149               0.004980866              -0.000000000               0.000337819               0.001547666               0.001885485               0.000000000               0.000000000               0.000000000               0.000000000               0.003333840               0.005016639              -0.000000000               0.000623104               0.001464495               0.002087599               0.000000000               0.000000000               0.000000000               0.000000000               0.003944391               0.005081138              -0.000000000               0.000843996               0.001412364               0.002256360               0.000000000               0.000000000               0.000000000               0.000000000               0.002255329               0.024430396              -0.000000000              -0.002208046               0.008879399               0.006671353               0.000000000               0.000000000               0.000000000               0.000000000               0.002193154               0.018962795              -0.000000000              -0.001547913               0.006836840               0.005288927               0.000000000               0.000000000               0.000000000               0.000000000               0.002846120               0.014503782              -0.000000000              -0.000745676               0.005083104               0.004337428               0.000000000               0.000000000               0.000000000               0.000000000               0.002684495               0.011962501              -0.000000000              -0.000488626               0.004150336               0.003661710               0.000000000               0.000000000               0.000000000               0.000000000               0.002299927               0.010355664              -0.000000000              -0.000431985               0.003595848               0.003163864               0.000000000               0.000000000               0.000000000               0.000000000               0.001880286               0.009236055              -0.000000000              -0.000449399               0.003228454               0.002779055               0.000000000               0.000000000               0.000000000               0.000000000               0.001485724               0.008410421               0.000000000              -0.000494155               0.002968164               0.002474009               0.000000000               0.000000000               0.000000000               0.000000000               0.001133664               0.007759698               0.000000000              -0.000544837               0.002768153               0.002223316               0.000000000               0.000000000               0.000000000               0.000000000               0.000826900               0.007204616              -0.000000000              -0.000590488               0.002598344               0.002007856               0.000000000               0.000000000               0.000000000               0.000000000               0.000562255               0.006704604               0.000000000              -0.000627228               0.002443922               0.001816693               0.000000000               0.000000000               0.000000000               0.000000000               0.000343592               0.006232822              -0.000000000              -0.000650254               0.002294338               0.001644084               0.000000000               0.000000000               0.000000000               0.000000000               0.000166755               0.005764433              -0.000000000              -0.000658020               0.002140798               0.001482779               0.000000000               0.000000000               0.000000000               0.000000000               0.000025719               0.005275217               0.000000000              -0.000649756               0.001974973               0.001325218               0.000000000               0.000000000               0.000000000               0.000000000              -0.000069122               0.004735752               0.000000000              -0.000617888               0.001784531               0.001166643               0.000000000               0.000000000               0.000000000               0.000000000              -0.000102487               0.004128833              -0.000000000              -0.000554535               0.001561109               0.001006574               0.000000000               0.000000000               0.000000000               0.000000000              -0.000069155               0.003437268              -0.000000000              -0.000455591               0.001297608               0.000842018               0.000000000               0.000000000               0.000000000               0.000000000              -0.000092771               0.002906159              -0.000000000              -0.000398058               0.001101396               0.000703338               0.000000000               0.000000000               0.000000000               0.000000000               0.002325462               0.023914152              -0.001652418              -0.002117216               0.008677043               0.006559827               0.000000000               0.000000000               0.000000000               0.000000000               0.002139620               0.018634265              -0.000801477              -0.001526922               0.006720333               0.005193411               0.000000000               0.000000000               0.000000000               0.000000000               0.002656487               0.014366535               0.000038156              -0.000799632               0.005055341               0.004255709               0.000000000               0.000000000               0.000000000               0.000000000               0.002442461               0.011930104               0.000385512              -0.000575339               0.004168441               0.003593102               0.000000000               0.000000000               0.000000000               0.000000000               0.002046165               0.010375335               0.000521610              -0.000529604               0.003634945               0.003105341               0.000000000               0.000000000               0.000000000               0.000000000               0.001633489               0.009289274               0.000568160              -0.000548600               0.003279260               0.002730660               0.000000000               0.000000000               0.000000000               0.000000000               0.001254291               0.008476974               0.000577825              -0.000589261               0.003022050               0.002432789               0.000000000               0.000000000               0.000000000               0.000000000               0.000924003               0.007831618               0.000562007              -0.000632450               0.002821330               0.002188880               0.000000000               0.000000000               0.000000000               0.000000000               0.000642222               0.007277777               0.000533001              -0.000668887               0.002648864               0.001979976               0.000000000               0.000000000               0.000000000               0.000000000               0.000407608               0.006774047               0.000501753              -0.000693901               0.002489293               0.001795392               0.000000000               0.000000000               0.000000000               0.000000000               0.000217425               0.006293347               0.000468685              -0.000705132               0.002332805               0.001627673               0.000000000               0.000000000               0.000000000               0.000000000               0.000070277               0.005813961               0.000433995              -0.000700390               0.002171431               0.001471041               0.000000000               0.000000000               0.000000000               0.000000000              -0.000035877               0.005317729               0.000388599              -0.000678168               0.001998615               0.001320446               0.000000000               0.000000000               0.000000000               0.000000000              -0.000097863               0.004785624               0.000325485              -0.000634900               0.001806825               0.001171925               0.000000000               0.000000000               0.000000000               0.000000000              -0.000111562               0.004201814               0.000244155              -0.000567061               0.001589611               0.001022550               0.000000000               0.000000000               0.000000000               0.000000000              -0.000072152               0.003557204               0.000137483              -0.000471707               0.001342958               0.000871252               0.000000000               0.000000000               0.000000000               0.000000000              -0.000091108               0.003072655               0.000088331              -0.000418247               0.001163624               0.000745377               0.000000000               0.000000000               0.000000000               0.000000000               0.002503504               0.022448343              -0.003070579              -0.001867226               0.008105114               0.006237889               0.000000000               0.000000000               0.000000000               0.000000000               0.001972243               0.017702510              -0.001491627              -0.001473220               0.006391851               0.004918631               0.000000000               0.000000000               0.000000000               0.000000000               0.002119081               0.013979519               0.000051762              -0.000952782               0.004977387               0.004024605               0.000000000               0.000000000               0.000000000               0.000000000               0.001770709               0.011821032               0.000668265              -0.000813611               0.004211508               0.003397897               0.000000000               0.000000000               0.000000000               0.000000000               0.001351727               0.010410101               0.000904628              -0.000794363               0.003734787               0.002940423               0.000000000               0.000000000               0.000000000               0.000000000               0.000970183               0.009402464               0.000981955              -0.000811488               0.003404619               0.002593132               0.000000000               0.000000000               0.000000000               0.000000000               0.000639897               0.008627580               0.000994024              -0.000838485               0.003155326               0.002316841               0.000000000               0.000000000               0.000000000               0.000000000               0.000365869               0.007993624               0.000963978              -0.000862000               0.002951848               0.002089848               0.000000000               0.000000000               0.000000000               0.000000000               0.000148506               0.007436120               0.000911076              -0.000873823               0.002769956               0.001896133               0.000000000               0.000000000               0.000000000               0.000000000              -0.000011593               0.006917497               0.000854819              -0.000869032               0.002595487               0.001726454               0.000000000               0.000000000               0.000000000               0.000000000              -0.000116877               0.006416136               0.000796823              -0.000845844               0.002420638               0.001574795               0.000000000               0.000000000               0.000000000               0.000000000              -0.000175888               0.005920691               0.000735550              -0.000806043               0.002242225               0.001436182               0.000000000               0.000000000               0.000000000               0.000000000              -0.000202310               0.005420662               0.000658402              -0.000753447               0.002058018               0.001304571               0.000000000               0.000000000               0.000000000               0.000000000              -0.000194913               0.004914177               0.000550657              -0.000687363               0.001867164               0.001179801               0.000000000               0.000000000               0.000000000               0.000000000              -0.000155941               0.004400691               0.000410757              -0.000608563               0.001669737               0.001061174               0.000000000               0.000000000               0.000000000               0.000000000              -0.000088982               0.003882234               0.000230597              -0.000518646               0.001466947               0.000948301               0.000000000               0.000000000               0.000000000               0.000000000              -0.000088349               0.003518586               0.000144588              -0.000472953               0.001330501               0.000857548               0.000000000               0.000000000               0.000000000               0.000000000               0.002673844               0.020232346              -0.004068694              -0.001526351               0.007252831               0.005726480               0.000000000               0.000000000               0.000000000               0.000000000               0.001653035               0.016305663              -0.001987369              -0.001418317               0.005907939               0.004489622               0.000000000               0.000000000               0.000000000               0.000000000               0.001286894               0.013398038               0.000017824              -0.001192167               0.004863357               0.003671190               0.000000000               0.000000000               0.000000000               0.000000000               0.000794346               0.011624302               0.000780829              -0.001155155               0.004259780               0.003104625               0.000000000               0.000000000               0.000000000               0.000000000               0.000378114               0.010403964               0.001059125              -0.001158700               0.003854187               0.002695487               0.000000000               0.000000000               0.000000000               0.000000000               0.000056784               0.009487463               0.001144303              -0.001164636               0.003550668               0.002386032               0.000000000               0.000000000               0.000000000               0.000000000              -0.000189045               0.008759154               0.001153735              -0.001165784               0.003308283               0.002142499               0.000000000               0.000000000               0.000000000               0.000000000              -0.000366586               0.008133920               0.001116190              -0.001154207               0.003096015               0.001941808               0.000000000               0.000000000               0.000000000               0.000000000              -0.000472114               0.007565963               0.001053020              -0.001122786               0.002896224               0.001773438               0.000000000               0.000000000               0.000000000               0.000000000              -0.000518460               0.007027841               0.000984701              -0.001072900               0.002700224               0.001627323               0.000000000               0.000000000               0.000000000               0.000000000              -0.000512581               0.006507752               0.000914289              -0.001005685               0.002504457               0.001498772               0.000000000               0.000000000               0.000000000               0.000000000              -0.000461641               0.006005042               0.000838957              -0.000923744               0.002309575               0.001385832               0.000000000               0.000000000               0.000000000               0.000000000              -0.000388345               0.005519746               0.000743327              -0.000835596               0.002118429               0.001282833               0.000000000               0.000000000               0.000000000               0.000000000              -0.000302905               0.005061486               0.000614643              -0.000746274               0.001935903               0.001189629               0.000000000               0.000000000               0.000000000               0.000000000              -0.000203290               0.004645155               0.000451877              -0.000656876               0.001767328               0.001110452               0.000000000               0.000000000               0.000000000               0.000000000              -0.000100593               0.004283097               0.000248757              -0.000573108               0.001618721               0.001045613               0.000000000               0.000000000               0.000000000               0.000000000              -0.000073491               0.004065917               0.000148122              -0.000535797               0.001533891               0.000998094               0.000000000               0.000000000               0.000000000               0.000000000               0.002688035               0.017521814              -0.004564778              -0.001182214               0.006234617               0.005052402               0.000000000               0.000000000               0.000000000               0.000000000               0.001160558               0.014627927              -0.002263544              -0.001393279               0.005340353               0.003947074               0.000000000               0.000000000               0.000000000               0.000000000               0.000259514               0.012690018              -0.000080397              -0.001488931               0.004726274               0.003237343               0.000000000               0.000000000               0.000000000               0.000000000              -0.000327699               0.011337526               0.000698579              -0.001540074               0.004292495               0.002752421               0.000000000               0.000000000               0.000000000               0.000000000              -0.000689217               0.010305305               0.000968243              -0.001546616               0.003950606               0.002403990               0.000000000               0.000000000               0.000000000               0.000000000              -0.000903697               0.009479714               0.001050522              -0.001523847               0.003667822               0.002143975               0.000000000               0.000000000               0.000000000               0.000000000              -0.001021206               0.008785464               0.001060681              -0.001481132               0.003422169               0.001941037               0.000000000               0.000000000               0.000000000               0.000000000              -0.001066964               0.008155133               0.001024881              -0.001419500               0.003191517               0.001772017               0.000000000               0.000000000               0.000000000               0.000000000              -0.001040482               0.007569734               0.000963899              -0.001336394               0.002968684               0.001632290               0.000000000               0.000000000               0.000000000               0.000000000              -0.000958888               0.007017935               0.000894521              -0.001236822               0.002751562               0.001514740               0.000000000               0.000000000               0.000000000               0.000000000              -0.000838548               0.006496766               0.000819390              -0.001126549               0.002541083               0.001414534               0.000000000               0.000000000               0.000000000               0.000000000              -0.000691509               0.006008520               0.000736396              -0.001010378               0.002339613               0.001329234               0.000000000               0.000000000               0.000000000               0.000000000              -0.000533486               0.005559884               0.000636024              -0.000895040               0.002151623               0.001256582               0.000000000               0.000000000               0.000000000               0.000000000              -0.000373501               0.005167755               0.000509304              -0.000786030               0.001984578               0.001198547               0.000000000               0.000000000               0.000000000               0.000000000              -0.000223841               0.004848391               0.000356376              -0.000689988               0.001846110               0.001156122               0.000000000               0.000000000               0.000000000               0.000000000              -0.000101137               0.004616266               0.000184145              -0.000614958               0.001743726               0.001128768               0.000000000               0.000000000               0.000000000               0.000000000              -0.000057169               0.004508393               0.000100653              -0.000584986               0.001697778               0.001112792               0.000000000               0.000000000               0.000000000               0.000000000               0.002421549               0.014603548              -0.004560772              -0.000917364               0.005173588               0.004256223               0.000000000               0.000000000               0.000000000               0.000000000               0.000502390               0.012852305              -0.002345263              -0.001418140               0.004756771               0.003338632               0.000000000               0.000000000               0.000000000               0.000000000              -0.000836485               0.011902418              -0.000268598              -0.001801480               0.004567926               0.002766447               0.000000000               0.000000000               0.000000000               0.000000000              -0.001427194               0.010943136               0.000426157              -0.001903085               0.004282037               0.002378952               0.000000000               0.000000000               0.000000000               0.000000000              -0.001664315               0.010079477               0.000664091              -0.001884048               0.003987808               0.002103760               0.000000000               0.000000000               0.000000000               0.000000000              -0.001730460               0.009324018               0.000745164              -0.001814420               0.003712782               0.001898361               0.000000000               0.000000000               0.000000000               0.000000000              -0.001699589               0.008644936               0.000764348              -0.001717959               0.003454269               0.001736311               0.000000000               0.000000000               0.000000000               0.000000000              -0.001591769               0.008010368               0.000743515              -0.001598206               0.003202831               0.001604625               0.000000000               0.000000000               0.000000000               0.000000000              -0.001426102               0.007417994               0.000701053              -0.001462034               0.002959985               0.001497951               0.000000000               0.000000000               0.000000000               0.000000000              -0.001224212               0.006872100               0.000647004              -0.001318089               0.002730040               0.001411951               0.000000000               0.000000000               0.000000000               0.000000000              -0.001003491               0.006375805               0.000583557              -0.001173282               0.002516341               0.001343059               0.000000000               0.000000000               0.000000000               0.000000000              -0.000784271               0.005930673               0.000508884              -0.001035433               0.002322016               0.001286582               0.000000000               0.000000000               0.000000000               0.000000000              -0.000576354               0.005540899               0.000420314              -0.000908743               0.002149862               0.001241119               0.000000000               0.000000000               0.000000000               0.000000000              -0.000381724               0.005222108               0.000318227              -0.000795908               0.002005988               0.001210080               0.000000000               0.000000000               0.000000000               0.000000000              -0.000215535               0.004987875               0.000205365              -0.000704308               0.001897378               0.001193070               0.000000000               0.000000000               0.000000000               0.000000000              -0.000091073               0.004843369               0.000095081              -0.000639572               0.001827631               0.001188059               0.000000000               0.000000000               0.000000000               0.000000000              -0.000045967               0.004787055               0.000047525              -0.000615618               0.001800875               0.001185257               0.000000000               0.000000000               0.000000000               0.000000000               0.001793028               0.011723652              -0.004142734              -0.000793073               0.004172202               0.003379128               0.000000000               0.000000000               0.000000000               0.000000000              -0.000301624               0.011114195              -0.002293892              -0.001502381               0.004205488               0.002703107               0.000000000               0.000000000               0.000000000               0.000000000              -0.001883098               0.011069686              -0.000558125              -0.002089867               0.004386481               0.002296613               0.000000000               0.000000000               0.000000000               0.000000000              -0.002358724               0.010430120               0.000006922              -0.002188281               0.004206099               0.002017818               0.000000000               0.000000000               0.000000000               0.000000000              -0.002422686               0.009699515               0.000215284              -0.002120941               0.003940120               0.001819178               0.000000000               0.000000000               0.000000000               0.000000000              -0.002319011               0.009003828               0.000309769              -0.001995103               0.003666280               0.001671177               0.000000000               0.000000000               0.000000000               0.000000000              -0.002127870               0.008351638               0.000356960              -0.001841901               0.003397819               0.001555917               0.000000000               0.000000000               0.000000000               0.000000000              -0.001871084               0.007732537               0.000368012              -0.001668220               0.003133560               0.001465340               0.000000000               0.000000000               0.000000000               0.000000000              -0.001576721               0.007158120               0.000360522              -0.001486032               0.002881360               0.001395328               0.000000000               0.000000000               0.000000000               0.000000000              -0.001276539               0.006642390               0.000340297              -0.001308998               0.002650440               0.001341443               0.000000000               0.000000000               0.000000000               0.000000000              -0.000986571               0.006188508               0.000305230              -0.001143525               0.002443990               0.001300466               0.000000000               0.000000000               0.000000000               0.000000000              -0.000724205               0.005796269               0.000256672              -0.000996108               0.002264106               0.001267998               0.000000000               0.000000000               0.000000000               0.000000000              -0.000498288               0.005472547               0.000198486              -0.000870924               0.002114472               0.001243548               0.000000000               0.000000000               0.000000000               0.000000000              -0.000307888               0.005226205               0.000138848              -0.000768732               0.001998295               0.001229563               0.000000000               0.000000000               0.000000000               0.000000000              -0.000160921               0.005059380               0.000082158              -0.000692766               0.001917365               0.001224599               0.000000000               0.000000000               0.000000000               0.000000000              -0.000062865               0.004965748               0.000034191              -0.000644291               0.001869997               0.001225706               0.000000000               0.000000000               0.000000000               0.000000000              -0.000032184               0.004928387               0.000017582              -0.000628116               0.001852151               0.001224035               0.000000000               0.000000000               0.000000000               0.000000000               0.000838611               0.009057677              -0.003430126              -0.000817732               0.003291772               0.002474040               0.000000000               0.000000000               0.000000000               0.000000000              -0.001203811               0.009511639              -0.002164838              -0.001640381               0.003717308               0.002076927               0.000000000               0.000000000               0.000000000               0.000000000              -0.002782881               0.010202619              -0.000939847              -0.002318902               0.004173806               0.001854904               0.000000000               0.000000000               0.000000000               0.000000000              -0.003042205               0.009804490              -0.000498911              -0.002366382               0.004056925               0.001690543               0.000000000               0.000000000               0.000000000               0.000000000              -0.002904646               0.009192615              -0.000287969              -0.002238314               0.003810279               0.001571965               0.000000000               0.000000000               0.000000000               0.000000000              -0.002631752               0.008569694              -0.000156351              -0.002058114               0.003542574               0.001484460               0.000000000               0.000000000               0.000000000               0.000000000              -0.002290753               0.007962587              -0.000066428              -0.001854351               0.003272286               0.001417935               0.000000000               0.000000000               0.000000000               0.000000000              -0.001906228               0.007381005              -0.000011315              -0.001637457               0.003006129               0.001368672               0.000000000               0.000000000               0.000000000               0.000000000              -0.001510426               0.006850105               0.000027173              -0.001422669               0.002757569               0.001334899               0.000000000               0.000000000               0.000000000               0.000000000              -0.001143435               0.006378777               0.000050881              -0.001226132               0.002534948               0.001308816               0.000000000               0.000000000               0.000000000               0.000000000              -0.000821138               0.005969304               0.000055845              -0.001054087               0.002341111               0.001287023               0.000000000               0.000000000               0.000000000               0.000000000              -0.000548553               0.005629121               0.000050036              -0.000909345               0.002179470               0.001270125               0.000000000               0.000000000               0.000000000               0.000000000              -0.000330802               0.005367325               0.000037918              -0.000794964               0.002054079               0.001259114               0.000000000               0.000000000               0.000000000               0.000000000              -0.000171983               0.005182446               0.000024787              -0.000712298               0.001964897               0.001252600               0.000000000               0.000000000               0.000000000               0.000000000              -0.000071642               0.005065088               0.000014880              -0.000660000               0.001908346               0.001248346               0.000000000               0.000000000               0.000000000               0.000000000              -0.000021985               0.005000133               0.000007047              -0.000633260               0.001877781               0.001244521               0.000000000               0.000000000               0.000000000               0.000000000              -0.000012683               0.004974969               0.000005357              -0.000626626               0.001867181               0.001240556               0.000000000               0.000000000               0.000000000               0.000000000              -0.000304644               0.006795421              -0.002547563              -0.000963669               0.002586340               0.001622671               0.000000000               0.000000000               0.000000000               0.000000000              -0.002087041               0.008073588              -0.002014787              -0.001791835               0.003288447               0.001496611               0.000000000               0.000000000               0.000000000               0.000000000              -0.003479275               0.009340470              -0.001398166              -0.002472281               0.003937552               0.001465271               0.000000000               0.000000000               0.000000000               0.000000000              -0.003496228               0.009202428              -0.001037603              -0.002461383               0.003887906               0.001426523               0.000000000               0.000000000               0.000000000               0.000000000              -0.003186484               0.008740613              -0.000797204              -0.002287502               0.003676009               0.001388507               0.000000000               0.000000000               0.000000000               0.000000000              -0.002780451               0.008217492              -0.000618311              -0.002069850               0.003429087               0.001359236               0.000000000               0.000000000               0.000000000               0.000000000              -0.002328262               0.007680689              -0.000479001              -0.001833180               0.003171264               0.001338084               0.000000000               0.000000000               0.000000000               0.000000000              -0.001845462               0.007157069              -0.000372392              -0.001586678               0.002914558               0.001327881               0.000000000               0.000000000               0.000000000               0.000000000              -0.001380546               0.006673407              -0.000283683              -0.001351877               0.002675073               0.001323195               0.000000000               0.000000000               0.000000000               0.000000000              -0.000971740               0.006236809              -0.000212192              -0.001144001               0.002460249               0.001316248               0.000000000               0.000000000               0.000000000               0.000000000              -0.000629701               0.005854456              -0.000156837              -0.000967943               0.002274114               0.001306171               0.000000000               0.000000000               0.000000000               0.000000000              -0.000358272               0.005542442              -0.000109870              -0.000827155               0.002123181               0.001296025               0.000000000               0.000000000               0.000000000               0.000000000              -0.000164226               0.005306279              -0.000067958              -0.000724868               0.002010365               0.001285497               0.000000000               0.000000000               0.000000000               0.000000000              -0.000046971               0.005147620              -0.000035094              -0.000661065               0.001936211               0.001275146               0.000000000               0.000000000               0.000000000               0.000000000               0.000003276               0.005051894              -0.000012516              -0.000630257               0.001894033               0.001263777               0.000000000               0.000000000               0.000000000               0.000000000               0.000013620               0.005004962              -0.000001251              -0.000620511               0.001875141               0.001254630               0.000000000               0.000000000               0.000000000               0.000000000               0.000010337               0.004990888               0.000002384              -0.000619983               0.001870274               0.001250291               0.000000000               0.000000000               0.000000000               0.000000000              -0.001650080               0.004687556              -0.001609504              -0.001204722               0.001964077               0.000759354               0.000000000               0.000000000               0.000000000               0.000000000              -0.002825416               0.006429067              -0.001848666              -0.001863160               0.002764054               0.000900894               0.000000000               0.000000000               0.000000000               0.000000000              -0.003887621               0.008120769              -0.001882506              -0.002472948               0.003531212               0.001058263               0.000000000               0.000000000               0.000000000               0.000000000              -0.003760278               0.008364763              -0.001612817              -0.002455694               0.003606791               0.001151097               0.000000000               0.000000000               0.000000000               0.000000000              -0.003366519               0.008163064              -0.001347674              -0.002282822               0.003481935               0.001199112               0.000000000               0.000000000               0.000000000               0.000000000              -0.002913054               0.007836445              -0.001121588              -0.002071946               0.003302771               0.001230825               0.000000000               0.000000000               0.000000000               0.000000000              -0.002440741               0.007461895              -0.000934788              -0.001848010               0.003103277               0.001255266               0.000000000               0.000000000               0.000000000               0.000000000              -0.001949024               0.007062513              -0.000778841              -0.001613694               0.002892045               0.001278351               0.000000000               0.000000000               0.000000000               0.000000000              -0.001466788               0.006665646              -0.000639203              -0.001383248               0.002682942               0.001299694               0.000000000               0.000000000               0.000000000               0.000000000              -0.001034951               0.006289381              -0.000516249              -0.001174277               0.002487865               0.001313588               0.000000000               0.000000000               0.000000000               0.000000000              -0.000668677               0.005945399              -0.000405561              -0.000993926               0.002313089               0.001319162               0.000000000               0.000000000               0.000000000               0.000000000              -0.000375750               0.005641401              -0.000301507              -0.000846079               0.002162474               0.001316395               0.000000000               0.000000000               0.000000000               0.000000000              -0.000157538               0.005395003              -0.000203531              -0.000733450               0.002042800               0.001309350               0.000000000               0.000000000               0.000000000               0.000000000              -0.000017709               0.005216780              -0.000115828              -0.000658737               0.001958488               0.001299751               0.000000000               0.000000000               0.000000000               0.000000000               0.000047405               0.005098314              -0.000051077              -0.000619511               0.001905925               0.001286414               0.000000000               0.000000000               0.000000000               0.000000000               0.000061258               0.005030587              -0.000015286              -0.000605850               0.001878796               0.001272945               0.000000000               0.000000000               0.000000000               0.000000000               0.000055138               0.005004619              -0.000003065              -0.000604899               0.001869823               0.001264924               0.000000000               0.000000000               0.000000000               0.000000000              -0.003382274               0.002785452              -0.000683234              -0.001616531               0.001467317              -0.000149214               0.000000000               0.000000000               0.000000000               0.000000000              -0.003660386               0.004789545              -0.001609859              -0.001971333               0.002253610               0.000282276               0.000000000               0.000000000               0.000000000               0.000000000              -0.004204111               0.006712340              -0.002267964              -0.002415579               0.003042616               0.000627038               0.000000000               0.000000000               0.000000000               0.000000000              -0.003942258               0.007322945              -0.002164585              -0.002393709               0.003238860               0.000845151               0.000000000               0.000000000               0.000000000               0.000000000              -0.003487748               0.007428233              -0.001912965              -0.002236429               0.003221529               0.000985100               0.000000000               0.000000000               0.000000000               0.000000000              -0.003009727               0.007334092              -0.001658878              -0.002045405               0.003126474               0.001081070               0.000000000               0.000000000               0.000000000               0.000000000              -0.002538741               0.007146426              -0.001434716              -0.001845327               0.002997227               0.001151900               0.000000000               0.000000000               0.000000000               0.000000000              -0.002067209               0.006896366              -0.001236930              -0.001637245               0.002844514               0.001207269               0.000000000               0.000000000               0.000000000               0.000000000              -0.001589904               0.006613188              -0.001054761              -0.001422859               0.002678660               0.001255801               0.000000000               0.000000000               0.000000000               0.000000000              -0.001139067               0.006317700              -0.000886453              -0.001216860               0.002511499               0.001294639               0.000000000               0.000000000               0.000000000               0.000000000              -0.000740194               0.006029747              -0.000728595              -0.001031289               0.002353659               0.001322370               0.000000000               0.000000000               0.000000000               0.000000000              -0.000402178               0.005754815              -0.000577762              -0.000870167               0.002208308               0.001338141               0.000000000               0.000000000               0.000000000               0.000000000              -0.000131911               0.005509834              -0.000429686              -0.000738194               0.002082657               0.001344463               0.000000000               0.000000000               0.000000000               0.000000000               0.000061293               0.005312164              -0.000282670              -0.000641034               0.001984382               0.001343348               0.000000000               0.000000000               0.000000000               0.000000000               0.000168886               0.005164838              -0.000156138              -0.000582271               0.001915686               0.001333415               0.000000000               0.000000000               0.000000000               0.000000000               0.000196442               0.005064644              -0.000063877              -0.000559413               0.001874669               0.001315256               0.000000000               0.000000000               0.000000000               0.000000000               0.000183614               0.005021401              -0.000024275              -0.000558818               0.001860056               0.001301238               0.000000000               0.000000000               0.000000000               0.000000000              -0.005385153               0.001237470               0.000145576              -0.002174113               0.001137187              -0.001036926               0.000000000               0.000000000               0.000000000               0.000000000              -0.004646299               0.003244260              -0.001282401              -0.002147890               0.001797371              -0.000350520               0.000000000               0.000000000               0.000000000               0.000000000              -0.004460122               0.005120178              -0.002436504              -0.002312563               0.002477562               0.000164999               0.000000000               0.000000000               0.000000000               0.000000000              -0.003987534               0.005994061              -0.002538996              -0.002244578               0.002746192               0.000501614               0.000000000               0.000000000               0.000000000               0.000000000              -0.003461181               0.006382907              -0.002353900              -0.002095802               0.002826214               0.000730412               0.000000000               0.000000000               0.000000000               0.000000000              -0.002959786               0.006529512              -0.002109007              -0.001926105               0.002818517               0.000892412               0.000000000               0.000000000               0.000000000               0.000000000              -0.002490322               0.006542061              -0.001872976              -0.001751625               0.002764540               0.001012915               0.000000000               0.000000000               0.000000000               0.000000000              -0.002039335               0.006466541              -0.001657733              -0.001573065               0.002679847               0.001106782               0.000000000               0.000000000               0.000000000               0.000000000              -0.001585869               0.006327372              -0.001455140              -0.001385619               0.002570976               0.001185356               0.000000000               0.000000000               0.000000000               0.000000000              -0.001138108               0.006147469              -0.001260495              -0.001195222               0.002447543               0.001252321               0.000000000               0.000000000               0.000000000               0.000000000              -0.000718774               0.005949719              -0.001075112              -0.001013253               0.002320971               0.001307718               0.000000000               0.000000000               0.000000000               0.000000000              -0.000338806               0.005745778              -0.000895497              -0.000845273               0.002196998               0.001351725               0.000000000               0.000000000               0.000000000               0.000000000              -0.000015312               0.005545709              -0.000709083              -0.000698954               0.002081536               0.001382582               0.000000000               0.000000000               0.000000000               0.000000000               0.000236166               0.005360259              -0.000512876              -0.000581469               0.001980558               0.001399089               0.000000000               0.000000000               0.000000000               0.000000000               0.000402150               0.005206718              -0.000320399              -0.000500032               0.001902233               0.001402200               0.000000000               0.000000000               0.000000000               0.000000000               0.000467740               0.005092338              -0.000149513              -0.000461139               0.001851142               0.001390003               0.000000000               0.000000000               0.000000000               0.000000000               0.000460295               0.005036659              -0.000067564              -0.000456970               0.001831193               0.001374222               0.000000000               0.000000000               0.000000000               0.000000000              -0.007511314               0.000113009               0.000756915              -0.002830867               0.000981285              -0.001849581               0.000000000               0.000000000               0.000000000               0.000000000              -0.005719797               0.001875678              -0.000917109              -0.002379380               0.001418343              -0.000961037               0.000000000               0.000000000               0.000000000               0.000000000              -0.004683221               0.003484393              -0.002358261              -0.002191753               0.001892035              -0.000299718               0.000000000               0.000000000               0.000000000               0.000000000              -0.003919728               0.004488055              -0.002640980              -0.002030901               0.002172969               0.000142068               0.000000000               0.000000000               0.000000000               0.000000000              -0.003291573               0.005094577              -0.002549137              -0.001871159               0.002321894               0.000450735               0.000000000               0.000000000               0.000000000               0.000000000              -0.002761227               0.005454948              -0.002350205              -0.001717325               0.002390739               0.000673413               0.000000000               0.000000000               0.000000000               0.000000000              -0.002287729               0.005665806              -0.002137200              -0.001566121               0.002410623               0.000844502               0.000000000               0.000000000               0.000000000               0.000000000              -0.001847304               0.005776384              -0.001934489              -0.001414784               0.002397036               0.000982252               0.000000000               0.000000000               0.000000000               0.000000000              -0.001419040               0.005807456              -0.001737588              -0.001258070               0.002355155               0.001097086               0.000000000               0.000000000               0.000000000               0.000000000              -0.000992166               0.005773666              -0.001542642              -0.001093769               0.002289125               0.001195357               0.000000000               0.000000000               0.000000000               0.000000000              -0.000569125               0.005695650              -0.001355977              -0.000925376               0.002206990               0.001281613               0.000000000               0.000000000               0.000000000               0.000000000              -0.000163102               0.005593027              -0.001170419              -0.000760290               0.002117753               0.001357463               0.000000000               0.000000000               0.000000000               0.000000000               0.000208084               0.005472174              -0.000968333              -0.000605989               0.002026036               0.001420047               0.000000000               0.000000000               0.000000000               0.000000000               0.000528151               0.005336979              -0.000746496              -0.000469065               0.001935330               0.001466265               0.000000000               0.000000000               0.000000000               0.000000000               0.000777175               0.005203409              -0.000507376              -0.000358985               0.001854114               0.001495129               0.000000000               0.000000000               0.000000000               0.000000000               0.000927427               0.005093227              -0.000257005              -0.000288868               0.001794015               0.001505147               0.000000000               0.000000000               0.000000000               0.000000000               0.000968056               0.005041397              -0.000129344              -0.000267153               0.001769500               0.001502347               0.000000000               0.000000000               0.000000000               0.000000000              -0.009558518              -0.000602878               0.001045950              -0.003509082               0.000968728              -0.002540354               0.000000000               0.000000000               0.000000000               0.000000000              -0.006786210               0.000769639              -0.000575766              -0.002641031               0.001136882              -0.001504149               0.000000000               0.000000000               0.000000000               0.000000000              -0.004887939               0.001967226              -0.002031879              -0.002078878               0.001348691              -0.000730186               0.000000000               0.000000000               0.000000000               0.000000000              -0.003790034               0.002971554              -0.002414787              -0.001792704               0.001588074              -0.000204630               0.000000000               0.000000000               0.000000000               0.000000000              -0.003031675               0.003715320              -0.002408743              -0.001601290               0.001772190               0.000170899               0.000000000               0.000000000               0.000000000               0.000000000              -0.002448891               0.004248188              -0.002273825              -0.001449355               0.001899166               0.000449811               0.000000000               0.000000000               0.000000000               0.000000000              -0.001965230               0.004634911              -0.002109926              -0.001316323               0.001983728               0.000667405               0.000000000               0.000000000               0.000000000               0.000000000              -0.001532155               0.004915944              -0.001944948              -0.001189049               0.002034981               0.000845931               0.000000000               0.000000000               0.000000000               0.000000000              -0.001122403               0.005106125              -0.001780259              -0.001059165               0.002055079               0.000995914               0.000000000               0.000000000               0.000000000               0.000000000              -0.000713088               0.005222500              -0.001614344              -0.000920219               0.002047555               0.001127336               0.000000000               0.000000000               0.000000000               0.000000000              -0.000297380               0.005283790              -0.001451497              -0.000771990               0.002018575               0.001246585               0.000000000               0.000000000               0.000000000               0.000000000               0.000118684               0.005301907              -0.001282606              -0.000618231               0.001973361               0.001355130               0.000000000               0.000000000               0.000000000               0.000000000               0.000531957               0.005287369              -0.001096475              -0.000461437               0.001916251               0.001454814               0.000000000               0.000000000               0.000000000               0.000000000               0.000931527               0.005241065              -0.000885591              -0.000305810               0.001848941               0.001543131               0.000000000               0.000000000               0.000000000               0.000000000               0.001295417               0.005166213              -0.000637795              -0.000159995               0.001775385               0.001615390               0.000000000               0.000000000               0.000000000               0.000000000               0.001596322               0.005082071              -0.000343587              -0.000036639               0.001706220               0.001669581               0.000000000               0.000000000               0.000000000               0.000000000               0.001756794               0.005050322              -0.000190024               0.000027507               0.001674255               0.001701762               0.000000000               0.000000000               0.000000000               0.000000000              -0.011281914              -0.000989806               0.000970824              -0.004106989               0.001039054              -0.003067935               0.000000000               0.000000000               0.000000000               0.000000000              -0.007712755              -0.000028217              -0.000307299              -0.002888754               0.000953506              -0.001935248               0.000000000               0.000000000               0.000000000               0.000000000              -0.005068194               0.000735362              -0.001488282              -0.001992491               0.000909278              -0.001083214               0.000000000               0.000000000               0.000000000               0.000000000              -0.003649686               0.001662092              -0.001851184              -0.001576392               0.001079486              -0.000496905               0.000000000               0.000000000               0.000000000               0.000000000              -0.002758108               0.002469299              -0.001896449              -0.001342951               0.001270740              -0.000072211               0.000000000               0.000000000               0.000000000               0.000000000              -0.002114053               0.003118853              -0.001823655              -0.001182624               0.001433815               0.000251190               0.000000000               0.000000000               0.000000000               0.000000000              -0.001609173               0.003635546              -0.001715898              -0.001057882               0.001564463               0.000506582               0.000000000               0.000000000               0.000000000               0.000000000              -0.001179008               0.004045651              -0.001602919              -0.000947833               0.001664481               0.000716648               0.000000000               0.000000000               0.000000000               0.000000000              -0.000777258               0.004364099              -0.001490199              -0.000836983               0.001733679               0.000896696               0.000000000               0.000000000               0.000000000               0.000000000              -0.000378435               0.004608543              -0.001372771              -0.000717980               0.001775492               0.001057512               0.000000000               0.000000000               0.000000000               0.000000000               0.000028559               0.004796985              -0.001250726              -0.000588913               0.001795283               0.001206370               0.000000000               0.000000000               0.000000000               0.000000000               0.000453294               0.004935732              -0.001123948              -0.000446981               0.001794221               0.001347240               0.000000000               0.000000000               0.000000000               0.000000000               0.000905809               0.005037032              -0.000983657              -0.000289950               0.001775644               0.001485694               0.000000000               0.000000000               0.000000000               0.000000000               0.001382873               0.005095462              -0.000817585              -0.000118356               0.001737922               0.001619566               0.000000000               0.000000000               0.000000000               0.000000000               0.001880312               0.005102949              -0.000610689               0.000067247               0.001678550               0.001745797               0.000000000               0.000000000               0.000000000               0.000000000               0.002390182               0.005066591              -0.000341605               0.000262992               0.001601183               0.001864175               0.000000000               0.000000000               0.000000000               0.000000000               0.002742703               0.005072759              -0.000201285               0.000394415               0.001559431               0.001953846               0.000000000               0.000000000               0.000000000               0.000000000              -0.012432866              -0.001154367               0.000578877              -0.004518026               0.001121212              -0.003396814               0.000000000               0.000000000               0.000000000               0.000000000              -0.008349150              -0.000500976              -0.000124727              -0.003068307               0.000855771              -0.002212536               0.000000000               0.000000000               0.000000000               0.000000000              -0.005197642              -0.000067157              -0.000786501              -0.001940720               0.000624516              -0.001316203               0.000000000               0.000000000               0.000000000               0.000000000              -0.003541568               0.000768968              -0.001006771              -0.001424207               0.000731053              -0.000693154               0.000000000               0.000000000               0.000000000               0.000000000              -0.002544344               0.001595946              -0.001049595              -0.001153620               0.000916515              -0.000237105               0.000000000               0.000000000               0.000000000               0.000000000              -0.001858097               0.002307225              -0.001021324              -0.000985187               0.001097463               0.000112275               0.000000000               0.000000000               0.000000000               0.000000000              -0.001329572               0.002896291              -0.000968125              -0.000860624               0.001252295               0.000391671               0.000000000               0.000000000               0.000000000               0.000000000              -0.000887793               0.003382162              -0.000912808              -0.000755691               0.001379273               0.000623582               0.000000000               0.000000000               0.000000000               0.000000000              -0.000489460               0.003783227              -0.000857451              -0.000656450               0.001479879               0.000823430               0.000000000               0.000000000               0.000000000               0.000000000              -0.000102749               0.004112860              -0.000795360              -0.000552637               0.001555152               0.001002515               0.000000000               0.000000000               0.000000000               0.000000000               0.000300102               0.004387865              -0.000730201              -0.000435944               0.001607922               0.001171978               0.000000000               0.000000000               0.000000000               0.000000000               0.000736013               0.004617189              -0.000663129              -0.000301144               0.001639429               0.001338285               0.000000000               0.000000000               0.000000000               0.000000000               0.001218483               0.004806703              -0.000586179              -0.000143907               0.001650187               0.001506280               0.000000000               0.000000000               0.000000000               0.000000000               0.001757904               0.004944761              -0.000493638               0.000041118               0.001634531               0.001675649               0.000000000               0.000000000               0.000000000               0.000000000               0.002368459               0.005024468              -0.000375781               0.000260111               0.001588102               0.001848213               0.000000000               0.000000000               0.000000000               0.000000000               0.003066989               0.005038977              -0.000213238               0.000520244               0.001506228               0.002026471               0.000000000               0.000000000               0.000000000               0.000000000               0.003603263               0.005084515              -0.000129053               0.000715652               0.001456271               0.002171923               0.000000000               0.000000000               0.000000000               0.000000000               0.000000000               0.000000000               0.000000000               0.000000000               0.000000000               0.000000000               0.000000000               0.000000000               0.000000000               0.000000000               0.000000000               0.000000000               0.000000000               0.000000000               0.000000000               0.000000000               0.000000000               0.000000000               0.000000000               0.000000000               0.000000000               0.000000000               0.000000000               0.000000000               0.000000000               0.000000000               0.000000000               0.000000000               0.000000000               0.000000000               0.000000000               0.000000000               0.000000000               0.000000000               0.000000000               0.000000000               0.000000000               0.000000000               0.000000000               0.000000000               0.000000000               0.000000000               0.000000000               0.000000000               0.000000000               0.000000000               0.000000000               0.000000000               0.000000000               0.000000000               0.000000000               0.000000000               0.000000000               0.000000000               0.000000000               0.000000000               0.000000000               0.000000000               0.000000000               0.000000000               0.000000000               0.000000000               0.000000000               0.000000000               0.000000000               0.000000000               0.000000000               0.000000000               0.000000000               0.000000000               0.000000000               0.000000000               0.000000000               0.000000000               0.000000000               0.000000000               0.000000000               0.000000000               0.000000000               0.000000000               0.000000000               0.000000000               0.000000000               0.000000000               0.000000000               0.000000000               0.000000000               0.000000000               0.000000000               0.000000000               0.000000000               0.000000000               0.000000000               0.000000000               0.000000000               0.000000000               0.000000000               0.000000000               0.000000000               0.000000000               0.000000000               0.000000000               0.000000000               0.000000000               0.000000000               0.000000000               0.000000000               0.000000000               0.000000000               0.000000000               0.000000000               0.000000000               0.000000000               0.000000000               0.000000000               0.000000000               0.000000000               0.000000000               0.000000000               0.000000000               0.000000000               0.000000000               0.000000000               0.000000000               0.000000000               0.000000000               0.000000000               0.000000000               0.000000000               0.000000000               0.000000000               0.000000000               0.000000000               0.000000000               0.000000000               0.000000000               0.000000000               0.000000000               0.000000000               0.000000000               0.000000000               0.000000000               0.000000000               0.000000000               0.000000000               0.000000000               0.000000000               0.000000000               0.000000000               0.000000000               0.000000000               0.000000000               0.000000000               0.000000000               0.000000000               0.000000000               0.000000000               0.000000000               0.000000000               0.000000000               0.000000000               0.000000000               0.000000000               0.000000000               0.000000000               0.000000000               0.000000000               0.000000000               0.000000000               0.000000000               0.000000000               0.000000000               0.000000000               0.000000000               0.000000000               0.000000000               0.000000000               0.000000000               0.000000000               0.000000000               0.000000000               0.000000000               0.000000000               0.000000000               0.000000000               0.000000000               0.000000000               0.000000000               0.000000000               0.000000000               0.000000000               0.000000000               0.000000000               0.000000000               0.000000000               0.000000000               0.000000000               0.000000000               0.000000000               0.000000000               0.000000000               0.000000000               0.000000000               0.000000000               0.000000000               0.000000000               0.000000000               0.000000000               0.000000000               0.000000000               0.000000000               0.000000000               0.000000000               0.000000000               0.000000000               0.000000000               0.000000000               0.000000000               0.000000000               0.000000000               0.000000000               0.000000000               0.000000000               0.000000000               0.000000000               0.000000000               0.000000000               0.000000000               0.000000000               0.000000000               0.000000000               0.000000000               0.000000000               0.000000000               0.000000000               0.000000000               0.000000000               0.000000000               0.000000000               0.000000000               0.000000000               0.000000000               0.000000000               0.000000000               0.000000000               0.000000000               0.000000000               0.000000000               0.000000000               0.000000000               0.000000000               0.000000000               0.000000000               0.000000000               0.000000000               0.000000000               0.000000000               0.000000000               0.000000000               0.000000000               0.000000000               0.000000000               0.000000000               0.000000000               0.000000000               0.000000000               0.000000000               0.000000000               0.000000000               0.000000000               0.000000000               0.000000000               0.000000000               0.000000000               0.000000000               0.000000000               0.000000000               0.000000000               0.000000000               0.000000000               0.000000000               0.000000000               0.000000000               0.000000000               0.000000000               0.000000000               0.000000000               0.000000000               0.000000000               0.000000000               0.000000000               0.000000000               0.000000000               0.000000000               0.000000000               0.000000000               0.000000000               0.000000000               0.000000000               0.000000000               0.000000000               0.000000000               0.000000000               0.000000000               0.000000000               0.000000000               0.000000000               0.000000000               0.000000000               0.000000000               0.000000000               0.000000000               0.000000000               0.000000000               0.000000000               0.000000000               0.000000000               0.000000000               0.000000000               0.000000000               0.000000000               0.000000000               0.000000000               0.000000000               0.000000000               0.000000000               0.000000000               0.000000000               0.000000000               0.000000000               0.000000000               0.000000000               0.000000000               0.000000000               0.000000000               0.000000000               0.000000000               0.000000000               0.000000000               0.000000000               0.002325462               0.023914152               0.001652418              -0.002117216               0.008677043               0.006559827               0.000000000               0.000000000               0.000000000               0.000000000               0.002139620               0.018634265               0.000801477              -0.001526922               0.006720333               0.005193411               0.000000000               0.000000000               0.000000000               0.000000000               0.002656487               0.014366535              -0.000038156              -0.000799632               0.005055341               0.004255709               0.000000000               0.000000000               0.000000000               0.000000000               0.002442461               0.011930104              -0.000385512              -0.000575339               0.004168441               0.003593102               0.000000000               0.000000000               0.000000000               0.000000000               0.002046165               0.010375335              -0.000521610              -0.000529604               0.003634945               0.003105341               0.000000000               0.000000000               0.000000000               0.000000000               0.001633489               0.009289274              -0.000568160              -0.000548600               0.003279260               0.002730660               0.000000000               0.000000000               0.000000000               0.000000000               0.001254291               0.008476974              -0.000577825              -0.000589261               0.003022050               0.002432789               0.000000000               0.000000000               0.000000000               0.000000000               0.000924003               0.007831618              -0.000562007              -0.000632450               0.002821330               0.002188880               0.000000000               0.000000000               0.000000000               0.000000000               0.000642222               0.007277777              -0.000533001              -0.000668887               0.002648864               0.001979976               0.000000000               0.000000000               0.000000000               0.000000000               0.000407608               0.006774047              -0.000501753              -0.000693901               0.002489293               0.001795392               0.000000000               0.000000000               0.000000000               0.000000000               0.000217425               0.006293347              -0.000468685              -0.000705132               0.002332805               0.001627673               0.000000000               0.000000000               0.000000000               0.000000000               0.000070277               0.005813961              -0.000433995              -0.000700390               0.002171431               0.001471041               0.000000000               0.000000000               0.000000000               0.000000000              -0.000035877               0.005317729              -0.000388599              -0.000678168               0.001998615               0.001320446               0.000000000               0.000000000               0.000000000               0.000000000              -0.000097863               0.004785624              -0.000325485              -0.000634900               0.001806825               0.001171925               0.000000000               0.000000000               0.000000000               0.000000000              -0.000111562               0.004201814              -0.000244155              -0.000567061               0.001589611               0.001022550               0.000000000               0.000000000               0.000000000               0.000000000              -0.000072152               0.003557204              -0.000137483              -0.000471707               0.001342958               0.000871252               0.000000000               0.000000000               0.000000000               0.000000000              -0.000091108               0.003072655              -0.000088331              -0.000418247               0.001163624               0.000745377               0.000000000               0.000000000               0.000000000               0.000000000               0.002503504               0.022448343               0.003070579              -0.001867226               0.008105114               0.006237889               0.000000000               0.000000000               0.000000000               0.000000000               0.001972243               0.017702510               0.001491627              -0.001473220               0.006391851               0.004918631               0.000000000               0.000000000               0.000000000               0.000000000               0.002119081               0.013979519              -0.000051762              -0.000952782               0.004977387               0.004024605               0.000000000               0.000000000               0.000000000               0.000000000               0.001770709               0.011821032              -0.000668265              -0.000813611               0.004211508               0.003397897               0.000000000               0.000000000               0.000000000               0.000000000               0.001351727               0.010410101              -0.000904628              -0.000794363               0.003734787               0.002940423               0.000000000               0.000000000               0.000000000               0.000000000               0.000970183               0.009402464              -0.000981955              -0.000811488               0.003404619               0.002593132               0.000000000               0.000000000               0.000000000               0.000000000               0.000639897               0.008627580              -0.000994024              -0.000838485               0.003155326               0.002316841               0.000000000               0.000000000               0.000000000               0.000000000               0.000365869               0.007993624              -0.000963978              -0.000862000               0.002951848               0.002089848               0.000000000               0.000000000               0.000000000               0.000000000               0.000148506               0.007436120              -0.000911076              -0.000873823               0.002769956               0.001896133               0.000000000               0.000000000               0.000000000               0.000000000              -0.000011593               0.006917497              -0.000854819              -0.000869032               0.002595487               0.001726454               0.000000000               0.000000000               0.000000000               0.000000000              -0.000116877               0.006416136              -0.000796823              -0.000845844               0.002420638               0.001574795               0.000000000               0.000000000               0.000000000               0.000000000              -0.000175888               0.005920691              -0.000735550              -0.000806043               0.002242225               0.001436182               0.000000000               0.000000000               0.000000000               0.000000000              -0.000202310               0.005420662              -0.000658402              -0.000753447               0.002058018               0.001304571               0.000000000               0.000000000               0.000000000               0.000000000              -0.000194913               0.004914177              -0.000550657              -0.000687363               0.001867164               0.001179801               0.000000000               0.000000000               0.000000000               0.000000000              -0.000155941               0.004400691              -0.000410757              -0.000608563               0.001669737               0.001061174               0.000000000               0.000000000               0.000000000               0.000000000              -0.000088982               0.003882234              -0.000230597              -0.000518646               0.001466947               0.000948301               0.000000000               0.000000000               0.000000000               0.000000000              -0.000088349               0.003518586              -0.000144588              -0.000472953               0.001330501               0.000857548               0.000000000               0.000000000               0.000000000               0.000000000               0.002673844               0.020232346               0.004068694              -0.001526351               0.007252831               0.005726480               0.000000000               0.000000000               0.000000000               0.000000000               0.001653035               0.016305663               0.001987369              -0.001418317               0.005907939               0.004489622               0.000000000               0.000000000               0.000000000               0.000000000               0.001286894               0.013398038              -0.000017824              -0.001192167               0.004863357               0.003671190               0.000000000               0.000000000               0.000000000               0.000000000               0.000794346               0.011624302              -0.000780829              -0.001155155               0.004259780               0.003104625               0.000000000               0.000000000               0.000000000               0.000000000               0.000378114               0.010403964              -0.001059125              -0.001158700               0.003854187               0.002695487               0.000000000               0.000000000               0.000000000               0.000000000               0.000056784               0.009487463              -0.001144303              -0.001164636               0.003550668               0.002386032               0.000000000               0.000000000               0.000000000               0.000000000              -0.000189045               0.008759154              -0.001153735              -0.001165784               0.003308283               0.002142499               0.000000000               0.000000000               0.000000000               0.000000000              -0.000366586               0.008133920              -0.001116190              -0.001154207               0.003096015               0.001941808               0.000000000               0.000000000               0.000000000               0.000000000              -0.000472114               0.007565963              -0.001053020              -0.001122786               0.002896224               0.001773438               0.000000000               0.000000000               0.000000000               0.000000000              -0.000518460               0.007027841              -0.000984701              -0.001072900               0.002700224               0.001627323               0.000000000               0.000000000               0.000000000               0.000000000              -0.000512581               0.006507752              -0.000914289              -0.001005685               0.002504457               0.001498772               0.000000000               0.000000000               0.000000000               0.000000000              -0.000461641               0.006005042              -0.000838957              -0.000923744               0.002309575               0.001385832               0.000000000               0.000000000               0.000000000               0.000000000              -0.000388345               0.005519746              -0.000743327              -0.000835596               0.002118429               0.001282833               0.000000000               0.000000000               0.000000000               0.000000000              -0.000302905               0.005061486              -0.000614643              -0.000746274               0.001935903               0.001189629               0.000000000               0.000000000               0.000000000               0.000000000              -0.000203290               0.004645155              -0.000451877              -0.000656876               0.001767328               0.001110452               0.000000000               0.000000000               0.000000000               0.000000000              -0.000100593               0.004283097              -0.000248757              -0.000573108               0.001618721               0.001045613               0.000000000               0.000000000               0.000000000               0.000000000              -0.000073491               0.004065917              -0.000148122              -0.000535797               0.001533891               0.000998094               0.000000000               0.000000000               0.000000000               0.000000000               0.002688035               0.017521814               0.004564778              -0.001182214               0.006234617               0.005052402               0.000000000               0.000000000               0.000000000               0.000000000               0.001160558               0.014627927               0.002263544              -0.001393279               0.005340353               0.003947074               0.000000000               0.000000000               0.000000000               0.000000000               0.000259514               0.012690018               0.000080397              -0.001488931               0.004726274               0.003237343               0.000000000               0.000000000               0.000000000               0.000000000              -0.000327699               0.011337526              -0.000698579              -0.001540074               0.004292495               0.002752421               0.000000000               0.000000000               0.000000000               0.000000000              -0.000689217               0.010305305              -0.000968243              -0.001546616               0.003950606               0.002403990               0.000000000               0.000000000               0.000000000               0.000000000              -0.000903697               0.009479714              -0.001050522              -0.001523847               0.003667822               0.002143975               0.000000000               0.000000000               0.000000000               0.000000000              -0.001021206               0.008785464              -0.001060681              -0.001481132               0.003422169               0.001941037               0.000000000               0.000000000               0.000000000               0.000000000              -0.001066964               0.008155133              -0.001024881              -0.001419500               0.003191517               0.001772017               0.000000000               0.000000000               0.000000000               0.000000000              -0.001040482               0.007569734              -0.000963899              -0.001336394               0.002968684               0.001632290               0.000000000               0.000000000               0.000000000               0.000000000              -0.000958888               0.007017935              -0.000894521              -0.001236822               0.002751562               0.001514740               0.000000000               0.000000000               0.000000000               0.000000000              -0.000838548               0.006496766              -0.000819390              -0.001126549               0.002541083               0.001414534               0.000000000               0.000000000               0.000000000               0.000000000              -0.000691509               0.006008520              -0.000736396              -0.001010378               0.002339613               0.001329234               0.000000000               0.000000000               0.000000000               0.000000000              -0.000533486               0.005559884              -0.000636024              -0.000895040               0.002151623               0.001256582               0.000000000               0.000000000               0.000000000               0.000000000              -0.000373501               0.005167755              -0.000509304              -0.000786030               0.001984578               0.001198547               0.000000000               0.000000000               0.000000000               0.000000000              -0.000223841               0.004848391              -0.000356376              -0.000689988               0.001846110               0.001156122               0.000000000               0.000000000               0.000000000               0.000000000              -0.000101137               0.004616266              -0.000184145              -0.000614958               0.001743726               0.001128768               0.000000000               0.000000000               0.000000000               0.000000000              -0.000057169               0.004508393              -0.000100653              -0.000584986               0.001697778               0.001112792               0.000000000               0.000000000               0.000000000               0.000000000               0.002421549               0.014603548               0.004560772              -0.000917364               0.005173588               0.004256223               0.000000000               0.000000000               0.000000000               0.000000000               0.000502390               0.012852305               0.002345263              -0.001418140               0.004756771               0.003338632               0.000000000               0.000000000               0.000000000               0.000000000              -0.000836485               0.011902418               0.000268598              -0.001801480               0.004567926               0.002766447               0.000000000               0.000000000               0.000000000               0.000000000              -0.001427194               0.010943136              -0.000426157              -0.001903085               0.004282037               0.002378952               0.000000000               0.000000000               0.000000000               0.000000000              -0.001664315               0.010079477              -0.000664091              -0.001884048               0.003987808               0.002103760               0.000000000               0.000000000               0.000000000               0.000000000              -0.001730460               0.009324018              -0.000745164              -0.001814420               0.003712782               0.001898361               0.000000000               0.000000000               0.000000000               0.000000000              -0.001699589               0.008644936              -0.000764348              -0.001717959               0.003454269               0.001736311               0.000000000               0.000000000               0.000000000               0.000000000              -0.001591769               0.008010368              -0.000743515              -0.001598206               0.003202831               0.001604625               0.000000000               0.000000000               0.000000000               0.000000000              -0.001426102               0.007417994              -0.000701053              -0.001462034               0.002959985               0.001497951               0.000000000               0.000000000               0.000000000               0.000000000              -0.001224212               0.006872100              -0.000647004              -0.001318089               0.002730040               0.001411951               0.000000000               0.000000000               0.000000000               0.000000000              -0.001003491               0.006375805              -0.000583557              -0.001173282               0.002516341               0.001343059               0.000000000               0.000000000               0.000000000               0.000000000              -0.000784271               0.005930673              -0.000508884              -0.001035433               0.002322016               0.001286582               0.000000000               0.000000000               0.000000000               0.000000000              -0.000576354               0.005540899              -0.000420314              -0.000908743               0.002149862               0.001241119               0.000000000               0.000000000               0.000000000               0.000000000              -0.000381724               0.005222108              -0.000318227              -0.000795908               0.002005988               0.001210080               0.000000000               0.000000000               0.000000000               0.000000000              -0.000215535               0.004987875              -0.000205365              -0.000704308               0.001897378               0.001193070               0.000000000               0.000000000               0.000000000               0.000000000              -0.000091073               0.004843369              -0.000095081              -0.000639572               0.001827631               0.001188059               0.000000000               0.000000000               0.000000000               0.000000000              -0.000045967               0.004787055              -0.000047525              -0.000615618               0.001800875               0.001185257               0.000000000               0.000000000               0.000000000               0.000000000               0.001793028               0.011723652               0.004142734              -0.000793073               0.004172202               0.003379128               0.000000000               0.000000000               0.000000000               0.000000000              -0.000301624               0.011114195               0.002293892              -0.001502381               0.004205488               0.002703107               0.000000000               0.000000000               0.000000000               0.000000000              -0.001883098               0.011069686               0.000558125              -0.002089867               0.004386481               0.002296613               0.000000000               0.000000000               0.000000000               0.000000000              -0.002358724               0.010430120              -0.000006922              -0.002188281               0.004206099               0.002017818               0.000000000               0.000000000               0.000000000               0.000000000              -0.002422686               0.009699515              -0.000215284              -0.002120941               0.003940120               0.001819178               0.000000000               0.000000000               0.000000000               0.000000000              -0.002319011               0.009003828              -0.000309769              -0.001995103               0.003666280               0.001671177               0.000000000               0.000000000               0.000000000               0.000000000              -0.002127870               0.008351638              -0.000356960              -0.001841901               0.003397819               0.001555917               0.000000000               0.000000000               0.000000000               0.000000000              -0.001871084               0.007732537              -0.000368012              -0.001668220               0.003133560               0.001465340               0.000000000               0.000000000               0.000000000               0.000000000              -0.001576721               0.007158120              -0.000360522              -0.001486032               0.002881360               0.001395328               0.000000000               0.000000000               0.000000000               0.000000000              -0.001276539               0.006642390              -0.000340297              -0.001308998               0.002650440               0.001341443               0.000000000               0.000000000               0.000000000               0.000000000              -0.000986571               0.006188508              -0.000305230              -0.001143525               0.002443990               0.001300466               0.000000000               0.000000000               0.000000000               0.000000000              -0.000724205               0.005796269              -0.000256672              -0.000996108               0.002264106               0.001267998               0.000000000               0.000000000               0.000000000               0.000000000              -0.000498288               0.005472547              -0.000198486              -0.000870924               0.002114472               0.001243548               0.000000000               0.000000000               0.000000000               0.000000000              -0.000307888               0.005226205              -0.000138848              -0.000768732               0.001998295               0.001229563               0.000000000               0.000000000               0.000000000               0.000000000              -0.000160921               0.005059380              -0.000082158              -0.000692766               0.001917365               0.001224599               0.000000000               0.000000000               0.000000000               0.000000000              -0.000062865               0.004965748              -0.000034191              -0.000644291               0.001869997               0.001225706               0.000000000               0.000000000               0.000000000               0.000000000              -0.000032184               0.004928387              -0.000017582              -0.000628116               0.001852151               0.001224035               0.000000000               0.000000000               0.000000000               0.000000000               0.000838611               0.009057677               0.003430126              -0.000817732               0.003291772               0.002474040               0.000000000               0.000000000               0.000000000               0.000000000              -0.001203811               0.009511639               0.002164838              -0.001640381               0.003717308               0.002076927               0.000000000               0.000000000               0.000000000               0.000000000              -0.002782881               0.010202619               0.000939847              -0.002318902               0.004173806               0.001854904               0.000000000               0.000000000               0.000000000               0.000000000              -0.003042205               0.009804490               0.000498911              -0.002366382               0.004056925               0.001690543               0.000000000               0.000000000               0.000000000               0.000000000              -0.002904646               0.009192615               0.000287969              -0.002238314               0.003810279               0.001571965               0.000000000               0.000000000               0.000000000               0.000000000              -0.002631752               0.008569694               0.000156351              -0.002058114               0.003542574               0.001484460               0.000000000               0.000000000               0.000000000               0.000000000              -0.002290753               0.007962587               0.000066428              -0.001854351               0.003272286               0.001417935               0.000000000               0.000000000               0.000000000               0.000000000              -0.001906228               0.007381005               0.000011315              -0.001637457               0.003006129               0.001368672               0.000000000               0.000000000               0.000000000               0.000000000              -0.001510426               0.006850105              -0.000027173              -0.001422669               0.002757569               0.001334899               0.000000000               0.000000000               0.000000000               0.000000000              -0.001143435               0.006378777              -0.000050881              -0.001226132               0.002534948               0.001308816               0.000000000               0.000000000               0.000000000               0.000000000              -0.000821138               0.005969304              -0.000055845              -0.001054087               0.002341111               0.001287023               0.000000000               0.000000000               0.000000000               0.000000000              -0.000548553               0.005629121              -0.000050036              -0.000909345               0.002179470               0.001270125               0.000000000               0.000000000               0.000000000               0.000000000              -0.000330802               0.005367325              -0.000037918              -0.000794964               0.002054079               0.001259114               0.000000000               0.000000000               0.000000000               0.000000000              -0.000171983               0.005182446              -0.000024787              -0.000712298               0.001964897               0.001252600               0.000000000               0.000000000               0.000000000               0.000000000              -0.000071642               0.005065088              -0.000014880              -0.000660000               0.001908346               0.001248346               0.000000000               0.000000000               0.000000000               0.000000000              -0.000021985               0.005000133              -0.000007047              -0.000633260               0.001877781               0.001244521               0.000000000               0.000000000               0.000000000               0.000000000              -0.000012683               0.004974969              -0.000005357              -0.000626626               0.001867181               0.001240556               0.000000000               0.000000000               0.000000000               0.000000000              -0.000304644               0.006795421               0.002547563              -0.000963669               0.002586340               0.001622671               0.000000000               0.000000000               0.000000000               0.000000000              -0.002087041               0.008073588               0.002014787              -0.001791835               0.003288447               0.001496611               0.000000000               0.000000000               0.000000000               0.000000000              -0.003479275               0.009340470               0.001398166              -0.002472281               0.003937552               0.001465271               0.000000000               0.000000000               0.000000000               0.000000000              -0.003496228               0.009202428               0.001037603              -0.002461383               0.003887906               0.001426523               0.000000000               0.000000000               0.000000000               0.000000000              -0.003186484               0.008740613               0.000797204              -0.002287502               0.003676009               0.001388507               0.000000000               0.000000000               0.000000000               0.000000000              -0.002780451               0.008217492               0.000618311              -0.002069850               0.003429087               0.001359236               0.000000000               0.000000000               0.000000000               0.000000000              -0.002328262               0.007680689               0.000479001              -0.001833180               0.003171264               0.001338084               0.000000000               0.000000000               0.000000000               0.000000000              -0.001845462               0.007157069               0.000372392              -0.001586678               0.002914558               0.001327881               0.000000000               0.000000000               0.000000000               0.000000000              -0.001380546               0.006673407               0.000283683              -0.001351877               0.002675073               0.001323195               0.000000000               0.000000000               0.000000000               0.000000000              -0.000971740               0.006236809               0.000212192              -0.001144001               0.002460249               0.001316248               0.000000000               0.000000000               0.000000000               0.000000000              -0.000629701               0.005854456               0.000156837              -0.000967943               0.002274114               0.001306171               0.000000000               0.000000000               0.000000000               0.000000000              -0.000358272               0.005542442               0.000109870              -0.000827155               0.002123181               0.001296025               0.000000000               0.000000000               0.000000000               0.000000000              -0.000164226               0.005306279               0.000067958              -0.000724868               0.002010365               0.001285497               0.000000000               0.000000000               0.000000000               0.000000000              -0.000046971               0.005147620               0.000035094              -0.000661065               0.001936211               0.001275146               0.000000000               0.000000000               0.000000000               0.000000000               0.000003276               0.005051894               0.000012516              -0.000630257               0.001894033               0.001263777               0.000000000               0.000000000               0.000000000               0.000000000               0.000013620               0.005004962               0.000001251              -0.000620511               0.001875141               0.001254630               0.000000000               0.000000000               0.000000000               0.000000000               0.000010337               0.004990888              -0.000002384              -0.000619983               0.001870274               0.001250291               0.000000000               0.000000000               0.000000000               0.000000000              -0.001650080               0.004687556               0.001609504              -0.001204722               0.001964077               0.000759354               0.000000000               0.000000000               0.000000000               0.000000000              -0.002825416               0.006429067               0.001848666              -0.001863160               0.002764054               0.000900894               0.000000000               0.000000000               0.000000000               0.000000000              -0.003887621               0.008120769               0.001882506              -0.002472948               0.003531212               0.001058263               0.000000000               0.000000000               0.000000000               0.000000000              -0.003760278               0.008364763               0.001612817              -0.002455694               0.003606791               0.001151097               0.000000000               0.000000000               0.000000000               0.000000000              -0.003366519               0.008163064               0.001347674              -0.002282822               0.003481935               0.001199112               0.000000000               0.000000000               0.000000000               0.000000000              -0.002913054               0.007836445               0.001121588              -0.002071946               0.003302771               0.001230825               0.000000000               0.000000000               0.000000000               0.000000000              -0.002440741               0.007461895               0.000934788              -0.001848010               0.003103277               0.001255266               0.000000000               0.000000000               0.000000000               0.000000000              -0.001949024               0.007062513               0.000778841              -0.001613694               0.002892045               0.001278351               0.000000000               0.000000000               0.000000000               0.000000000              -0.001466788               0.006665646               0.000639203              -0.001383248               0.002682942               0.001299694               0.000000000               0.000000000               0.000000000               0.000000000              -0.001034951               0.006289381               0.000516249              -0.001174277               0.002487865               0.001313588               0.000000000               0.000000000               0.000000000               0.000000000              -0.000668677               0.005945399               0.000405561              -0.000993926               0.002313089               0.001319162               0.000000000               0.000000000               0.000000000               0.000000000              -0.000375750               0.005641401               0.000301507              -0.000846079               0.002162474               0.001316395               0.000000000               0.000000000               0.000000000               0.000000000              -0.000157538               0.005395003               0.000203531              -0.000733450               0.002042800               0.001309350               0.000000000               0.000000000               0.000000000               0.000000000              -0.000017709               0.005216780               0.000115828              -0.000658737               0.001958488               0.001299751               0.000000000               0.000000000               0.000000000               0.000000000               0.000047405               0.005098314               0.000051077              -0.000619511               0.001905925               0.001286414               0.000000000               0.000000000               0.000000000               0.000000000               0.000061258               0.005030587               0.000015286              -0.000605850               0.001878796               0.001272945               0.000000000               0.000000000               0.000000000               0.000000000               0.000055138               0.005004619               0.000003065              -0.000604899               0.001869823               0.001264924               0.000000000               0.000000000               0.000000000               0.000000000              -0.003382274               0.002785452               0.000683234              -0.001616531               0.001467317              -0.000149214               0.000000000               0.000000000               0.000000000               0.000000000              -0.003660386               0.004789545               0.001609859              -0.001971333               0.002253610               0.000282276               0.000000000               0.000000000               0.000000000               0.000000000              -0.004204111               0.006712340               0.002267964              -0.002415579               0.003042616               0.000627038               0.000000000               0.000000000               0.000000000               0.000000000              -0.003942258               0.007322945               0.002164585              -0.002393709               0.003238860               0.000845151               0.000000000               0.000000000               0.000000000               0.000000000              -0.003487748               0.007428233               0.001912965              -0.002236429               0.003221529               0.000985100               0.000000000               0.000000000               0.000000000               0.000000000              -0.003009727               0.007334092               0.001658878              -0.002045405               0.003126474               0.001081070               0.000000000               0.000000000               0.000000000               0.000000000              -0.002538741               0.007146426               0.001434716              -0.001845327               0.002997227               0.001151900               0.000000000               0.000000000               0.000000000               0.000000000              -0.002067209               0.006896366               0.001236930              -0.001637245               0.002844514               0.001207269               0.000000000               0.000000000               0.000000000               0.000000000              -0.001589904               0.006613188               0.001054761              -0.001422859               0.002678660               0.001255801               0.000000000               0.000000000               0.000000000               0.000000000              -0.001139067               0.006317700               0.000886453              -0.001216860               0.002511499               0.001294639               0.000000000               0.000000000               0.000000000               0.000000000              -0.000740194               0.006029747               0.000728595              -0.001031289               0.002353659               0.001322370               0.000000000               0.000000000               0.000000000               0.000000000              -0.000402178               0.005754815               0.000577762              -0.000870167               0.002208308               0.001338141               0.000000000               0.000000000               0.000000000               0.000000000              -0.000131911               0.005509834               0.000429686              -0.000738194               0.002082657               0.001344463               0.000000000               0.000000000               0.000000000               0.000000000               0.000061293               0.005312164               0.000282670              -0.000641034               0.001984382               0.001343348               0.000000000               0.000000000               0.000000000               0.000000000               0.000168886               0.005164838               0.000156138              -0.000582271               0.001915686               0.001333415               0.000000000               0.000000000               0.000000000               0.000000000               0.000196442               0.005064644               0.000063877              -0.000559413               0.001874669               0.001315256               0.000000000               0.000000000               0.000000000               0.000000000               0.000183614               0.005021401               0.000024275              -0.000558818               0.001860056               0.001301238               0.000000000               0.000000000               0.000000000               0.000000000              -0.005385153               0.001237470              -0.000145576              -0.002174113               0.001137187              -0.001036926               0.000000000               0.000000000               0.000000000               0.000000000              -0.004646299               0.003244260               0.001282401              -0.002147890               0.001797371              -0.000350520               0.000000000               0.000000000               0.000000000               0.000000000              -0.004460122               0.005120178               0.002436504              -0.002312563               0.002477562               0.000164999               0.000000000               0.000000000               0.000000000               0.000000000              -0.003987534               0.005994061               0.002538996              -0.002244578               0.002746192               0.000501614               0.000000000               0.000000000               0.000000000               0.000000000              -0.003461181               0.006382907               0.002353900              -0.002095802               0.002826214               0.000730412               0.000000000               0.000000000               0.000000000               0.000000000              -0.002959786               0.006529512               0.002109007              -0.001926105               0.002818517               0.000892412               0.000000000               0.000000000               0.000000000               0.000000000              -0.002490322               0.006542061               0.001872976              -0.001751625               0.002764540               0.001012915               0.000000000               0.000000000               0.000000000               0.000000000              -0.002039335               0.006466541               0.001657733              -0.001573065               0.002679847               0.001106782               0.000000000               0.000000000               0.000000000               0.000000000              -0.001585869               0.006327372               0.001455140              -0.001385619               0.002570976               0.001185356               0.000000000               0.000000000               0.000000000               0.000000000              -0.001138108               0.006147469               0.001260495              -0.001195222               0.002447543               0.001252321               0.000000000               0.000000000               0.000000000               0.000000000              -0.000718774               0.005949719               0.001075112              -0.001013253               0.002320971               0.001307718               0.000000000               0.000000000               0.000000000               0.000000000              -0.000338806               0.005745778               0.000895497              -0.000845273               0.002196998               0.001351725               0.000000000               0.000000000               0.000000000               0.000000000              -0.000015312               0.005545709               0.000709083              -0.000698954               0.002081536               0.001382582               0.000000000               0.000000000               0.000000000               0.000000000               0.000236166               0.005360259               0.000512876              -0.000581469               0.001980558               0.001399089               0.000000000               0.000000000               0.000000000               0.000000000               0.000402150               0.005206718               0.000320399              -0.000500032               0.001902233               0.001402200               0.000000000               0.000000000               0.000000000               0.000000000               0.000467740               0.005092338               0.000149513              -0.000461139               0.001851142               0.001390003               0.000000000               0.000000000               0.000000000               0.000000000               0.000460295               0.005036659               0.000067564              -0.000456970               0.001831193               0.001374222               0.000000000               0.000000000               0.000000000               0.000000000              -0.007511314               0.000113009              -0.000756915              -0.002830867               0.000981285              -0.001849581               0.000000000               0.000000000               0.000000000               0.000000000              -0.005719797               0.001875678               0.000917109              -0.002379380               0.001418343              -0.000961037               0.000000000               0.000000000               0.000000000               0.000000000              -0.004683221               0.003484393               0.002358261              -0.002191753               0.001892035              -0.000299718               0.000000000               0.000000000               0.000000000               0.000000000              -0.003919728               0.004488055               0.002640980              -0.002030901               0.002172969               0.000142068               0.000000000               0.000000000               0.000000000               0.000000000              -0.003291573               0.005094577               0.002549137              -0.001871159               0.002321894               0.000450735               0.000000000               0.000000000               0.000000000               0.000000000              -0.002761227               0.005454948               0.002350205              -0.001717325               0.002390739               0.000673413               0.000000000               0.000000000               0.000000000               0.000000000              -0.002287729               0.005665806               0.002137200              -0.001566121               0.002410623               0.000844502               0.000000000               0.000000000               0.000000000               0.000000000              -0.001847304               0.005776384               0.001934489              -0.001414784               0.002397036               0.000982252               0.000000000               0.000000000               0.000000000               0.000000000              -0.001419040               0.005807456               0.001737588              -0.001258070               0.002355155               0.001097086               0.000000000               0.000000000               0.000000000               0.000000000              -0.000992166               0.005773666               0.001542642              -0.001093769               0.002289125               0.001195357               0.000000000               0.000000000               0.000000000               0.000000000              -0.000569125               0.005695650               0.001355977              -0.000925376               0.002206990               0.001281613               0.000000000               0.000000000               0.000000000               0.000000000              -0.000163102               0.005593027               0.001170419              -0.000760290               0.002117753               0.001357463               0.000000000               0.000000000               0.000000000               0.000000000               0.000208084               0.005472174               0.000968333              -0.000605989               0.002026036               0.001420047               0.000000000               0.000000000               0.000000000               0.000000000               0.000528151               0.005336979               0.000746496              -0.000469065               0.001935330               0.001466265               0.000000000               0.000000000               0.000000000               0.000000000               0.000777175               0.005203409               0.000507376              -0.000358985               0.001854114               0.001495129               0.000000000               0.000000000               0.000000000               0.000000000               0.000927427               0.005093227               0.000257005              -0.000288868               0.001794015               0.001505147               0.000000000               0.000000000               0.000000000               0.000000000               0.000968056               0.005041397               0.000129344              -0.000267153               0.001769500               0.001502347               0.000000000               0.000000000               0.000000000               0.000000000              -0.009558518              -0.000602878              -0.001045950              -0.003509082               0.000968728              -0.002540354               0.000000000               0.000000000               0.000000000               0.000000000              -0.006786210               0.000769639               0.000575766              -0.002641031               0.001136882              -0.001504149               0.000000000               0.000000000               0.000000000               0.000000000              -0.004887939               0.001967226               0.002031879              -0.002078878               0.001348691              -0.000730186               0.000000000               0.000000000               0.000000000               0.000000000              -0.003790034               0.002971554               0.002414787              -0.001792704               0.001588074              -0.000204630               0.000000000               0.000000000               0.000000000               0.000000000              -0.003031675               0.003715320               0.002408743              -0.001601290               0.001772190               0.000170899               0.000000000               0.000000000               0.000000000               0.000000000              -0.002448891               0.004248188               0.002273825              -0.001449355               0.001899166               0.000449811               0.000000000               0.000000000               0.000000000               0.000000000              -0.001965230               0.004634911               0.002109926              -0.001316323               0.001983728               0.000667405               0.000000000               0.000000000               0.000000000               0.000000000              -0.001532155               0.004915944               0.001944948              -0.001189049               0.002034981               0.000845931               0.000000000               0.000000000               0.000000000               0.000000000              -0.001122403               0.005106125               0.001780259              -0.001059165               0.002055079               0.000995914               0.000000000               0.000000000               0.000000000               0.000000000              -0.000713088               0.005222500               0.001614344              -0.000920219               0.002047555               0.001127336               0.000000000               0.000000000               0.000000000               0.000000000              -0.000297380               0.005283790               0.001451497              -0.000771990               0.002018575               0.001246585               0.000000000               0.000000000               0.000000000               0.000000000               0.000118684               0.005301907               0.001282606              -0.000618231               0.001973361               0.001355130               0.000000000               0.000000000               0.000000000               0.000000000               0.000531957               0.005287369               0.001096475              -0.000461437               0.001916251               0.001454814               0.000000000               0.000000000               0.000000000               0.000000000               0.000931527               0.005241065               0.000885591              -0.000305810               0.001848941               0.001543131               0.000000000               0.000000000               0.000000000               0.000000000               0.001295417               0.005166213               0.000637795              -0.000159995               0.001775385               0.001615390               0.000000000               0.000000000               0.000000000               0.000000000               0.001596322               0.005082071               0.000343587              -0.000036639               0.001706220               0.001669581               0.000000000               0.000000000               0.000000000               0.000000000               0.001756794               0.005050322               0.000190024               0.000027507               0.001674255               0.001701762               0.000000000               0.000000000               0.000000000               0.000000000              -0.011281914              -0.000989806              -0.000970824              -0.004106989               0.001039054              -0.003067935               0.000000000               0.000000000               0.000000000               0.000000000              -0.007712755              -0.000028217               0.000307299              -0.002888754               0.000953506              -0.001935248               0.000000000               0.000000000               0.000000000               0.000000000              -0.005068194               0.000735362               0.001488282              -0.001992491               0.000909278              -0.001083214               0.000000000               0.000000000               0.000000000               0.000000000              -0.003649686               0.001662092               0.001851184              -0.001576392               0.001079486              -0.000496905               0.000000000               0.000000000               0.000000000               0.000000000              -0.002758108               0.002469299               0.001896449              -0.001342951               0.001270740              -0.000072211               0.000000000               0.000000000               0.000000000               0.000000000              -0.002114053               0.003118853               0.001823655              -0.001182624               0.001433815               0.000251190               0.000000000               0.000000000               0.000000000               0.000000000              -0.001609173               0.003635546               0.001715898              -0.001057882               0.001564463               0.000506582               0.000000000               0.000000000               0.000000000               0.000000000              -0.001179008               0.004045651               0.001602919              -0.000947833               0.001664481               0.000716648               0.000000000               0.000000000               0.000000000               0.000000000              -0.000777258               0.004364099               0.001490199              -0.000836983               0.001733679               0.000896696               0.000000000               0.000000000               0.000000000               0.000000000              -0.000378435               0.004608543               0.001372771              -0.000717980               0.001775492               0.001057512               0.000000000               0.000000000               0.000000000               0.000000000               0.000028559               0.004796985               0.001250726              -0.000588913               0.001795283               0.001206370               0.000000000               0.000000000               0.000000000               0.000000000               0.000453294               0.004935732               0.001123948              -0.000446981               0.001794221               0.001347240               0.000000000               0.000000000               0.000000000               0.000000000               0.000905809               0.005037032               0.000983657              -0.000289950               0.001775644               0.001485694               0.000000000               0.000000000               0.000000000               0.000000000               0.001382873               0.005095462               0.000817585              -0.000118356               0.001737922               0.001619566               0.000000000               0.000000000               0.000000000               0.000000000               0.001880312               0.005102949               0.000610689               0.000067247               0.001678550               0.001745797               0.000000000               0.000000000               0.000000000               0.000000000               0.002390182               0.005066591               0.000341605               0.000262992               0.001601183               0.001864175               0.000000000               0.000000000               0.000000000               0.000000000               0.002742703               0.005072759               0.000201285               0.000394415               0.001559431               0.001953846               0.000000000               0.000000000               0.000000000               0.000000000              -0.012432866              -0.001154367              -0.000578877              -0.004518026               0.001121212              -0.003396814               0.000000000               0.000000000               0.000000000               0.000000000              -0.008349150              -0.000500976               0.000124727              -0.003068307               0.000855771              -0.002212536               0.000000000               0.000000000               0.000000000               0.000000000              -0.005197642              -0.000067157               0.000786501              -0.001940720               0.000624516              -0.001316203               0.000000000               0.000000000               0.000000000               0.000000000              -0.003541568               0.000768968               0.001006771              -0.001424207               0.000731053              -0.000693154               0.000000000               0.000000000               0.000000000               0.000000000              -0.002544344               0.001595946               0.001049595              -0.001153620               0.000916515              -0.000237105               0.000000000               0.000000000               0.000000000               0.000000000              -0.001858097               0.002307225               0.001021324              -0.000985187               0.001097463               0.000112275               0.000000000               0.000000000               0.000000000               0.000000000              -0.001329572               0.002896291               0.000968125              -0.000860624               0.001252295               0.000391671               0.000000000               0.000000000               0.000000000               0.000000000              -0.000887793               0.003382162               0.000912808              -0.000755691               0.001379273               0.000623582               0.000000000               0.000000000               0.000000000               0.000000000              -0.000489460               0.003783227               0.000857451              -0.000656450               0.001479879               0.000823430               0.000000000               0.000000000               0.000000000               0.000000000              -0.000102749               0.004112860               0.000795360              -0.000552637               0.001555152               0.001002515               0.000000000               0.000000000               0.000000000               0.000000000               0.000300102               0.004387865               0.000730201              -0.000435944               0.001607922               0.001171978               0.000000000               0.000000000               0.000000000               0.000000000               0.000736013               0.004617189               0.000663129              -0.000301144               0.001639429               0.001338285               0.000000000               0.000000000               0.000000000               0.000000000               0.001218483               0.004806703               0.000586179              -0.000143907               0.001650187               0.001506280               0.000000000               0.000000000               0.000000000               0.000000000               0.001757904               0.004944761               0.000493638               0.000041118               0.001634531               0.001675649               0.000000000               0.000000000               0.000000000               0.000000000               0.002368459               0.005024468               0.000375781               0.000260111               0.001588102               0.001848213               0.000000000               0.000000000               0.000000000               0.000000000               0.003066989               0.005038977               0.000213238               0.000520244               0.001506228               0.002026471               0.000000000               0.000000000               0.000000000               0.000000000               0.003603263               0.005084515               0.000129053               0.000715652               0.001456271               0.002171923               0.000000000               0.000000000               0.000000000               0.000000000               0.000000000               0.000000000               0.000000000               0.000000000               0.000000000               0.000000000               0.000000000               0.000000000               0.000000000               0.000000000               0.000000000               0.000000000               0.000000000               0.000000000               0.000000000               0.000000000               0.000000000               0.000000000               0.000000000               0.000000000               0.000000000               0.000000000               0.000000000               0.000000000               0.000000000               0.000000000               0.000000000               0.000000000               0.000000000               0.000000000               0.000000000               0.000000000               0.000000000               0.000000000               0.000000000               0.000000000               0.000000000               0.000000000               0.000000000               0.000000000               0.000000000               0.000000000               0.000000000               0.000000000               0.000000000               0.000000000               0.000000000               0.000000000               0.000000000               0.000000000               0.000000000               0.000000000               0.000000000               0.000000000               0.000000000               0.000000000               0.000000000               0.000000000               0.000000000               0.000000000               0.000000000               0.000000000               0.000000000               0.000000000               0.000000000               0.000000000               0.000000000               0.000000000               0.000000000               0.000000000               0.000000000               0.000000000               0.000000000               0.000000000               0.000000000               0.000000000               0.000000000               0.000000000               0.000000000               0.000000000               0.000000000               0.000000000               0.000000000               0.000000000               0.000000000               0.000000000               0.000000000               0.000000000               0.000000000               0.000000000               0.000000000               0.000000000               0.000000000               0.000000000               0.000000000               0.000000000               0.000000000               0.000000000               0.000000000               0.000000000               0.000000000               0.000000000               0.000000000               0.000000000               0.000000000               0.000000000               0.000000000               0.000000000               0.000000000               0.000000000               0.000000000               0.000000000               0.000000000               0.000000000               0.000000000               0.000000000               0.000000000               0.000000000               0.000000000               0.000000000               0.000000000               0.000000000               0.000000000               0.000000000               0.000000000               0.000000000               0.000000000               0.000000000               0.000000000               0.000000000               0.000000000               0.000000000               0.000000000               0.000000000               0.000000000               0.000000000               0.000000000               0.000000000               0.000000000               0.000000000               0.000000000               0.000000000               0.000000000               0.000000000               0.000000000               0.000000000               0.000000000               0.000000000               0.000000000               0.000000000               0.000000000               0.000000000               0.000000000               0.000000000               0.000000000               0.000000000               0.000000000               0.000000000               0.000000000               0.000000000               0.000000000               0.000000000               0.000000000               0.000000000               0.000000000               0.000000000               0.000000000               0.000000000               0.000000000               0.000000000 </DataArray>
</PointData>
</Piece>
</UnstructuredGrid> </VTKFile>
