<?xml version="1.0"?>
<VTKFile type="UnstructuredGrid" version="0.1">
<UnstructuredGrid>
<Piece NumberOfPoints="      1156" NumberOfCells="      1024">
<Points>
<DataArray type="Float64"                                    Name="coordinates"                                                      NumberOfComponents=" 3" format="ascii">
              0.133000000               0.000000000               0.000000000               0.155937500               0.000000000               0.000000000               0.178875000               0.000000000               0.000000000               0.201812500               0.000000000               0.000000000               0.224750000               0.000000000               0.000000000               0.247687500               0.000000000               0.000000000               0.270625000               0.000000000               0.000000000               0.293562500               0.000000000               0.000000000               0.316500000               0.000000000               0.000000000               0.339437500               0.000000000               0.000000000               0.362375000               0.000000000               0.000000000               0.385312500               0.000000000               0.000000000               0.408250000               0.000000000               0.000000000               0.431187500               0.000000000               0.000000000               0.454125000               0.000000000               0.000000000               0.477062500               0.000000000               0.000000000               0.500000000               0.000000000               0.000000000               0.132359569               0.013036280               0.000000000               0.155337096               0.016127762               0.000000000               0.178314623               0.019219245               0.000000000               0.201292150               0.022310727               0.000000000               0.224269676               0.025402210               0.000000000               0.247247203               0.028493692               0.000000000               0.270224730               0.031585175               0.000000000               0.293202257               0.034676657               0.000000000               0.316179784               0.037768140               0.000000000               0.339157311               0.040859622               0.000000000               0.362134838               0.043951105               0.000000000               0.385112365               0.047042587               0.000000000               0.408089892               0.050134070               0.000000000               0.431067419               0.053225552               0.000000000               0.454044946               0.056317035               0.000000000               0.477022473               0.059408517               0.000000000               0.500000000               0.062500000               0.000000000               0.130444442               0.025947013               0.000000000               0.153541665               0.032137825               0.000000000               0.176638887               0.038328636               0.000000000               0.199736109               0.044519448               0.000000000               0.222833332               0.050710260               0.000000000               0.245930554               0.056901071               0.000000000               0.269027776               0.063091883               0.000000000               0.292124999               0.069282695               0.000000000               0.315222221               0.075473506               0.000000000               0.338319444               0.081664318               0.000000000               0.361416666               0.087855130               0.000000000               0.384513888               0.094045942               0.000000000               0.407611111               0.100236753               0.000000000               0.430708333               0.106427565               0.000000000               0.453805555               0.112618377               0.000000000               0.476902778               0.118809188               0.000000000               0.500000000               0.125000000               0.000000000               0.127273065               0.038607862               0.000000000               0.150568498               0.047913621               0.000000000               0.173863932               0.057219379               0.000000000               0.197159365               0.066525138               0.000000000               0.220454798               0.075830897               0.000000000               0.243750232               0.085136655               0.000000000               0.267045665               0.094442414               0.000000000               0.290341099               0.103748172               0.000000000               0.313636532               0.113053931               0.000000000               0.336931966               0.122359690               0.000000000               0.360227399               0.131665448               0.000000000               0.383522833               0.140971207               0.000000000               0.406818266               0.150276966               0.000000000               0.430113700               0.159582724               0.000000000               0.453409133               0.168888483               0.000000000               0.476704567               0.178194241               0.000000000               0.500000000               0.187500000               0.000000000               0.122875978               0.050896897               0.000000000               0.146446229               0.063340840               0.000000000               0.170016481               0.075784784               0.000000000               0.193586732               0.088228728               0.000000000               0.217156983               0.100672672               0.000000000               0.240727235               0.113116616               0.000000000               0.264297486               0.125560560               0.000000000               0.287867738               0.138004504               0.000000000               0.311437989               0.150448448               0.000000000               0.335008240               0.162892392               0.000000000               0.358578492               0.175336336               0.000000000               0.382148743               0.187780280               0.000000000               0.405718994               0.200224224               0.000000000               0.429289246               0.212668168               0.000000000               0.452859497               0.225112112               0.000000000               0.476429749               0.237556056               0.000000000               0.500000000               0.250000000               0.000000000               0.117295528               0.062695766               0.000000000               0.141214558               0.078308531               0.000000000               0.165133587               0.093921295               0.000000000               0.189052617               0.109534060               0.000000000               0.212971646               0.125146824               0.000000000               0.236890676               0.140759589               0.000000000               0.260809705               0.156372354               0.000000000               0.284728735               0.171985118               0.000000000               0.308647764               0.187597883               0.000000000               0.332566794               0.203210648               0.000000000               0.356485823               0.218823412               0.000000000               0.380404853               0.234436177               0.000000000               0.404323882               0.250048941               0.000000000               0.428242912               0.265661706               0.000000000               0.452161941               0.281274471               0.000000000               0.476080971               0.296887235               0.000000000               0.500000000               0.312500000               0.000000000               0.110585458               0.073890841               0.000000000               0.134923867               0.092710163               0.000000000               0.159262276               0.111529486               0.000000000               0.183600685               0.130348808               0.000000000               0.207939094               0.149168131               0.000000000               0.232277503               0.167987453               0.000000000               0.256615912               0.186806776               0.000000000               0.280954320               0.205626098               0.000000000               0.305292729               0.224445420               0.000000000               0.329631138               0.243264743               0.000000000               0.353969547               0.262084065               0.000000000               0.378307956               0.280903388               0.000000000               0.402646365               0.299722710               0.000000000               0.426984773               0.318542033               0.000000000               0.451323182               0.337361355               0.000000000               0.475661591               0.356180678               0.000000000               0.500000000               0.375000000               0.000000000               0.102810390               0.084374307               0.000000000               0.127634741               0.106444663               0.000000000               0.152459092               0.128515018               0.000000000               0.177283442               0.150585374               0.000000000               0.202107793               0.172655730               0.000000000               0.226932143               0.194726086               0.000000000               0.251756494               0.216796442               0.000000000               0.276580845               0.238866798               0.000000000               0.301405195               0.260937153               0.000000000               0.326229546               0.283007509               0.000000000               0.351053896               0.305077865               0.000000000               0.375878247               0.327148221               0.000000000               0.400702598               0.349218577               0.000000000               0.425526948               0.371288933               0.000000000               0.450351299               0.393359288               0.000000000               0.475175649               0.415429644               0.000000000               0.500000000               0.437500000               0.000000000               0.094045202               0.094045202               0.000000000               0.119417377               0.119417377               0.000000000               0.144789552               0.144789552               0.000000000               0.170161727               0.170161727               0.000000000               0.195533901               0.195533901               0.000000000               0.220906076               0.220906076               0.000000000               0.246278251               0.246278251               0.000000000               0.271650426               0.271650426               0.000000000               0.297022601               0.297022601               0.000000000               0.322394776               0.322394776               0.000000000               0.347766951               0.347766951               0.000000000               0.373139126               0.373139126               0.000000000               0.398511300               0.398511300               0.000000000               0.423883475               0.423883475               0.000000000               0.449255650               0.449255650               0.000000000               0.474627825               0.474627825               0.000000000               0.500000000               0.500000000               0.000000000               0.084374307               0.102810390               0.000000000               0.106444663               0.127634741               0.000000000               0.128515018               0.152459092               0.000000000               0.150585374               0.177283442               0.000000000               0.172655730               0.202107793               0.000000000               0.194726086               0.226932143               0.000000000               0.216796442               0.251756494               0.000000000               0.238866798               0.276580845               0.000000000               0.260937153               0.301405195               0.000000000               0.283007509               0.326229546               0.000000000               0.305077865               0.351053896               0.000000000               0.327148221               0.375878247               0.000000000               0.349218577               0.400702598               0.000000000               0.371288933               0.425526948               0.000000000               0.393359288               0.450351299               0.000000000               0.415429644               0.475175649               0.000000000               0.437500000               0.500000000               0.000000000               0.073890841               0.110585458               0.000000000               0.092710163               0.134923867               0.000000000               0.111529486               0.159262276               0.000000000               0.130348808               0.183600685               0.000000000               0.149168131               0.207939094               0.000000000               0.167987453               0.232277503               0.000000000               0.186806776               0.256615912               0.000000000               0.205626098               0.280954320               0.000000000               0.224445420               0.305292729               0.000000000               0.243264743               0.329631138               0.000000000               0.262084065               0.353969547               0.000000000               0.280903388               0.378307956               0.000000000               0.299722710               0.402646365               0.000000000               0.318542033               0.426984773               0.000000000               0.337361355               0.451323182               0.000000000               0.356180678               0.475661591               0.000000000               0.375000000               0.500000000               0.000000000               0.062695766               0.117295528               0.000000000               0.078308531               0.141214558               0.000000000               0.093921295               0.165133587               0.000000000               0.109534060               0.189052617               0.000000000               0.125146824               0.212971646               0.000000000               0.140759589               0.236890676               0.000000000               0.156372354               0.260809705               0.000000000               0.171985118               0.284728735               0.000000000               0.187597883               0.308647764               0.000000000               0.203210648               0.332566794               0.000000000               0.218823412               0.356485823               0.000000000               0.234436177               0.380404853               0.000000000               0.250048941               0.404323882               0.000000000               0.265661706               0.428242912               0.000000000               0.281274471               0.452161941               0.000000000               0.296887235               0.476080971               0.000000000               0.312500000               0.500000000               0.000000000               0.050896897               0.122875978               0.000000000               0.063340840               0.146446229               0.000000000               0.075784784               0.170016481               0.000000000               0.088228728               0.193586732               0.000000000               0.100672672               0.217156983               0.000000000               0.113116616               0.240727235               0.000000000               0.125560560               0.264297486               0.000000000               0.138004504               0.287867738               0.000000000               0.150448448               0.311437989               0.000000000               0.162892392               0.335008240               0.000000000               0.175336336               0.358578492               0.000000000               0.187780280               0.382148743               0.000000000               0.200224224               0.405718994               0.000000000               0.212668168               0.429289246               0.000000000               0.225112112               0.452859497               0.000000000               0.237556056               0.476429749               0.000000000               0.250000000               0.500000000               0.000000000               0.038607862               0.127273065               0.000000000               0.047913621               0.150568498               0.000000000               0.057219379               0.173863932               0.000000000               0.066525138               0.197159365               0.000000000               0.075830897               0.220454798               0.000000000               0.085136655               0.243750232               0.000000000               0.094442414               0.267045665               0.000000000               0.103748172               0.290341099               0.000000000               0.113053931               0.313636532               0.000000000               0.122359690               0.336931966               0.000000000               0.131665448               0.360227399               0.000000000               0.140971207               0.383522833               0.000000000               0.150276966               0.406818266               0.000000000               0.159582724               0.430113700               0.000000000               0.168888483               0.453409133               0.000000000               0.178194241               0.476704567               0.000000000               0.187500000               0.500000000               0.000000000               0.025947013               0.130444442               0.000000000               0.032137825               0.153541665               0.000000000               0.038328636               0.176638887               0.000000000               0.044519448               0.199736109               0.000000000               0.050710260               0.222833332               0.000000000               0.056901071               0.245930554               0.000000000               0.063091883               0.269027776               0.000000000               0.069282695               0.292124999               0.000000000               0.075473506               0.315222221               0.000000000               0.081664318               0.338319444               0.000000000               0.087855130               0.361416666               0.000000000               0.094045942               0.384513888               0.000000000               0.100236753               0.407611111               0.000000000               0.106427565               0.430708333               0.000000000               0.112618377               0.453805555               0.000000000               0.118809188               0.476902778               0.000000000               0.125000000               0.500000000               0.000000000               0.013036280               0.132359569               0.000000000               0.016127762               0.155337096               0.000000000               0.019219245               0.178314623               0.000000000               0.022310727               0.201292150               0.000000000               0.025402210               0.224269676               0.000000000               0.028493692               0.247247203               0.000000000               0.031585175               0.270224730               0.000000000               0.034676657               0.293202257               0.000000000               0.037768140               0.316179784               0.000000000               0.040859622               0.339157311               0.000000000               0.043951105               0.362134838               0.000000000               0.047042587               0.385112365               0.000000000               0.050134070               0.408089892               0.000000000               0.053225552               0.431067419               0.000000000               0.056317035               0.454044946               0.000000000               0.059408517               0.477022473               0.000000000               0.062500000               0.500000000               0.000000000               0.000000000               0.133000000               0.000000000               0.000000000               0.155937500               0.000000000               0.000000000               0.178875000               0.000000000               0.000000000               0.201812500               0.000000000               0.000000000               0.224750000               0.000000000               0.000000000               0.247687500               0.000000000               0.000000000               0.270625000               0.000000000               0.000000000               0.293562500               0.000000000               0.000000000               0.316500000               0.000000000               0.000000000               0.339437500               0.000000000               0.000000000               0.362375000               0.000000000               0.000000000               0.385312500               0.000000000               0.000000000               0.408250000               0.000000000               0.000000000               0.431187500               0.000000000               0.000000000               0.454125000               0.000000000               0.000000000               0.477062500               0.000000000               0.000000000               0.500000000               0.000000000               0.133000000               0.000000000               0.000000000               0.155937500               0.000000000               0.000000000               0.178875000               0.000000000               0.000000000               0.201812500               0.000000000               0.000000000               0.224750000               0.000000000               0.000000000               0.247687500               0.000000000               0.000000000               0.270625000               0.000000000               0.000000000               0.293562500               0.000000000               0.000000000               0.316500000               0.000000000               0.000000000               0.339437500               0.000000000               0.000000000               0.362375000               0.000000000               0.000000000               0.385312500               0.000000000               0.000000000               0.408250000               0.000000000               0.000000000               0.431187500               0.000000000               0.000000000               0.454125000               0.000000000               0.000000000               0.477062500               0.000000000               0.000000000               0.500000000               0.000000000               0.000000000               0.132359569              -0.013036280               0.000000000               0.155337096              -0.016127762               0.000000000               0.178314623              -0.019219245               0.000000000               0.201292150              -0.022310727               0.000000000               0.224269676              -0.025402210               0.000000000               0.247247203              -0.028493692               0.000000000               0.270224730              -0.031585175               0.000000000               0.293202257              -0.034676657               0.000000000               0.316179784              -0.037768140               0.000000000               0.339157311              -0.040859622               0.000000000               0.362134838              -0.043951105               0.000000000               0.385112365              -0.047042587               0.000000000               0.408089892              -0.050134070               0.000000000               0.431067419              -0.053225552               0.000000000               0.454044946              -0.056317035               0.000000000               0.477022473              -0.059408517               0.000000000               0.500000000              -0.062500000               0.000000000               0.130444442              -0.025947013               0.000000000               0.153541665              -0.032137825               0.000000000               0.176638887              -0.038328636               0.000000000               0.199736109              -0.044519448               0.000000000               0.222833332              -0.050710260               0.000000000               0.245930554              -0.056901071               0.000000000               0.269027776              -0.063091883               0.000000000               0.292124999              -0.069282695               0.000000000               0.315222221              -0.075473506               0.000000000               0.338319444              -0.081664318               0.000000000               0.361416666              -0.087855130               0.000000000               0.384513888              -0.094045942               0.000000000               0.407611111              -0.100236753               0.000000000               0.430708333              -0.106427565               0.000000000               0.453805555              -0.112618377               0.000000000               0.476902778              -0.118809188               0.000000000               0.500000000              -0.125000000               0.000000000               0.127273065              -0.038607862               0.000000000               0.150568498              -0.047913621               0.000000000               0.173863932              -0.057219379               0.000000000               0.197159365              -0.066525138               0.000000000               0.220454798              -0.075830897               0.000000000               0.243750232              -0.085136655               0.000000000               0.267045665              -0.094442414               0.000000000               0.290341099              -0.103748172               0.000000000               0.313636532              -0.113053931               0.000000000               0.336931966              -0.122359690               0.000000000               0.360227399              -0.131665448               0.000000000               0.383522833              -0.140971207               0.000000000               0.406818266              -0.150276966               0.000000000               0.430113700              -0.159582724               0.000000000               0.453409133              -0.168888483               0.000000000               0.476704567              -0.178194241               0.000000000               0.500000000              -0.187500000               0.000000000               0.122875978              -0.050896897               0.000000000               0.146446229              -0.063340840               0.000000000               0.170016481              -0.075784784               0.000000000               0.193586732              -0.088228728               0.000000000               0.217156983              -0.100672672               0.000000000               0.240727235              -0.113116616               0.000000000               0.264297486              -0.125560560               0.000000000               0.287867738              -0.138004504               0.000000000               0.311437989              -0.150448448               0.000000000               0.335008240              -0.162892392               0.000000000               0.358578492              -0.175336336               0.000000000               0.382148743              -0.187780280               0.000000000               0.405718994              -0.200224224               0.000000000               0.429289246              -0.212668168               0.000000000               0.452859497              -0.225112112               0.000000000               0.476429749              -0.237556056               0.000000000               0.500000000              -0.250000000               0.000000000               0.117295528              -0.062695766               0.000000000               0.141214558              -0.078308531               0.000000000               0.165133587              -0.093921295               0.000000000               0.189052617              -0.109534060               0.000000000               0.212971646              -0.125146824               0.000000000               0.236890676              -0.140759589               0.000000000               0.260809705              -0.156372354               0.000000000               0.284728735              -0.171985118               0.000000000               0.308647764              -0.187597883               0.000000000               0.332566794              -0.203210648               0.000000000               0.356485823              -0.218823412               0.000000000               0.380404853              -0.234436177               0.000000000               0.404323882              -0.250048941               0.000000000               0.428242912              -0.265661706               0.000000000               0.452161941              -0.281274471               0.000000000               0.476080971              -0.296887235               0.000000000               0.500000000              -0.312500000               0.000000000               0.110585458              -0.073890841               0.000000000               0.134923867              -0.092710163               0.000000000               0.159262276              -0.111529486               0.000000000               0.183600685              -0.130348808               0.000000000               0.207939094              -0.149168131               0.000000000               0.232277503              -0.167987453               0.000000000               0.256615912              -0.186806776               0.000000000               0.280954320              -0.205626098               0.000000000               0.305292729              -0.224445420               0.000000000               0.329631138              -0.243264743               0.000000000               0.353969547              -0.262084065               0.000000000               0.378307956              -0.280903388               0.000000000               0.402646365              -0.299722710               0.000000000               0.426984773              -0.318542033               0.000000000               0.451323182              -0.337361355               0.000000000               0.475661591              -0.356180678               0.000000000               0.500000000              -0.375000000               0.000000000               0.102810390              -0.084374307               0.000000000               0.127634741              -0.106444663               0.000000000               0.152459092              -0.128515018               0.000000000               0.177283442              -0.150585374               0.000000000               0.202107793              -0.172655730               0.000000000               0.226932143              -0.194726086               0.000000000               0.251756494              -0.216796442               0.000000000               0.276580845              -0.238866798               0.000000000               0.301405195              -0.260937153               0.000000000               0.326229546              -0.283007509               0.000000000               0.351053896              -0.305077865               0.000000000               0.375878247              -0.327148221               0.000000000               0.400702598              -0.349218577               0.000000000               0.425526948              -0.371288933               0.000000000               0.450351299              -0.393359288               0.000000000               0.475175649              -0.415429644               0.000000000               0.500000000              -0.437500000               0.000000000               0.094045202              -0.094045202               0.000000000               0.119417377              -0.119417377               0.000000000               0.144789552              -0.144789552               0.000000000               0.170161727              -0.170161727               0.000000000               0.195533901              -0.195533901               0.000000000               0.220906076              -0.220906076               0.000000000               0.246278251              -0.246278251               0.000000000               0.271650426              -0.271650426               0.000000000               0.297022601              -0.297022601               0.000000000               0.322394776              -0.322394776               0.000000000               0.347766951              -0.347766951               0.000000000               0.373139126              -0.373139126               0.000000000               0.398511300              -0.398511300               0.000000000               0.423883475              -0.423883475               0.000000000               0.449255650              -0.449255650               0.000000000               0.474627825              -0.474627825               0.000000000               0.500000000              -0.500000000               0.000000000               0.084374307              -0.102810390               0.000000000               0.106444663              -0.127634741               0.000000000               0.128515018              -0.152459092               0.000000000               0.150585374              -0.177283442               0.000000000               0.172655730              -0.202107793               0.000000000               0.194726086              -0.226932143               0.000000000               0.216796442              -0.251756494               0.000000000               0.238866798              -0.276580845               0.000000000               0.260937153              -0.301405195               0.000000000               0.283007509              -0.326229546               0.000000000               0.305077865              -0.351053896               0.000000000               0.327148221              -0.375878247               0.000000000               0.349218577              -0.400702598               0.000000000               0.371288933              -0.425526948               0.000000000               0.393359288              -0.450351299               0.000000000               0.415429644              -0.475175649               0.000000000               0.437500000              -0.500000000               0.000000000               0.073890841              -0.110585458               0.000000000               0.092710163              -0.134923867               0.000000000               0.111529486              -0.159262276               0.000000000               0.130348808              -0.183600685               0.000000000               0.149168131              -0.207939094               0.000000000               0.167987453              -0.232277503               0.000000000               0.186806776              -0.256615912               0.000000000               0.205626098              -0.280954320               0.000000000               0.224445420              -0.305292729               0.000000000               0.243264743              -0.329631138               0.000000000               0.262084065              -0.353969547               0.000000000               0.280903388              -0.378307956               0.000000000               0.299722710              -0.402646365               0.000000000               0.318542033              -0.426984773               0.000000000               0.337361355              -0.451323182               0.000000000               0.356180678              -0.475661591               0.000000000               0.375000000              -0.500000000               0.000000000               0.062695766              -0.117295528               0.000000000               0.078308531              -0.141214558               0.000000000               0.093921295              -0.165133587               0.000000000               0.109534060              -0.189052617               0.000000000               0.125146824              -0.212971646               0.000000000               0.140759589              -0.236890676               0.000000000               0.156372354              -0.260809705               0.000000000               0.171985118              -0.284728735               0.000000000               0.187597883              -0.308647764               0.000000000               0.203210648              -0.332566794               0.000000000               0.218823412              -0.356485823               0.000000000               0.234436177              -0.380404853               0.000000000               0.250048941              -0.404323882               0.000000000               0.265661706              -0.428242912               0.000000000               0.281274471              -0.452161941               0.000000000               0.296887235              -0.476080971               0.000000000               0.312500000              -0.500000000               0.000000000               0.050896897              -0.122875978               0.000000000               0.063340840              -0.146446229               0.000000000               0.075784784              -0.170016481               0.000000000               0.088228728              -0.193586732               0.000000000               0.100672672              -0.217156983               0.000000000               0.113116616              -0.240727235               0.000000000               0.125560560              -0.264297486               0.000000000               0.138004504              -0.287867738               0.000000000               0.150448448              -0.311437989               0.000000000               0.162892392              -0.335008240               0.000000000               0.175336336              -0.358578492               0.000000000               0.187780280              -0.382148743               0.000000000               0.200224224              -0.405718994               0.000000000               0.212668168              -0.429289246               0.000000000               0.225112112              -0.452859497               0.000000000               0.237556056              -0.476429749               0.000000000               0.250000000              -0.500000000               0.000000000               0.038607862              -0.127273065               0.000000000               0.047913621              -0.150568498               0.000000000               0.057219379              -0.173863932               0.000000000               0.066525138              -0.197159365               0.000000000               0.075830897              -0.220454798               0.000000000               0.085136655              -0.243750232               0.000000000               0.094442414              -0.267045665               0.000000000               0.103748172              -0.290341099               0.000000000               0.113053931              -0.313636532               0.000000000               0.122359690              -0.336931966               0.000000000               0.131665448              -0.360227399               0.000000000               0.140971207              -0.383522833               0.000000000               0.150276966              -0.406818266               0.000000000               0.159582724              -0.430113700               0.000000000               0.168888483              -0.453409133               0.000000000               0.178194241              -0.476704567               0.000000000               0.187500000              -0.500000000               0.000000000               0.025947013              -0.130444442               0.000000000               0.032137825              -0.153541665               0.000000000               0.038328636              -0.176638887               0.000000000               0.044519448              -0.199736109               0.000000000               0.050710260              -0.222833332               0.000000000               0.056901071              -0.245930554               0.000000000               0.063091883              -0.269027776               0.000000000               0.069282695              -0.292124999               0.000000000               0.075473506              -0.315222221               0.000000000               0.081664318              -0.338319444               0.000000000               0.087855130              -0.361416666               0.000000000               0.094045942              -0.384513888               0.000000000               0.100236753              -0.407611111               0.000000000               0.106427565              -0.430708333               0.000000000               0.112618377              -0.453805555               0.000000000               0.118809188              -0.476902778               0.000000000               0.125000000              -0.500000000               0.000000000               0.013036280              -0.132359569               0.000000000               0.016127762              -0.155337096               0.000000000               0.019219245              -0.178314623               0.000000000               0.022310727              -0.201292150               0.000000000               0.025402210              -0.224269676               0.000000000               0.028493692              -0.247247203               0.000000000               0.031585175              -0.270224730               0.000000000               0.034676657              -0.293202257               0.000000000               0.037768140              -0.316179784               0.000000000               0.040859622              -0.339157311               0.000000000               0.043951105              -0.362134838               0.000000000               0.047042587              -0.385112365               0.000000000               0.050134070              -0.408089892               0.000000000               0.053225552              -0.431067419               0.000000000               0.056317035              -0.454044946               0.000000000               0.059408517              -0.477022473               0.000000000               0.062500000              -0.500000000               0.000000000               0.000000000              -0.133000000               0.000000000               0.000000000              -0.155937500               0.000000000               0.000000000              -0.178875000               0.000000000               0.000000000              -0.201812500               0.000000000               0.000000000              -0.224750000               0.000000000               0.000000000              -0.247687500               0.000000000               0.000000000              -0.270625000               0.000000000               0.000000000              -0.293562500               0.000000000               0.000000000              -0.316500000               0.000000000               0.000000000              -0.339437500               0.000000000               0.000000000              -0.362375000               0.000000000               0.000000000              -0.385312500               0.000000000               0.000000000              -0.408250000               0.000000000               0.000000000              -0.431187500               0.000000000               0.000000000              -0.454125000               0.000000000               0.000000000              -0.477062500               0.000000000               0.000000000              -0.500000000               0.000000000              -0.133000000               0.000000000               0.000000000              -0.155937500               0.000000000               0.000000000              -0.178875000               0.000000000               0.000000000              -0.201812500               0.000000000               0.000000000              -0.224750000               0.000000000               0.000000000              -0.247687500               0.000000000               0.000000000              -0.270625000               0.000000000               0.000000000              -0.293562500               0.000000000               0.000000000              -0.316500000               0.000000000               0.000000000              -0.339437500               0.000000000               0.000000000              -0.362375000               0.000000000               0.000000000              -0.385312500               0.000000000               0.000000000              -0.408250000               0.000000000               0.000000000              -0.431187500               0.000000000               0.000000000              -0.454125000               0.000000000               0.000000000              -0.477062500               0.000000000               0.000000000              -0.500000000               0.000000000               0.000000000              -0.132359569              -0.013036280               0.000000000              -0.155337096              -0.016127762               0.000000000              -0.178314623              -0.019219245               0.000000000              -0.201292150              -0.022310727               0.000000000              -0.224269676              -0.025402210               0.000000000              -0.247247203              -0.028493692               0.000000000              -0.270224730              -0.031585175               0.000000000              -0.293202257              -0.034676657               0.000000000              -0.316179784              -0.037768140               0.000000000              -0.339157311              -0.040859622               0.000000000              -0.362134838              -0.043951105               0.000000000              -0.385112365              -0.047042587               0.000000000              -0.408089892              -0.050134070               0.000000000              -0.431067419              -0.053225552               0.000000000              -0.454044946              -0.056317035               0.000000000              -0.477022473              -0.059408517               0.000000000              -0.500000000              -0.062500000               0.000000000              -0.130444442              -0.025947013               0.000000000              -0.153541665              -0.032137825               0.000000000              -0.176638887              -0.038328636               0.000000000              -0.199736109              -0.044519448               0.000000000              -0.222833332              -0.050710260               0.000000000              -0.245930554              -0.056901071               0.000000000              -0.269027776              -0.063091883               0.000000000              -0.292124999              -0.069282695               0.000000000              -0.315222221              -0.075473506               0.000000000              -0.338319444              -0.081664318               0.000000000              -0.361416666              -0.087855130               0.000000000              -0.384513888              -0.094045942               0.000000000              -0.407611111              -0.100236753               0.000000000              -0.430708333              -0.106427565               0.000000000              -0.453805555              -0.112618377               0.000000000              -0.476902778              -0.118809188               0.000000000              -0.500000000              -0.125000000               0.000000000              -0.127273065              -0.038607862               0.000000000              -0.150568498              -0.047913621               0.000000000              -0.173863932              -0.057219379               0.000000000              -0.197159365              -0.066525138               0.000000000              -0.220454798              -0.075830897               0.000000000              -0.243750232              -0.085136655               0.000000000              -0.267045665              -0.094442414               0.000000000              -0.290341099              -0.103748172               0.000000000              -0.313636532              -0.113053931               0.000000000              -0.336931966              -0.122359690               0.000000000              -0.360227399              -0.131665448               0.000000000              -0.383522833              -0.140971207               0.000000000              -0.406818266              -0.150276966               0.000000000              -0.430113700              -0.159582724               0.000000000              -0.453409133              -0.168888483               0.000000000              -0.476704567              -0.178194241               0.000000000              -0.500000000              -0.187500000               0.000000000              -0.122875978              -0.050896897               0.000000000              -0.146446229              -0.063340840               0.000000000              -0.170016481              -0.075784784               0.000000000              -0.193586732              -0.088228728               0.000000000              -0.217156983              -0.100672672               0.000000000              -0.240727235              -0.113116616               0.000000000              -0.264297486              -0.125560560               0.000000000              -0.287867738              -0.138004504               0.000000000              -0.311437989              -0.150448448               0.000000000              -0.335008240              -0.162892392               0.000000000              -0.358578492              -0.175336336               0.000000000              -0.382148743              -0.187780280               0.000000000              -0.405718994              -0.200224224               0.000000000              -0.429289246              -0.212668168               0.000000000              -0.452859497              -0.225112112               0.000000000              -0.476429749              -0.237556056               0.000000000              -0.500000000              -0.250000000               0.000000000              -0.117295528              -0.062695766               0.000000000              -0.141214558              -0.078308531               0.000000000              -0.165133587              -0.093921295               0.000000000              -0.189052617              -0.109534060               0.000000000              -0.212971646              -0.125146824               0.000000000              -0.236890676              -0.140759589               0.000000000              -0.260809705              -0.156372354               0.000000000              -0.284728735              -0.171985118               0.000000000              -0.308647764              -0.187597883               0.000000000              -0.332566794              -0.203210648               0.000000000              -0.356485823              -0.218823412               0.000000000              -0.380404853              -0.234436177               0.000000000              -0.404323882              -0.250048941               0.000000000              -0.428242912              -0.265661706               0.000000000              -0.452161941              -0.281274471               0.000000000              -0.476080971              -0.296887235               0.000000000              -0.500000000              -0.312500000               0.000000000              -0.110585458              -0.073890841               0.000000000              -0.134923867              -0.092710163               0.000000000              -0.159262276              -0.111529486               0.000000000              -0.183600685              -0.130348808               0.000000000              -0.207939094              -0.149168131               0.000000000              -0.232277503              -0.167987453               0.000000000              -0.256615912              -0.186806776               0.000000000              -0.280954320              -0.205626098               0.000000000              -0.305292729              -0.224445420               0.000000000              -0.329631138              -0.243264743               0.000000000              -0.353969547              -0.262084065               0.000000000              -0.378307956              -0.280903388               0.000000000              -0.402646365              -0.299722710               0.000000000              -0.426984773              -0.318542033               0.000000000              -0.451323182              -0.337361355               0.000000000              -0.475661591              -0.356180678               0.000000000              -0.500000000              -0.375000000               0.000000000              -0.102810390              -0.084374307               0.000000000              -0.127634741              -0.106444663               0.000000000              -0.152459092              -0.128515018               0.000000000              -0.177283442              -0.150585374               0.000000000              -0.202107793              -0.172655730               0.000000000              -0.226932143              -0.194726086               0.000000000              -0.251756494              -0.216796442               0.000000000              -0.276580845              -0.238866798               0.000000000              -0.301405195              -0.260937153               0.000000000              -0.326229546              -0.283007509               0.000000000              -0.351053896              -0.305077865               0.000000000              -0.375878247              -0.327148221               0.000000000              -0.400702598              -0.349218577               0.000000000              -0.425526948              -0.371288933               0.000000000              -0.450351299              -0.393359288               0.000000000              -0.475175649              -0.415429644               0.000000000              -0.500000000              -0.437500000               0.000000000              -0.094045202              -0.094045202               0.000000000              -0.119417377              -0.119417377               0.000000000              -0.144789552              -0.144789552               0.000000000              -0.170161727              -0.170161727               0.000000000              -0.195533901              -0.195533901               0.000000000              -0.220906076              -0.220906076               0.000000000              -0.246278251              -0.246278251               0.000000000              -0.271650426              -0.271650426               0.000000000              -0.297022601              -0.297022601               0.000000000              -0.322394776              -0.322394776               0.000000000              -0.347766951              -0.347766951               0.000000000              -0.373139126              -0.373139126               0.000000000              -0.398511300              -0.398511300               0.000000000              -0.423883475              -0.423883475               0.000000000              -0.449255650              -0.449255650               0.000000000              -0.474627825              -0.474627825               0.000000000              -0.500000000              -0.500000000               0.000000000              -0.084374307              -0.102810390               0.000000000              -0.106444663              -0.127634741               0.000000000              -0.128515018              -0.152459092               0.000000000              -0.150585374              -0.177283442               0.000000000              -0.172655730              -0.202107793               0.000000000              -0.194726086              -0.226932143               0.000000000              -0.216796442              -0.251756494               0.000000000              -0.238866798              -0.276580845               0.000000000              -0.260937153              -0.301405195               0.000000000              -0.283007509              -0.326229546               0.000000000              -0.305077865              -0.351053896               0.000000000              -0.327148221              -0.375878247               0.000000000              -0.349218577              -0.400702598               0.000000000              -0.371288933              -0.425526948               0.000000000              -0.393359288              -0.450351299               0.000000000              -0.415429644              -0.475175649               0.000000000              -0.437500000              -0.500000000               0.000000000              -0.073890841              -0.110585458               0.000000000              -0.092710163              -0.134923867               0.000000000              -0.111529486              -0.159262276               0.000000000              -0.130348808              -0.183600685               0.000000000              -0.149168131              -0.207939094               0.000000000              -0.167987453              -0.232277503               0.000000000              -0.186806776              -0.256615912               0.000000000              -0.205626098              -0.280954320               0.000000000              -0.224445420              -0.305292729               0.000000000              -0.243264743              -0.329631138               0.000000000              -0.262084065              -0.353969547               0.000000000              -0.280903388              -0.378307956               0.000000000              -0.299722710              -0.402646365               0.000000000              -0.318542033              -0.426984773               0.000000000              -0.337361355              -0.451323182               0.000000000              -0.356180678              -0.475661591               0.000000000              -0.375000000              -0.500000000               0.000000000              -0.062695766              -0.117295528               0.000000000              -0.078308531              -0.141214558               0.000000000              -0.093921295              -0.165133587               0.000000000              -0.109534060              -0.189052617               0.000000000              -0.125146824              -0.212971646               0.000000000              -0.140759589              -0.236890676               0.000000000              -0.156372354              -0.260809705               0.000000000              -0.171985118              -0.284728735               0.000000000              -0.187597883              -0.308647764               0.000000000              -0.203210648              -0.332566794               0.000000000              -0.218823412              -0.356485823               0.000000000              -0.234436177              -0.380404853               0.000000000              -0.250048941              -0.404323882               0.000000000              -0.265661706              -0.428242912               0.000000000              -0.281274471              -0.452161941               0.000000000              -0.296887235              -0.476080971               0.000000000              -0.312500000              -0.500000000               0.000000000              -0.050896897              -0.122875978               0.000000000              -0.063340840              -0.146446229               0.000000000              -0.075784784              -0.170016481               0.000000000              -0.088228728              -0.193586732               0.000000000              -0.100672672              -0.217156983               0.000000000              -0.113116616              -0.240727235               0.000000000              -0.125560560              -0.264297486               0.000000000              -0.138004504              -0.287867738               0.000000000              -0.150448448              -0.311437989               0.000000000              -0.162892392              -0.335008240               0.000000000              -0.175336336              -0.358578492               0.000000000              -0.187780280              -0.382148743               0.000000000              -0.200224224              -0.405718994               0.000000000              -0.212668168              -0.429289246               0.000000000              -0.225112112              -0.452859497               0.000000000              -0.237556056              -0.476429749               0.000000000              -0.250000000              -0.500000000               0.000000000              -0.038607862              -0.127273065               0.000000000              -0.047913621              -0.150568498               0.000000000              -0.057219379              -0.173863932               0.000000000              -0.066525138              -0.197159365               0.000000000              -0.075830897              -0.220454798               0.000000000              -0.085136655              -0.243750232               0.000000000              -0.094442414              -0.267045665               0.000000000              -0.103748172              -0.290341099               0.000000000              -0.113053931              -0.313636532               0.000000000              -0.122359690              -0.336931966               0.000000000              -0.131665448              -0.360227399               0.000000000              -0.140971207              -0.383522833               0.000000000              -0.150276966              -0.406818266               0.000000000              -0.159582724              -0.430113700               0.000000000              -0.168888483              -0.453409133               0.000000000              -0.178194241              -0.476704567               0.000000000              -0.187500000              -0.500000000               0.000000000              -0.025947013              -0.130444442               0.000000000              -0.032137825              -0.153541665               0.000000000              -0.038328636              -0.176638887               0.000000000              -0.044519448              -0.199736109               0.000000000              -0.050710260              -0.222833332               0.000000000              -0.056901071              -0.245930554               0.000000000              -0.063091883              -0.269027776               0.000000000              -0.069282695              -0.292124999               0.000000000              -0.075473506              -0.315222221               0.000000000              -0.081664318              -0.338319444               0.000000000              -0.087855130              -0.361416666               0.000000000              -0.094045942              -0.384513888               0.000000000              -0.100236753              -0.407611111               0.000000000              -0.106427565              -0.430708333               0.000000000              -0.112618377              -0.453805555               0.000000000              -0.118809188              -0.476902778               0.000000000              -0.125000000              -0.500000000               0.000000000              -0.013036280              -0.132359569               0.000000000              -0.016127762              -0.155337096               0.000000000              -0.019219245              -0.178314623               0.000000000              -0.022310727              -0.201292150               0.000000000              -0.025402210              -0.224269676               0.000000000              -0.028493692              -0.247247203               0.000000000              -0.031585175              -0.270224730               0.000000000              -0.034676657              -0.293202257               0.000000000              -0.037768140              -0.316179784               0.000000000              -0.040859622              -0.339157311               0.000000000              -0.043951105              -0.362134838               0.000000000              -0.047042587              -0.385112365               0.000000000              -0.050134070              -0.408089892               0.000000000              -0.053225552              -0.431067419               0.000000000              -0.056317035              -0.454044946               0.000000000              -0.059408517              -0.477022473               0.000000000              -0.062500000              -0.500000000               0.000000000               0.000000000              -0.133000000               0.000000000               0.000000000              -0.155937500               0.000000000               0.000000000              -0.178875000               0.000000000               0.000000000              -0.201812500               0.000000000               0.000000000              -0.224750000               0.000000000               0.000000000              -0.247687500               0.000000000               0.000000000              -0.270625000               0.000000000               0.000000000              -0.293562500               0.000000000               0.000000000              -0.316500000               0.000000000               0.000000000              -0.339437500               0.000000000               0.000000000              -0.362375000               0.000000000               0.000000000              -0.385312500               0.000000000               0.000000000              -0.408250000               0.000000000               0.000000000              -0.431187500               0.000000000               0.000000000              -0.454125000               0.000000000               0.000000000              -0.477062500               0.000000000               0.000000000              -0.500000000               0.000000000              -0.133000000               0.000000000               0.000000000              -0.155937500               0.000000000               0.000000000              -0.178875000               0.000000000               0.000000000              -0.201812500               0.000000000               0.000000000              -0.224750000               0.000000000               0.000000000              -0.247687500               0.000000000               0.000000000              -0.270625000               0.000000000               0.000000000              -0.293562500               0.000000000               0.000000000              -0.316500000               0.000000000               0.000000000              -0.339437500               0.000000000               0.000000000              -0.362375000               0.000000000               0.000000000              -0.385312500               0.000000000               0.000000000              -0.408250000               0.000000000               0.000000000              -0.431187500               0.000000000               0.000000000              -0.454125000               0.000000000               0.000000000              -0.477062500               0.000000000               0.000000000              -0.500000000               0.000000000               0.000000000              -0.132359569               0.013036280               0.000000000              -0.155337096               0.016127762               0.000000000              -0.178314623               0.019219245               0.000000000              -0.201292150               0.022310727               0.000000000              -0.224269676               0.025402210               0.000000000              -0.247247203               0.028493692               0.000000000              -0.270224730               0.031585175               0.000000000              -0.293202257               0.034676657               0.000000000              -0.316179784               0.037768140               0.000000000              -0.339157311               0.040859622               0.000000000              -0.362134838               0.043951105               0.000000000              -0.385112365               0.047042587               0.000000000              -0.408089892               0.050134070               0.000000000              -0.431067419               0.053225552               0.000000000              -0.454044946               0.056317035               0.000000000              -0.477022473               0.059408517               0.000000000              -0.500000000               0.062500000               0.000000000              -0.130444442               0.025947013               0.000000000              -0.153541665               0.032137825               0.000000000              -0.176638887               0.038328636               0.000000000              -0.199736109               0.044519448               0.000000000              -0.222833332               0.050710260               0.000000000              -0.245930554               0.056901071               0.000000000              -0.269027776               0.063091883               0.000000000              -0.292124999               0.069282695               0.000000000              -0.315222221               0.075473506               0.000000000              -0.338319444               0.081664318               0.000000000              -0.361416666               0.087855130               0.000000000              -0.384513888               0.094045942               0.000000000              -0.407611111               0.100236753               0.000000000              -0.430708333               0.106427565               0.000000000              -0.453805555               0.112618377               0.000000000              -0.476902778               0.118809188               0.000000000              -0.500000000               0.125000000               0.000000000              -0.127273065               0.038607862               0.000000000              -0.150568498               0.047913621               0.000000000              -0.173863932               0.057219379               0.000000000              -0.197159365               0.066525138               0.000000000              -0.220454798               0.075830897               0.000000000              -0.243750232               0.085136655               0.000000000              -0.267045665               0.094442414               0.000000000              -0.290341099               0.103748172               0.000000000              -0.313636532               0.113053931               0.000000000              -0.336931966               0.122359690               0.000000000              -0.360227399               0.131665448               0.000000000              -0.383522833               0.140971207               0.000000000              -0.406818266               0.150276966               0.000000000              -0.430113700               0.159582724               0.000000000              -0.453409133               0.168888483               0.000000000              -0.476704567               0.178194241               0.000000000              -0.500000000               0.187500000               0.000000000              -0.122875978               0.050896897               0.000000000              -0.146446229               0.063340840               0.000000000              -0.170016481               0.075784784               0.000000000              -0.193586732               0.088228728               0.000000000              -0.217156983               0.100672672               0.000000000              -0.240727235               0.113116616               0.000000000              -0.264297486               0.125560560               0.000000000              -0.287867738               0.138004504               0.000000000              -0.311437989               0.150448448               0.000000000              -0.335008240               0.162892392               0.000000000              -0.358578492               0.175336336               0.000000000              -0.382148743               0.187780280               0.000000000              -0.405718994               0.200224224               0.000000000              -0.429289246               0.212668168               0.000000000              -0.452859497               0.225112112               0.000000000              -0.476429749               0.237556056               0.000000000              -0.500000000               0.250000000               0.000000000              -0.117295528               0.062695766               0.000000000              -0.141214558               0.078308531               0.000000000              -0.165133587               0.093921295               0.000000000              -0.189052617               0.109534060               0.000000000              -0.212971646               0.125146824               0.000000000              -0.236890676               0.140759589               0.000000000              -0.260809705               0.156372354               0.000000000              -0.284728735               0.171985118               0.000000000              -0.308647764               0.187597883               0.000000000              -0.332566794               0.203210648               0.000000000              -0.356485823               0.218823412               0.000000000              -0.380404853               0.234436177               0.000000000              -0.404323882               0.250048941               0.000000000              -0.428242912               0.265661706               0.000000000              -0.452161941               0.281274471               0.000000000              -0.476080971               0.296887235               0.000000000              -0.500000000               0.312500000               0.000000000              -0.110585458               0.073890841               0.000000000              -0.134923867               0.092710163               0.000000000              -0.159262276               0.111529486               0.000000000              -0.183600685               0.130348808               0.000000000              -0.207939094               0.149168131               0.000000000              -0.232277503               0.167987453               0.000000000              -0.256615912               0.186806776               0.000000000              -0.280954320               0.205626098               0.000000000              -0.305292729               0.224445420               0.000000000              -0.329631138               0.243264743               0.000000000              -0.353969547               0.262084065               0.000000000              -0.378307956               0.280903388               0.000000000              -0.402646365               0.299722710               0.000000000              -0.426984773               0.318542033               0.000000000              -0.451323182               0.337361355               0.000000000              -0.475661591               0.356180678               0.000000000              -0.500000000               0.375000000               0.000000000              -0.102810390               0.084374307               0.000000000              -0.127634741               0.106444663               0.000000000              -0.152459092               0.128515018               0.000000000              -0.177283442               0.150585374               0.000000000              -0.202107793               0.172655730               0.000000000              -0.226932143               0.194726086               0.000000000              -0.251756494               0.216796442               0.000000000              -0.276580845               0.238866798               0.000000000              -0.301405195               0.260937153               0.000000000              -0.326229546               0.283007509               0.000000000              -0.351053896               0.305077865               0.000000000              -0.375878247               0.327148221               0.000000000              -0.400702598               0.349218577               0.000000000              -0.425526948               0.371288933               0.000000000              -0.450351299               0.393359288               0.000000000              -0.475175649               0.415429644               0.000000000              -0.500000000               0.437500000               0.000000000              -0.094045202               0.094045202               0.000000000              -0.119417377               0.119417377               0.000000000              -0.144789552               0.144789552               0.000000000              -0.170161727               0.170161727               0.000000000              -0.195533901               0.195533901               0.000000000              -0.220906076               0.220906076               0.000000000              -0.246278251               0.246278251               0.000000000              -0.271650426               0.271650426               0.000000000              -0.297022601               0.297022601               0.000000000              -0.322394776               0.322394776               0.000000000              -0.347766951               0.347766951               0.000000000              -0.373139126               0.373139126               0.000000000              -0.398511300               0.398511300               0.000000000              -0.423883475               0.423883475               0.000000000              -0.449255650               0.449255650               0.000000000              -0.474627825               0.474627825               0.000000000              -0.500000000               0.500000000               0.000000000              -0.084374307               0.102810390               0.000000000              -0.106444663               0.127634741               0.000000000              -0.128515018               0.152459092               0.000000000              -0.150585374               0.177283442               0.000000000              -0.172655730               0.202107793               0.000000000              -0.194726086               0.226932143               0.000000000              -0.216796442               0.251756494               0.000000000              -0.238866798               0.276580845               0.000000000              -0.260937153               0.301405195               0.000000000              -0.283007509               0.326229546               0.000000000              -0.305077865               0.351053896               0.000000000              -0.327148221               0.375878247               0.000000000              -0.349218577               0.400702598               0.000000000              -0.371288933               0.425526948               0.000000000              -0.393359288               0.450351299               0.000000000              -0.415429644               0.475175649               0.000000000              -0.437500000               0.500000000               0.000000000              -0.073890841               0.110585458               0.000000000              -0.092710163               0.134923867               0.000000000              -0.111529486               0.159262276               0.000000000              -0.130348808               0.183600685               0.000000000              -0.149168131               0.207939094               0.000000000              -0.167987453               0.232277503               0.000000000              -0.186806776               0.256615912               0.000000000              -0.205626098               0.280954320               0.000000000              -0.224445420               0.305292729               0.000000000              -0.243264743               0.329631138               0.000000000              -0.262084065               0.353969547               0.000000000              -0.280903388               0.378307956               0.000000000              -0.299722710               0.402646365               0.000000000              -0.318542033               0.426984773               0.000000000              -0.337361355               0.451323182               0.000000000              -0.356180678               0.475661591               0.000000000              -0.375000000               0.500000000               0.000000000              -0.062695766               0.117295528               0.000000000              -0.078308531               0.141214558               0.000000000              -0.093921295               0.165133587               0.000000000              -0.109534060               0.189052617               0.000000000              -0.125146824               0.212971646               0.000000000              -0.140759589               0.236890676               0.000000000              -0.156372354               0.260809705               0.000000000              -0.171985118               0.284728735               0.000000000              -0.187597883               0.308647764               0.000000000              -0.203210648               0.332566794               0.000000000              -0.218823412               0.356485823               0.000000000              -0.234436177               0.380404853               0.000000000              -0.250048941               0.404323882               0.000000000              -0.265661706               0.428242912               0.000000000              -0.281274471               0.452161941               0.000000000              -0.296887235               0.476080971               0.000000000              -0.312500000               0.500000000               0.000000000              -0.050896897               0.122875978               0.000000000              -0.063340840               0.146446229               0.000000000              -0.075784784               0.170016481               0.000000000              -0.088228728               0.193586732               0.000000000              -0.100672672               0.217156983               0.000000000              -0.113116616               0.240727235               0.000000000              -0.125560560               0.264297486               0.000000000              -0.138004504               0.287867738               0.000000000              -0.150448448               0.311437989               0.000000000              -0.162892392               0.335008240               0.000000000              -0.175336336               0.358578492               0.000000000              -0.187780280               0.382148743               0.000000000              -0.200224224               0.405718994               0.000000000              -0.212668168               0.429289246               0.000000000              -0.225112112               0.452859497               0.000000000              -0.237556056               0.476429749               0.000000000              -0.250000000               0.500000000               0.000000000              -0.038607862               0.127273065               0.000000000              -0.047913621               0.150568498               0.000000000              -0.057219379               0.173863932               0.000000000              -0.066525138               0.197159365               0.000000000              -0.075830897               0.220454798               0.000000000              -0.085136655               0.243750232               0.000000000              -0.094442414               0.267045665               0.000000000              -0.103748172               0.290341099               0.000000000              -0.113053931               0.313636532               0.000000000              -0.122359690               0.336931966               0.000000000              -0.131665448               0.360227399               0.000000000              -0.140971207               0.383522833               0.000000000              -0.150276966               0.406818266               0.000000000              -0.159582724               0.430113700               0.000000000              -0.168888483               0.453409133               0.000000000              -0.178194241               0.476704567               0.000000000              -0.187500000               0.500000000               0.000000000              -0.025947013               0.130444442               0.000000000              -0.032137825               0.153541665               0.000000000              -0.038328636               0.176638887               0.000000000              -0.044519448               0.199736109               0.000000000              -0.050710260               0.222833332               0.000000000              -0.056901071               0.245930554               0.000000000              -0.063091883               0.269027776               0.000000000              -0.069282695               0.292124999               0.000000000              -0.075473506               0.315222221               0.000000000              -0.081664318               0.338319444               0.000000000              -0.087855130               0.361416666               0.000000000              -0.094045942               0.384513888               0.000000000              -0.100236753               0.407611111               0.000000000              -0.106427565               0.430708333               0.000000000              -0.112618377               0.453805555               0.000000000              -0.118809188               0.476902778               0.000000000              -0.125000000               0.500000000               0.000000000              -0.013036280               0.132359569               0.000000000              -0.016127762               0.155337096               0.000000000              -0.019219245               0.178314623               0.000000000              -0.022310727               0.201292150               0.000000000              -0.025402210               0.224269676               0.000000000              -0.028493692               0.247247203               0.000000000              -0.031585175               0.270224730               0.000000000              -0.034676657               0.293202257               0.000000000              -0.037768140               0.316179784               0.000000000              -0.040859622               0.339157311               0.000000000              -0.043951105               0.362134838               0.000000000              -0.047042587               0.385112365               0.000000000              -0.050134070               0.408089892               0.000000000              -0.053225552               0.431067419               0.000000000              -0.056317035               0.454044946               0.000000000              -0.059408517               0.477022473               0.000000000              -0.062500000               0.500000000               0.000000000               0.000000000               0.133000000               0.000000000               0.000000000               0.155937500               0.000000000               0.000000000               0.178875000               0.000000000               0.000000000               0.201812500               0.000000000               0.000000000               0.224750000               0.000000000               0.000000000               0.247687500               0.000000000               0.000000000               0.270625000               0.000000000               0.000000000               0.293562500               0.000000000               0.000000000               0.316500000               0.000000000               0.000000000               0.339437500               0.000000000               0.000000000               0.362375000               0.000000000               0.000000000               0.385312500               0.000000000               0.000000000               0.408250000               0.000000000               0.000000000               0.431187500               0.000000000               0.000000000               0.454125000               0.000000000               0.000000000               0.477062500               0.000000000               0.000000000               0.500000000               0.000000000 </DataArray>
</Points>
<Cells>
<DataArray type="Int32"                                    Name="connectivity"                                                      NumberOfComponents=" 1" format="ascii">
         0          1         18         17          1          2         19         18          2          3         20         19          3          4         21         20          4          5         22         21          5          6         23         22          6          7         24         23          7          8         25         24          8          9         26         25          9         10         27         26         10         11         28         27         11         12         29         28         12         13         30         29         13         14         31         30         14         15         32         31         15         16         33         32         17         18         35         34         18         19         36         35         19         20         37         36         20         21         38         37         21         22         39         38         22         23         40         39         23         24         41         40         24         25         42         41         25         26         43         42         26         27         44         43         27         28         45         44         28         29         46         45         29         30         47         46         30         31         48         47         31         32         49         48         32         33         50         49         34         35         52         51         35         36         53         52         36         37         54         53         37         38         55         54         38         39         56         55         39         40         57         56         40         41         58         57         41         42         59         58         42         43         60         59         43         44         61         60         44         45         62         61         45         46         63         62         46         47         64         63         47         48         65         64         48         49         66         65         49         50         67         66         51         52         69         68         52         53         70         69         53         54         71         70         54         55         72         71         55         56         73         72         56         57         74         73         57         58         75         74         58         59         76         75         59         60         77         76         60         61         78         77         61         62         79         78         62         63         80         79         63         64         81         80         64         65         82         81         65         66         83         82         66         67         84         83         68         69         86         85         69         70         87         86         70         71         88         87         71         72         89         88         72         73         90         89         73         74         91         90         74         75         92         91         75         76         93         92         76         77         94         93         77         78         95         94         78         79         96         95         79         80         97         96         80         81         98         97         81         82         99         98         82         83        100         99         83         84        101        100         85         86        103        102         86         87        104        103         87         88        105        104         88         89        106        105         89         90        107        106         90         91        108        107         91         92        109        108         92         93        110        109         93         94        111        110         94         95        112        111         95         96        113        112         96         97        114        113         97         98        115        114         98         99        116        115         99        100        117        116        100        101        118        117        102        103        120        119        103        104        121        120        104        105        122        121        105        106        123        122        106        107        124        123        107        108        125        124        108        109        126        125        109        110        127        126        110        111        128        127        111        112        129        128        112        113        130        129        113        114        131        130        114        115        132        131        115        116        133        132        116        117        134        133        117        118        135        134        119        120        137        136        120        121        138        137        121        122        139        138        122        123        140        139        123        124        141        140        124        125        142        141        125        126        143        142        126        127        144        143        127        128        145        144        128        129        146        145        129        130        147        146        130        131        148        147        131        132        149        148        132        133        150        149        133        134        151        150        134        135        152        151        136        137        154        153        137        138        155        154        138        139        156        155        139        140        157        156        140        141        158        157        141        142        159        158        142        143        160        159        143        144        161        160        144        145        162        161        145        146        163        162        146        147        164        163        147        148        165        164        148        149        166        165        149        150        167        166        150        151        168        167        151        152        169        168        153        154        171        170        154        155        172        171        155        156        173        172        156        157        174        173        157        158        175        174        158        159        176        175        159        160        177        176        160        161        178        177        161        162        179        178        162        163        180        179        163        164        181        180        164        165        182        181        165        166        183        182        166        167        184        183        167        168        185        184        168        169        186        185        170        171        188        187        171        172        189        188        172        173        190        189        173        174        191        190        174        175        192        191        175        176        193        192        176        177        194        193        177        178        195        194        178        179        196        195        179        180        197        196        180        181        198        197        181        182        199        198        182        183        200        199        183        184        201        200        184        185        202        201        185        186        203        202        187        188        205        204        188        189        206        205        189        190        207        206        190        191        208        207        191        192        209        208        192        193        210        209        193        194        211        210        194        195        212        211        195        196        213        212        196        197        214        213        197        198        215        214        198        199        216        215        199        200        217        216        200        201        218        217        201        202        219        218        202        203        220        219        204        205        222        221        205        206        223        222        206        207        224        223        207        208        225        224        208        209        226        225        209        210        227        226        210        211        228        227        211        212        229        228        212        213        230        229        213        214        231        230        214        215        232        231        215        216        233        232        216        217        234        233        217        218        235        234        218        219        236        235        219        220        237        236        221        222        239        238        222        223        240        239        223        224        241        240        224        225        242        241        225        226        243        242        226        227        244        243        227        228        245        244        228        229        246        245        229        230        247        246        230        231        248        247        231        232        249        248        232        233        250        249        233        234        251        250        234        235        252        251        235        236        253        252        236        237        254        253        238        239        256        255        239        240        257        256        240        241        258        257        241        242        259        258        242        243        260        259        243        244        261        260        244        245        262        261        245        246        263        262        246        247        264        263        247        248        265        264        248        249        266        265        249        250        267        266        250        251        268        267        251        252        269        268        252        253        270        269        253        254        271        270        255        256        273        272        256        257        274        273        257        258        275        274        258        259        276        275        259        260        277        276        260        261        278        277        261        262        279        278        262        263        280        279        263        264        281        280        264        265        282        281        265        266        283        282        266        267        284        283        267        268        285        284        268        269        286        285        269        270        287        286        270        271        288        287        306        307          1          0        307        308          2          1        308        309          3          2        309        310          4          3        310        311          5          4        311        312          6          5        312        313          7          6        313        314          8          7        314        315          9          8        315        316         10          9        316        317         11         10        317        318         12         11        318        319         13         12        319        320         14         13        320        321         15         14        321        322         16         15        323        324        307        306        324        325        308        307        325        326        309        308        326        327        310        309        327        328        311        310        328        329        312        311        329        330        313        312        330        331        314        313        331        332        315        314        332        333        316        315        333        334        317        316        334        335        318        317        335        336        319        318        336        337        320        319        337        338        321        320        338        339        322        321        340        341        324        323        341        342        325        324        342        343        326        325        343        344        327        326        344        345        328        327        345        346        329        328        346        347        330        329        347        348        331        330        348        349        332        331        349        350        333        332        350        351        334        333        351        352        335        334        352        353        336        335        353        354        337        336        354        355        338        337        355        356        339        338        357        358        341        340        358        359        342        341        359        360        343        342        360        361        344        343        361        362        345        344        362        363        346        345        363        364        347        346        364        365        348        347        365        366        349        348        366        367        350        349        367        368        351        350        368        369        352        351        369        370        353        352        370        371        354        353        371        372        355        354        372        373        356        355        374        375        358        357        375        376        359        358        376        377        360        359        377        378        361        360        378        379        362        361        379        380        363        362        380        381        364        363        381        382        365        364        382        383        366        365        383        384        367        366        384        385        368        367        385        386        369        368        386        387        370        369        387        388        371        370        388        389        372        371        389        390        373        372        391        392        375        374        392        393        376        375        393        394        377        376        394        395        378        377        395        396        379        378        396        397        380        379        397        398        381        380        398        399        382        381        399        400        383        382        400        401        384        383        401        402        385        384        402        403        386        385        403        404        387        386        404        405        388        387        405        406        389        388        406        407        390        389        408        409        392        391        409        410        393        392        410        411        394        393        411        412        395        394        412        413        396        395        413        414        397        396        414        415        398        397        415        416        399        398        416        417        400        399        417        418        401        400        418        419        402        401        419        420        403        402        420        421        404        403        421        422        405        404        422        423        406        405        423        424        407        406        425        426        409        408        426        427        410        409        427        428        411        410        428        429        412        411        429        430        413        412        430        431        414        413        431        432        415        414        432        433        416        415        433        434        417        416        434        435        418        417        435        436        419        418        436        437        420        419        437        438        421        420        438        439        422        421        439        440        423        422        440        441        424        423        442        443        426        425        443        444        427        426        444        445        428        427        445        446        429        428        446        447        430        429        447        448        431        430        448        449        432        431        449        450        433        432        450        451        434        433        451        452        435        434        452        453        436        435        453        454        437        436        454        455        438        437        455        456        439        438        456        457        440        439        457        458        441        440        459        460        443        442        460        461        444        443        461        462        445        444        462        463        446        445        463        464        447        446        464        465        448        447        465        466        449        448        466        467        450        449        467        468        451        450        468        469        452        451        469        470        453        452        470        471        454        453        471        472        455        454        472        473        456        455        473        474        457        456        474        475        458        457        476        477        460        459        477        478        461        460        478        479        462        461        479        480        463        462        480        481        464        463        481        482        465        464        482        483        466        465        483        484        467        466        484        485        468        467        485        486        469        468        486        487        470        469        487        488        471        470        488        489        472        471        489        490        473        472        490        491        474        473        491        492        475        474        493        494        477        476        494        495        478        477        495        496        479        478        496        497        480        479        497        498        481        480        498        499        482        481        499        500        483        482        500        501        484        483        501        502        485        484        502        503        486        485        503        504        487        486        504        505        488        487        505        506        489        488        506        507        490        489        507        508        491        490        508        509        492        491        510        511        494        493        511        512        495        494        512        513        496        495        513        514        497        496        514        515        498        497        515        516        499        498        516        517        500        499        517        518        501        500        518        519        502        501        519        520        503        502        520        521        504        503        521        522        505        504        522        523        506        505        523        524        507        506        524        525        508        507        525        526        509        508        527        528        511        510        528        529        512        511        529        530        513        512        530        531        514        513        531        532        515        514        532        533        516        515        533        534        517        516        534        535        518        517        535        536        519        518        536        537        520        519        537        538        521        520        538        539        522        521        539        540        523        522        540        541        524        523        541        542        525        524        542        543        526        525        544        545        528        527        545        546        529        528        546        547        530        529        547        548        531        530        548        549        532        531        549        550        533        532        550        551        534        533        551        552        535        534        552        553        536        535        553        554        537        536        554        555        538        537        555        556        539        538        556        557        540        539        557        558        541        540        558        559        542        541        559        560        543        542        561        562        545        544        562        563        546        545        563        564        547        546        564        565        548        547        565        566        549        548        566        567        550        549        567        568        551        550        568        569        552        551        569        570        553        552        570        571        554        553        571        572        555        554        572        573        556        555        573        574        557        556        574        575        558        557        575        576        559        558        576        577        560        559        578        579        596        595        579        580        597        596        580        581        598        597        581        582        599        598        582        583        600        599        583        584        601        600        584        585        602        601        585        586        603        602        586        587        604        603        587        588        605        604        588        589        606        605        589        590        607        606        590        591        608        607        591        592        609        608        592        593        610        609        593        594        611        610        595        596        613        612        596        597        614        613        597        598        615        614        598        599        616        615        599        600        617        616        600        601        618        617        601        602        619        618        602        603        620        619        603        604        621        620        604        605        622        621        605        606        623        622        606        607        624        623        607        608        625        624        608        609        626        625        609        610        627        626        610        611        628        627        612        613        630        629        613        614        631        630        614        615        632        631        615        616        633        632        616        617        634        633        617        618        635        634        618        619        636        635        619        620        637        636        620        621        638        637        621        622        639        638        622        623        640        639        623        624        641        640        624        625        642        641        625        626        643        642        626        627        644        643        627        628        645        644        629        630        647        646        630        631        648        647        631        632        649        648        632        633        650        649        633        634        651        650        634        635        652        651        635        636        653        652        636        637        654        653        637        638        655        654        638        639        656        655        639        640        657        656        640        641        658        657        641        642        659        658        642        643        660        659        643        644        661        660        644        645        662        661        646        647        664        663        647        648        665        664        648        649        666        665        649        650        667        666        650        651        668        667        651        652        669        668        652        653        670        669        653        654        671        670        654        655        672        671        655        656        673        672        656        657        674        673        657        658        675        674        658        659        676        675        659        660        677        676        660        661        678        677        661        662        679        678        663        664        681        680        664        665        682        681        665        666        683        682        666        667        684        683        667        668        685        684        668        669        686        685        669        670        687        686        670        671        688        687        671        672        689        688        672        673        690        689        673        674        691        690        674        675        692        691        675        676        693        692        676        677        694        693        677        678        695        694        678        679        696        695        680        681        698        697        681        682        699        698        682        683        700        699        683        684        701        700        684        685        702        701        685        686        703        702        686        687        704        703        687        688        705        704        688        689        706        705        689        690        707        706        690        691        708        707        691        692        709        708        692        693        710        709        693        694        711        710        694        695        712        711        695        696        713        712        697        698        715        714        698        699        716        715        699        700        717        716        700        701        718        717        701        702        719        718        702        703        720        719        703        704        721        720        704        705        722        721        705        706        723        722        706        707        724        723        707        708        725        724        708        709        726        725        709        710        727        726        710        711        728        727        711        712        729        728        712        713        730        729        714        715        732        731        715        716        733        732        716        717        734        733        717        718        735        734        718        719        736        735        719        720        737        736        720        721        738        737        721        722        739        738        722        723        740        739        723        724        741        740        724        725        742        741        725        726        743        742        726        727        744        743        727        728        745        744        728        729        746        745        729        730        747        746        731        732        749        748        732        733        750        749        733        734        751        750        734        735        752        751        735        736        753        752        736        737        754        753        737        738        755        754        738        739        756        755        739        740        757        756        740        741        758        757        741        742        759        758        742        743        760        759        743        744        761        760        744        745        762        761        745        746        763        762        746        747        764        763        748        749        766        765        749        750        767        766        750        751        768        767        751        752        769        768        752        753        770        769        753        754        771        770        754        755        772        771        755        756        773        772        756        757        774        773        757        758        775        774        758        759        776        775        759        760        777        776        760        761        778        777        761        762        779        778        762        763        780        779        763        764        781        780        765        766        783        782        766        767        784        783        767        768        785        784        768        769        786        785        769        770        787        786        770        771        788        787        771        772        789        788        772        773        790        789        773        774        791        790        774        775        792        791        775        776        793        792        776        777        794        793        777        778        795        794        778        779        796        795        779        780        797        796        780        781        798        797        782        783        800        799        783        784        801        800        784        785        802        801        785        786        803        802        786        787        804        803        787        788        805        804        788        789        806        805        789        790        807        806        790        791        808        807        791        792        809        808        792        793        810        809        793        794        811        810        794        795        812        811        795        796        813        812        796        797        814        813        797        798        815        814        799        800        817        816        800        801        818        817        801        802        819        818        802        803        820        819        803        804        821        820        804        805        822        821        805        806        823        822        806        807        824        823        807        808        825        824        808        809        826        825        809        810        827        826        810        811        828        827        811        812        829        828        812        813        830        829        813        814        831        830        814        815        832        831        816        817        834        833        817        818        835        834        818        819        836        835        819        820        837        836        820        821        838        837        821        822        839        838        822        823        840        839        823        824        841        840        824        825        842        841        825        826        843        842        826        827        844        843        827        828        845        844        828        829        846        845        829        830        847        846        830        831        848        847        831        832        849        848        833        834        562        561        834        835        563        562        835        836        564        563        836        837        565        564        837        838        566        565        838        839        567        566        839        840        568        567        840        841        569        568        841        842        570        569        842        843        571        570        843        844        572        571        844        845        573        572        845        846        574        573        846        847        575        574        847        848        576        575        848        849        577        576        884        885        579        578        885        886        580        579        886        887        581        580        887        888        582        581        888        889        583        582        889        890        584        583        890        891        585        584        891        892        586        585        892        893        587        586        893        894        588        587        894        895        589        588        895        896        590        589        896        897        591        590        897        898        592        591        898        899        593        592        899        900        594        593        901        902        885        884        902        903        886        885        903        904        887        886        904        905        888        887        905        906        889        888        906        907        890        889        907        908        891        890        908        909        892        891        909        910        893        892        910        911        894        893        911        912        895        894        912        913        896        895        913        914        897        896        914        915        898        897        915        916        899        898        916        917        900        899        918        919        902        901        919        920        903        902        920        921        904        903        921        922        905        904        922        923        906        905        923        924        907        906        924        925        908        907        925        926        909        908        926        927        910        909        927        928        911        910        928        929        912        911        929        930        913        912        930        931        914        913        931        932        915        914        932        933        916        915        933        934        917        916        935        936        919        918        936        937        920        919        937        938        921        920        938        939        922        921        939        940        923        922        940        941        924        923        941        942        925        924        942        943        926        925        943        944        927        926        944        945        928        927        945        946        929        928        946        947        930        929        947        948        931        930        948        949        932        931        949        950        933        932        950        951        934        933        952        953        936        935        953        954        937        936        954        955        938        937        955        956        939        938        956        957        940        939        957        958        941        940        958        959        942        941        959        960        943        942        960        961        944        943        961        962        945        944        962        963        946        945        963        964        947        946        964        965        948        947        965        966        949        948        966        967        950        949        967        968        951        950        969        970        953        952        970        971        954        953        971        972        955        954        972        973        956        955        973        974        957        956        974        975        958        957        975        976        959        958        976        977        960        959        977        978        961        960        978        979        962        961        979        980        963        962        980        981        964        963        981        982        965        964        982        983        966        965        983        984        967        966        984        985        968        967        986        987        970        969        987        988        971        970        988        989        972        971        989        990        973        972        990        991        974        973        991        992        975        974        992        993        976        975        993        994        977        976        994        995        978        977        995        996        979        978        996        997        980        979        997        998        981        980        998        999        982        981        999       1000        983        982       1000       1001        984        983       1001       1002        985        984       1003       1004        987        986       1004       1005        988        987       1005       1006        989        988       1006       1007        990        989       1007       1008        991        990       1008       1009        992        991       1009       1010        993        992       1010       1011        994        993       1011       1012        995        994       1012       1013        996        995       1013       1014        997        996       1014       1015        998        997       1015       1016        999        998       1016       1017       1000        999       1017       1018       1001       1000       1018       1019       1002       1001       1020       1021       1004       1003       1021       1022       1005       1004       1022       1023       1006       1005       1023       1024       1007       1006       1024       1025       1008       1007       1025       1026       1009       1008       1026       1027       1010       1009       1027       1028       1011       1010       1028       1029       1012       1011       1029       1030       1013       1012       1030       1031       1014       1013       1031       1032       1015       1014       1032       1033       1016       1015       1033       1034       1017       1016       1034       1035       1018       1017       1035       1036       1019       1018       1037       1038       1021       1020       1038       1039       1022       1021       1039       1040       1023       1022       1040       1041       1024       1023       1041       1042       1025       1024       1042       1043       1026       1025       1043       1044       1027       1026       1044       1045       1028       1027       1045       1046       1029       1028       1046       1047       1030       1029       1047       1048       1031       1030       1048       1049       1032       1031       1049       1050       1033       1032       1050       1051       1034       1033       1051       1052       1035       1034       1052       1053       1036       1035       1054       1055       1038       1037       1055       1056       1039       1038       1056       1057       1040       1039       1057       1058       1041       1040       1058       1059       1042       1041       1059       1060       1043       1042       1060       1061       1044       1043       1061       1062       1045       1044       1062       1063       1046       1045       1063       1064       1047       1046       1064       1065       1048       1047       1065       1066       1049       1048       1066       1067       1050       1049       1067       1068       1051       1050       1068       1069       1052       1051       1069       1070       1053       1052       1071       1072       1055       1054       1072       1073       1056       1055       1073       1074       1057       1056       1074       1075       1058       1057       1075       1076       1059       1058       1076       1077       1060       1059       1077       1078       1061       1060       1078       1079       1062       1061       1079       1080       1063       1062       1080       1081       1064       1063       1081       1082       1065       1064       1082       1083       1066       1065       1083       1084       1067       1066       1084       1085       1068       1067       1085       1086       1069       1068       1086       1087       1070       1069       1088       1089       1072       1071       1089       1090       1073       1072       1090       1091       1074       1073       1091       1092       1075       1074       1092       1093       1076       1075       1093       1094       1077       1076       1094       1095       1078       1077       1095       1096       1079       1078       1096       1097       1080       1079       1097       1098       1081       1080       1098       1099       1082       1081       1099       1100       1083       1082       1100       1101       1084       1083       1101       1102       1085       1084       1102       1103       1086       1085       1103       1104       1087       1086       1105       1106       1089       1088       1106       1107       1090       1089       1107       1108       1091       1090       1108       1109       1092       1091       1109       1110       1093       1092       1110       1111       1094       1093       1111       1112       1095       1094       1112       1113       1096       1095       1113       1114       1097       1096       1114       1115       1098       1097       1115       1116       1099       1098       1116       1117       1100       1099       1117       1118       1101       1100       1118       1119       1102       1101       1119       1120       1103       1102       1120       1121       1104       1103       1122       1123       1106       1105       1123       1124       1107       1106       1124       1125       1108       1107       1125       1126       1109       1108       1126       1127       1110       1109       1127       1128       1111       1110       1128       1129       1112       1111       1129       1130       1113       1112       1130       1131       1114       1113       1131       1132       1115       1114       1132       1133       1116       1115       1133       1134       1117       1116       1134       1135       1118       1117       1135       1136       1119       1118       1136       1137       1120       1119       1137       1138       1121       1120        272        273       1123       1122        273        274       1124       1123        274        275       1125       1124        275        276       1126       1125        276        277       1127       1126        277        278       1128       1127        278        279       1129       1128        279        280       1130       1129        280        281       1131       1130        281        282       1132       1131        282        283       1133       1132        283        284       1134       1133        284        285       1135       1134        285        286       1136       1135        286        287       1137       1136        287        288       1138       1137 </DataArray>
<DataArray type="Int32"                                    Name="offsets"                                                      NumberOfComponents=" 1" format="ascii">
         4          8         12         16         20         24         28         32         36         40         44         48         52         56         60         64         68         72         76         80         84         88         92         96        100        104        108        112        116        120        124        128        132        136        140        144        148        152        156        160        164        168        172        176        180        184        188        192        196        200        204        208        212        216        220        224        228        232        236        240        244        248        252        256        260        264        268        272        276        280        284        288        292        296        300        304        308        312        316        320        324        328        332        336        340        344        348        352        356        360        364        368        372        376        380        384        388        392        396        400        404        408        412        416        420        424        428        432        436        440        444        448        452        456        460        464        468        472        476        480        484        488        492        496        500        504        508        512        516        520        524        528        532        536        540        544        548        552        556        560        564        568        572        576        580        584        588        592        596        600        604        608        612        616        620        624        628        632        636        640        644        648        652        656        660        664        668        672        676        680        684        688        692        696        700        704        708        712        716        720        724        728        732        736        740        744        748        752        756        760        764        768        772        776        780        784        788        792        796        800        804        808        812        816        820        824        828        832        836        840        844        848        852        856        860        864        868        872        876        880        884        888        892        896        900        904        908        912        916        920        924        928        932        936        940        944        948        952        956        960        964        968        972        976        980        984        988        992        996       1000       1004       1008       1012       1016       1020       1024       1028       1032       1036       1040       1044       1048       1052       1056       1060       1064       1068       1072       1076       1080       1084       1088       1092       1096       1100       1104       1108       1112       1116       1120       1124       1128       1132       1136       1140       1144       1148       1152       1156       1160       1164       1168       1172       1176       1180       1184       1188       1192       1196       1200       1204       1208       1212       1216       1220       1224       1228       1232       1236       1240       1244       1248       1252       1256       1260       1264       1268       1272       1276       1280       1284       1288       1292       1296       1300       1304       1308       1312       1316       1320       1324       1328       1332       1336       1340       1344       1348       1352       1356       1360       1364       1368       1372       1376       1380       1384       1388       1392       1396       1400       1404       1408       1412       1416       1420       1424       1428       1432       1436       1440       1444       1448       1452       1456       1460       1464       1468       1472       1476       1480       1484       1488       1492       1496       1500       1504       1508       1512       1516       1520       1524       1528       1532       1536       1540       1544       1548       1552       1556       1560       1564       1568       1572       1576       1580       1584       1588       1592       1596       1600       1604       1608       1612       1616       1620       1624       1628       1632       1636       1640       1644       1648       1652       1656       1660       1664       1668       1672       1676       1680       1684       1688       1692       1696       1700       1704       1708       1712       1716       1720       1724       1728       1732       1736       1740       1744       1748       1752       1756       1760       1764       1768       1772       1776       1780       1784       1788       1792       1796       1800       1804       1808       1812       1816       1820       1824       1828       1832       1836       1840       1844       1848       1852       1856       1860       1864       1868       1872       1876       1880       1884       1888       1892       1896       1900       1904       1908       1912       1916       1920       1924       1928       1932       1936       1940       1944       1948       1952       1956       1960       1964       1968       1972       1976       1980       1984       1988       1992       1996       2000       2004       2008       2012       2016       2020       2024       2028       2032       2036       2040       2044       2048       2052       2056       2060       2064       2068       2072       2076       2080       2084       2088       2092       2096       2100       2104       2108       2112       2116       2120       2124       2128       2132       2136       2140       2144       2148       2152       2156       2160       2164       2168       2172       2176       2180       2184       2188       2192       2196       2200       2204       2208       2212       2216       2220       2224       2228       2232       2236       2240       2244       2248       2252       2256       2260       2264       2268       2272       2276       2280       2284       2288       2292       2296       2300       2304       2308       2312       2316       2320       2324       2328       2332       2336       2340       2344       2348       2352       2356       2360       2364       2368       2372       2376       2380       2384       2388       2392       2396       2400       2404       2408       2412       2416       2420       2424       2428       2432       2436       2440       2444       2448       2452       2456       2460       2464       2468       2472       2476       2480       2484       2488       2492       2496       2500       2504       2508       2512       2516       2520       2524       2528       2532       2536       2540       2544       2548       2552       2556       2560       2564       2568       2572       2576       2580       2584       2588       2592       2596       2600       2604       2608       2612       2616       2620       2624       2628       2632       2636       2640       2644       2648       2652       2656       2660       2664       2668       2672       2676       2680       2684       2688       2692       2696       2700       2704       2708       2712       2716       2720       2724       2728       2732       2736       2740       2744       2748       2752       2756       2760       2764       2768       2772       2776       2780       2784       2788       2792       2796       2800       2804       2808       2812       2816       2820       2824       2828       2832       2836       2840       2844       2848       2852       2856       2860       2864       2868       2872       2876       2880       2884       2888       2892       2896       2900       2904       2908       2912       2916       2920       2924       2928       2932       2936       2940       2944       2948       2952       2956       2960       2964       2968       2972       2976       2980       2984       2988       2992       2996       3000       3004       3008       3012       3016       3020       3024       3028       3032       3036       3040       3044       3048       3052       3056       3060       3064       3068       3072       3076       3080       3084       3088       3092       3096       3100       3104       3108       3112       3116       3120       3124       3128       3132       3136       3140       3144       3148       3152       3156       3160       3164       3168       3172       3176       3180       3184       3188       3192       3196       3200       3204       3208       3212       3216       3220       3224       3228       3232       3236       3240       3244       3248       3252       3256       3260       3264       3268       3272       3276       3280       3284       3288       3292       3296       3300       3304       3308       3312       3316       3320       3324       3328       3332       3336       3340       3344       3348       3352       3356       3360       3364       3368       3372       3376       3380       3384       3388       3392       3396       3400       3404       3408       3412       3416       3420       3424       3428       3432       3436       3440       3444       3448       3452       3456       3460       3464       3468       3472       3476       3480       3484       3488       3492       3496       3500       3504       3508       3512       3516       3520       3524       3528       3532       3536       3540       3544       3548       3552       3556       3560       3564       3568       3572       3576       3580       3584       3588       3592       3596       3600       3604       3608       3612       3616       3620       3624       3628       3632       3636       3640       3644       3648       3652       3656       3660       3664       3668       3672       3676       3680       3684       3688       3692       3696       3700       3704       3708       3712       3716       3720       3724       3728       3732       3736       3740       3744       3748       3752       3756       3760       3764       3768       3772       3776       3780       3784       3788       3792       3796       3800       3804       3808       3812       3816       3820       3824       3828       3832       3836       3840       3844       3848       3852       3856       3860       3864       3868       3872       3876       3880       3884       3888       3892       3896       3900       3904       3908       3912       3916       3920       3924       3928       3932       3936       3940       3944       3948       3952       3956       3960       3964       3968       3972       3976       3980       3984       3988       3992       3996       4000       4004       4008       4012       4016       4020       4024       4028       4032       4036       4040       4044       4048       4052       4056       4060       4064       4068       4072       4076       4080       4084       4088       4092       4096 </DataArray>
<DataArray type="UInt8"                                    Name="types"                                                      NumberOfComponents=" 1" format="ascii">
         9          9          9          9          9          9          9          9          9          9          9          9          9          9          9          9          9          9          9          9          9          9          9          9          9          9          9          9          9          9          9          9          9          9          9          9          9          9          9          9          9          9          9          9          9          9          9          9          9          9          9          9          9          9          9          9          9          9          9          9          9          9          9          9          9          9          9          9          9          9          9          9          9          9          9          9          9          9          9          9          9          9          9          9          9          9          9          9          9          9          9          9          9          9          9          9          9          9          9          9          9          9          9          9          9          9          9          9          9          9          9          9          9          9          9          9          9          9          9          9          9          9          9          9          9          9          9          9          9          9          9          9          9          9          9          9          9          9          9          9          9          9          9          9          9          9          9          9          9          9          9          9          9          9          9          9          9          9          9          9          9          9          9          9          9          9          9          9          9          9          9          9          9          9          9          9          9          9          9          9          9          9          9          9          9          9          9          9          9          9          9          9          9          9          9          9          9          9          9          9          9          9          9          9          9          9          9          9          9          9          9          9          9          9          9          9          9          9          9          9          9          9          9          9          9          9          9          9          9          9          9          9          9          9          9          9          9          9          9          9          9          9          9          9          9          9          9          9          9          9          9          9          9          9          9          9          9          9          9          9          9          9          9          9          9          9          9          9          9          9          9          9          9          9          9          9          9          9          9          9          9          9          9          9          9          9          9          9          9          9          9          9          9          9          9          9          9          9          9          9          9          9          9          9          9          9          9          9          9          9          9          9          9          9          9          9          9          9          9          9          9          9          9          9          9          9          9          9          9          9          9          9          9          9          9          9          9          9          9          9          9          9          9          9          9          9          9          9          9          9          9          9          9          9          9          9          9          9          9          9          9          9          9          9          9          9          9          9          9          9          9          9          9          9          9          9          9          9          9          9          9          9          9          9          9          9          9          9          9          9          9          9          9          9          9          9          9          9          9          9          9          9          9          9          9          9          9          9          9          9          9          9          9          9          9          9          9          9          9          9          9          9          9          9          9          9          9          9          9          9          9          9          9          9          9          9          9          9          9          9          9          9          9          9          9          9          9          9          9          9          9          9          9          9          9          9          9          9          9          9          9          9          9          9          9          9          9          9          9          9          9          9          9          9          9          9          9          9          9          9          9          9          9          9          9          9          9          9          9          9          9          9          9          9          9          9          9          9          9          9          9          9          9          9          9          9          9          9          9          9          9          9          9          9          9          9          9          9          9          9          9          9          9          9          9          9          9          9          9          9          9          9          9          9          9          9          9          9          9          9          9          9          9          9          9          9          9          9          9          9          9          9          9          9          9          9          9          9          9          9          9          9          9          9          9          9          9          9          9          9          9          9          9          9          9          9          9          9          9          9          9          9          9          9          9          9          9          9          9          9          9          9          9          9          9          9          9          9          9          9          9          9          9          9          9          9          9          9          9          9          9          9          9          9          9          9          9          9          9          9          9          9          9          9          9          9          9          9          9          9          9          9          9          9          9          9          9          9          9          9          9          9          9          9          9          9          9          9          9          9          9          9          9          9          9          9          9          9          9          9          9          9          9          9          9          9          9          9          9          9          9          9          9          9          9          9          9          9          9          9          9          9          9          9          9          9          9          9          9          9          9          9          9          9          9          9          9          9          9          9          9          9          9          9          9          9          9          9          9          9          9          9          9          9          9          9          9          9          9          9          9          9          9          9          9          9          9          9          9          9          9          9          9          9          9          9          9          9          9          9          9          9          9          9          9          9          9          9          9          9          9          9          9          9          9          9          9          9          9          9          9          9          9          9          9          9          9          9          9          9          9          9          9          9          9          9          9          9          9          9          9          9          9          9          9          9          9          9          9          9          9          9          9          9          9          9          9          9          9          9          9          9          9          9          9          9          9          9          9          9          9          9          9          9          9          9          9          9          9          9          9          9          9          9          9          9          9          9          9          9          9          9          9          9          9          9          9          9          9          9          9          9          9          9          9          9          9          9          9          9          9          9          9          9          9          9          9          9          9          9          9          9          9          9          9          9          9          9          9          9          9          9          9          9          9          9          9          9          9          9          9          9          9          9          9          9          9          9          9          9          9          9          9          9          9          9          9          9          9          9          9          9          9          9          9          9          9          9          9          9          9          9          9          9          9          9          9          9          9          9          9          9          9          9          9          9          9          9          9          9          9          9          9          9          9          9          9          9          9          9          9          9          9          9          9          9          9          9          9          9          9          9          9          9          9          9          9          9          9          9          9          9          9          9          9          9          9          9          9          9          9          9          9          9          9          9          9          9          9          9          9          9          9          9          9          9          9          9          9          9          9          9          9          9          9          9          9          9          9          9          9          9          9          9          9          9          9          9          9          9          9          9          9          9          9          9          9          9          9          9          9          9          9          9 </DataArray>
</Cells>
<CellData>
<DataArray type="Int32"                                    Name="material"                                                      NumberOfComponents=" 1" format="ascii">
         1          1          1          1          1          1          1          1          1          1          1          1          1          1          1          1          1          1          1          1          1          1          1          1          1          1          1          1          1          1          1          1          1          1          1          1          1          1          1          1          1          1          1          1          1          1          1          1          1          1          1          1          1          1          1          1          1          1          1          1          1          1          1          1          1          1          1          1          1          1          1          1          1          1          1          1          1          1          1          1          1          1          1          1          1          1          1          1          1          1          1          1          1          1          1          1          1          1          1          1          1          1          1          1          1          1          1          1          1          1          1          1          1          1          1          1          1          1          1          1          1          1          1          1          1          1          1          1          1          1          1          1          1          1          1          1          1          1          1          1          1          1          1          1          1          1          1          1          1          1          1          1          1          1          1          1          1          1          1          1          1          1          1          1          1          1          1          1          1          1          1          1          1          1          1          1          1          1          1          1          1          1          1          1          1          1          1          1          1          1          1          1          1          1          1          1          1          1          1          1          1          1          1          1          1          1          1          1          1          1          1          1          1          1          1          1          1          1          1          1          1          1          1          1          1          1          1          1          1          1          1          1          1          1          1          1          1          1          1          1          1          1          1          1          1          1          1          1          1          1          1          1          1          1          1          1          1          1          1          1          1          1          1          1          1          1          1          1          1          1          1          1          1          1          1          1          1          1          1          1          1          1          1          1          1          1          1          1          1          1          1          1          1          1          1          1          1          1          1          1          1          1          1          1          1          1          1          1          1          1          1          1          1          1          1          1          1          1          1          1          1          1          1          1          1          1          1          1          1          1          1          1          1          1          1          1          1          1          1          1          1          1          1          1          1          1          1          1          1          1          1          1          1          1          1          1          1          1          1          1          1          1          1          1          1          1          1          1          1          1          1          1          1          1          1          1          1          1          1          1          1          1          1          1          1          1          1          1          1          1          1          1          1          1          1          1          1          1          1          1          1          1          1          1          1          1          1          1          1          1          1          1          1          1          1          1          1          1          1          1          1          1          1          1          1          1          1          1          1          1          1          1          1          1          1          1          1          1          1          1          1          1          1          1          1          1          1          1          1          1          1          1          1          1          1          1          1          1          1          1          1          1          1          1          1          1          1          1          1          1          1          1          1          1          1          1          1          1          1          1          1          1          1          1          1          1          1          1          1          1          1          1          1          1          1          1          1          1          1          1          1          1          1          1          1          1          1          1          1          1          1          1          1          1          1          1          1          1          1          1          1          1          1          1          1          1          1          1          1          1          1          1          1          1          1          1          1          1          1          1          1          1          1          1          1          1          1          1          1          1          1          1          1          1          1          1          1          1          1          1          1          1          1          1          1          1          1          1          1          1          1          1          1          1          1          1          1          1          1          1          1          1          1          1          1          1          1          1          1          1          1          1          1          1          1          1          1          1          1          1          1          1          1          1          1          1          1          1          1          1          1          1          1          1          1          1          1          1          1          1          1          1          1          1          1          1          1          1          1          1          1          1          1          1          1          1          1          1          1          1          1          1          1          1          1          1          1          1          1          1          1          1          1          1          1          1          1          1          1          1          1          1          1          1          1          1          1          1          1          1          1          1          1          1          1          1          1          1          1          1          1          1          1          1          1          1          1          1          1          1          1          1          1          1          1          1          1          1          1          1          1          1          1          1          1          1          1          1          1          1          1          1          1          1          1          1          1          1          1          1          1          1          1          1          1          1          1          1          1          1          1          1          1          1          1          1          1          1          1          1          1          1          1          1          1          1          1          1          1          1          1          1          1          1          1          1          1          1          1          1          1          1          1          1          1          1          1          1          1          1          1          1          1          1          1          1          1          1          1          1          1          1          1          1          1          1          1          1          1          1          1          1          1          1          1          1          1          1          1          1          1          1          1          1          1          1          1          1          1          1          1          1          1          1          1          1          1          1          1          1          1          1          1          1          1          1          1          1          1          1          1          1          1          1          1          1          1          1          1          1          1          1          1          1          1          1          1          1          1          1          1          1          1          1          1          1          1          1          1          1          1          1          1          1          1          1          1          1          1          1          1          1          1          1          1          1          1          1          1          1          1          1          1          1          1          1          1          1          1          1          1          1          1          1          1          1          1          1          1          1          1          1          1          1          1          1          1          1          1          1          1          1          1          1          1          1          1          1          1          1          1          1          1          1          1          1          1          1          1          1          1          1          1          1          1          1          1          1          1          1          1          1          1          1          1          1          1          1          1          1          1          1          1          1          1          1          1          1          1          1          1          1          1          1          1          1          1          1          1          1          1          1          1          1          1          1          1          1          1          1          1          1          1          1          1          1          1          1          1          1          1          1          1          1          1          1          1          1          1          1          1          1          1          1          1          1          1          1          1          1          1          1          1          1          1          1          1          1          1          1          1          1          1          1 </DataArray>
</CellData>
<PointData>
<DataArray type="Float64"                                    Name="u"                                                      NumberOfComponents=" 3" format="ascii">
             -0.000891236              -0.000000000               0.999999988              -0.000937603               0.000000000               0.999999988              -0.000956432              -0.000000000               0.999999988              -0.000966313               0.000000000               0.999999988              -0.000973939               0.000000000               0.999999988              -0.000981761               0.000000000               0.999999988              -0.000990473              -0.000000000               0.999999988              -0.001000127              -0.000000000               0.999999988              -0.001010488              -0.000000000               0.999999988              -0.001021247               0.000000000               0.999999988              -0.001032203               0.000000000               0.999999988              -0.001042932              -0.000000000               0.999999988              -0.001052948              -0.000000000               0.999999988              -0.001061777              -0.000000000               0.999999988              -0.001068956              -0.000000000               0.999999988              -0.001073888               0.000000000               0.999999988              -0.001075720               0.000000000               0.999999988              -0.000886316               0.000122230               0.999999988              -0.000928607               0.000096222               0.999999988              -0.000944809               0.000084021               0.999999988              -0.000952995               0.000078610               0.999999988              -0.000959448               0.000076671               0.999999988              -0.000966276               0.000076225               0.999999988              -0.000973995               0.000076171               0.999999988              -0.000982626               0.000075881               0.999999988              -0.000991889               0.000075009               0.999999988              -0.001001451               0.000073288               0.999999988              -0.001011002               0.000070118               0.999999988              -0.001020017               0.000065121               0.999999988              -0.001028026               0.000058041               0.999999988              -0.001034588               0.000048681               0.999999988              -0.001039295               0.000036453               0.999999988              -0.001041615               0.000020373               0.999999988              -0.001040959              -0.000001109               0.999999988              -0.000871701               0.000243411               0.999999988              -0.000902096               0.000192206               0.999999988              -0.000910916               0.000169072               0.999999988              -0.000914381               0.000159429               0.999999988              -0.000917540               0.000156249               0.999999988              -0.000921727               0.000155771               0.999999988              -0.000926988               0.000155990               0.999999988              -0.000933071               0.000155684               0.999999988              -0.000939431               0.000154115               0.999999988              -0.000945568               0.000150572               0.999999988              -0.000951017               0.000144201               0.999999988              -0.000955227               0.000134438               0.999999988              -0.000957836               0.000120845               0.999999988              -0.000958458               0.000103022               0.999999988              -0.000956746               0.000080161               0.999999988              -0.000952456               0.000050835               0.999999988              -0.000945449               0.000013413               0.999999988              -0.000847723               0.000362538               0.999999988              -0.000859422               0.000287834               0.999999988              -0.000857501               0.000256069               0.999999988              -0.000854520               0.000243948               0.999999988              -0.000853431               0.000240790               0.999999988              -0.000854238               0.000241085               0.999999988              -0.000856277               0.000241952               0.999999988              -0.000858711               0.000241882               0.999999988              -0.000860787               0.000239631               0.999999988              -0.000861735               0.000234363               0.999999988              -0.000861084               0.000224961               0.999999988              -0.000858426               0.000210842               0.999999988              -0.000853344               0.000191551               0.999999988              -0.000845604               0.000166818               0.999999988              -0.000835098               0.000135937               0.999999988              -0.000821896               0.000097727               0.999999988              -0.000806314               0.000051440               0.999999988              -0.000814804               0.000478618               0.999999988              -0.000802556               0.000383139               0.999999988              -0.000788523               0.000345663               0.999999988              -0.000779224               0.000333045               0.999999988              -0.000774226               0.000331044               0.999999988              -0.000771787               0.000332777               0.999999988              -0.000770415               0.000334708               0.999999988              -0.000768643               0.000334903               0.999999988              -0.000765502               0.000331963               0.999999988              -0.000760113               0.000324734               0.999999988              -0.000752053               0.000312538               0.999999988              -0.000740954               0.000294602               0.999999988              -0.000726682               0.000270696               0.999999988              -0.000709191               0.000240598               0.999999988              -0.000688624               0.000204120               0.999999988              -0.000665373               0.000161109               0.999999988              -0.000640111               0.000111806               0.999999988              -0.000773460               0.000590623               0.999999988              -0.000734295               0.000478256               0.999999988              -0.000709115               0.000437992               0.999999988              -0.000694941               0.000426549               0.999999988              -0.000686992               0.000426475               0.999999988              -0.000681915               0.000430125               0.999999988              -0.000677139               0.000433254               0.999999988              -0.000670908               0.000433495               0.999999988              -0.000661907               0.000429464               0.999999988              -0.000649259               0.000420096               0.999999988              -0.000632730               0.000405050               0.999999988              -0.000612184               0.000383815               0.999999988              -0.000587682               0.000356111               0.999999988              -0.000559518               0.000322221               0.999999988              -0.000528120               0.000282471               0.999999988              -0.000494290               0.000237679               0.999999988              -0.000459092               0.000189066               0.999999988              -0.000724386               0.000697495               0.999999988              -0.000657987               0.000573353               0.999999988              -0.000624298               0.000532804               0.999999988              -0.000607473               0.000523464               0.999999988              -0.000598154               0.000525615               0.999999988              -0.000591197               0.000531148               0.999999988              -0.000583191               0.000534960               0.999999988              -0.000571959               0.000534867               0.999999988              -0.000556133               0.000529337               0.999999988              -0.000535260               0.000517719               0.999999988              -0.000509156               0.000500049               0.999999988              -0.000478113               0.000475889               0.999999988              -0.000442415               0.000445256               0.999999988              -0.000402889               0.000408846               0.999999988              -0.000360386               0.000367803               0.999999988              -0.000316109               0.000323559               0.999999988              -0.000271283               0.000278180               0.999999988              -0.000668645               0.000798040               0.999999988              -0.000577195               0.000668238               0.999999988              -0.000538675               0.000629236               0.999999988              -0.000521976               0.000622101               0.999999988              -0.000512789               0.000626232               0.999999988              -0.000504429               0.000633003               0.999999988              -0.000492758               0.000637059               0.999999988              -0.000475616               0.000636150               0.999999988              -0.000451955               0.000628947               0.999999988              -0.000421762               0.000615022               0.999999988              -0.000385144               0.000594687               0.999999988              -0.000342590               0.000568051               0.999999988              -0.000295067               0.000535438               0.999999988              -0.000243777               0.000498343               0.999999988              -0.000190086               0.000458308               0.999999988              -0.000135514               0.000417151               0.999999988              -0.000081211               0.000376565               0.999999988              -0.000607867               0.000890430               0.999999988              -0.000494650               0.000762822               0.999999988              -0.000456738               0.000725648               0.999999988              -0.000442238               0.000720223               0.999999988              -0.000433908               0.000725956               0.999999988              -0.000423947               0.000733405               0.999999988              -0.000407760               0.000737276               0.999999988              -0.000383691               0.000735131               0.999999988              -0.000351176               0.000726133               0.999999988              -0.000310508               0.000710143               0.999999988              -0.000262221               0.000687579               0.999999988              -0.000207266               0.000659309               0.999999988              -0.000147059               0.000626442               0.999999988              -0.000083330               0.000590872               0.999999988              -0.000017947               0.000554545               0.999999988               0.000047747               0.000519110               0.999999988               0.000112810               0.000485126               0.999999988              -0.000544680               0.000978062               0.999999988              -0.000425275               0.000869658               0.999999988              -0.000385288               0.000829395               0.999999988              -0.000370700               0.000819958               0.999999988              -0.000363443               0.000823483               0.999999988              -0.000355753               0.000831252               0.999999988              -0.000343152               0.000838201               0.999999988              -0.000323413               0.000841411               0.999999988              -0.000296146               0.000839771               0.999999988              -0.000261181               0.000832692               0.999999988              -0.000218745               0.000820325               0.999999988              -0.000169230               0.000803244               0.999999988              -0.000113285               0.000782119               0.999999988              -0.000052297               0.000757883               0.999999988               0.000012421               0.000732045               0.999999988               0.000079240               0.000706231               0.999999988               0.000146605               0.000681637               0.999999988              -0.000475954               0.001057845               0.999999988              -0.000358469               0.000973230               0.999999988              -0.000316488               0.000936022               0.999999988              -0.000300886               0.000924785               0.999999988              -0.000293890               0.000927095               0.999999988              -0.000287557               0.000935395               0.999999988              -0.000277847               0.000945079               0.999999988              -0.000262226               0.000953080               0.999999988              -0.000240022               0.000957933               0.999999988              -0.000210630               0.000958954               0.999999988              -0.000174091               0.000955990               0.999999988              -0.000130370               0.000949097               0.999999988              -0.000079820               0.000938808               0.999999988              -0.000023036               0.000925564               0.999999988               0.000039216               0.000910188               0.999999988               0.000105639               0.000893886               0.999999988               0.000174367               0.000877975               0.999999988              -0.000403105               0.001127821               0.999999988              -0.000294155               0.001070240               0.999999988              -0.000251967               0.001040611               0.999999988              -0.000235211               0.001030645               0.999999988              -0.000227818               0.001033140               0.999999988              -0.000222306               0.001042439               0.999999988              -0.000214584               0.001054740               0.999999988              -0.000202476               0.001067286               0.999999988              -0.000184857               0.001078217               0.999999988              -0.000161024               0.001086636               0.999999988              -0.000130508               0.001092250               0.999999988              -0.000093029               0.001095025               0.999999988              -0.000048683               0.001094918               0.999999988               0.000002548               0.001092181               0.999999988               0.000060460               0.001087224               0.999999988               0.000124699               0.001080747               0.999999988               0.000193835               0.001073796               0.999999988              -0.000326856               0.001186791               0.999999988              -0.000232297               0.001156517               0.999999988              -0.000192668               0.001137652               0.999999988              -0.000175568               0.001131808               0.999999988              -0.000167827               0.001136154               0.999999988              -0.000162596               0.001147351               0.999999988              -0.000156332               0.001162332               0.999999988              -0.000147105               0.001178907               0.999999988              -0.000133645               0.001195472               0.999999988              -0.000115006               0.001210899               0.999999988              -0.000090558               0.001224550               0.999999988              -0.000059942               0.001236242               0.999999988              -0.000022823               0.001245736               0.999999988               0.000021402               0.001253128               0.999999988               0.000073163               0.001258457               0.999999988               0.000132586               0.001262060               0.999999988               0.000199625               0.001264524               0.999999988              -0.000247754               0.001233908               0.999999988              -0.000172442               0.001228407               0.999999988              -0.000138698               0.001221440               0.999999988              -0.000123007               0.001221394               0.999999988              -0.000115442               0.001228949               0.999999988              -0.000110690               0.001242622               0.999999988              -0.000105698               0.001260476               0.999999988              -0.000098907               0.001280841               0.999999988              -0.000089033               0.001302317               0.999999988              -0.000075312               0.001323926               0.999999988              -0.000057067               0.001344910               0.999999988              -0.000033757               0.001364732               0.999999988              -0.000004709               0.001383227               0.999999988               0.000030759               0.001400173               0.999999988               0.000073591               0.001415335               0.999999988               0.000124826               0.001428761               0.999999988               0.000185390               0.001440694               0.999999988              -0.000166424               0.001268347               0.999999988              -0.000114158               0.001282495               0.999999988              -0.000089466               0.001286343               0.999999988              -0.000077313               0.001292354               0.999999988              -0.000071032               0.001303511               0.999999988              -0.000067291               0.001319933               0.999999988              -0.000063688               0.001340537               0.999999988              -0.000059151               0.001364103               0.999999988              -0.000052539               0.001389647               0.999999988              -0.000043493               0.001416306               0.999999988              -0.000031460               0.001443277               0.999999988              -0.000015612               0.001470103               0.999999988               0.000004515               0.001496429               0.999999988               0.000029558               0.001521848               0.999999988               0.000060539               0.001546076               0.999999988               0.000098895               0.001568750               0.999999988               0.000146425               0.001589496               0.999999988              -0.000083596               0.001289385               0.999999988              -0.000056858               0.001316187               0.999999988              -0.000043747               0.001327579               0.999999988              -0.000037123               0.001338126               0.999999988              -0.000033546               0.001352134               0.999999988              -0.000031457               0.001370688               0.999999988              -0.000029567               0.001393378               0.999999988              -0.000027181               0.001419390               0.999999988              -0.000023750               0.001447701               0.999999988              -0.000019221               0.001477571               0.999999988              -0.000013238               0.001508494               0.999999988              -0.000005241               0.001540064               0.999999988               0.000004984               0.001571812               0.999999988               0.000018032               0.001603257               0.999999988               0.000034518               0.001633991               0.999999988               0.000055127               0.001663374               0.999999988               0.000081453               0.001690651               0.999999988               0.000000000               0.001296484               0.999999988              -0.000000000               0.001327676               0.999999988               0.000000000               0.001341743               0.999999988               0.000000000               0.001353947               0.999999988               0.000000000               0.001369074               0.999999988              -0.000000000               0.001388466               0.999999988               0.000000000               0.001411987               0.999999988              -0.000000000               0.001438920               0.999999988              -0.000000000               0.001468194               0.999999988              -0.000000000               0.001499188               0.999999988              -0.000000000               0.001531498               0.999999988              -0.000000000               0.001564654               0.999999988              -0.000000000               0.001598293               0.999999988               0.000000000               0.001631911               0.999999988               0.000000000               0.001664932               0.999999988               0.000000000               0.001696738               0.999999988              -0.000000000               0.001726479               0.999999988              -0.000891236              -0.000000000               0.999999988              -0.000937603               0.000000000               0.999999988              -0.000956432              -0.000000000               0.999999988              -0.000966313               0.000000000               0.999999988              -0.000973939               0.000000000               0.999999988              -0.000981761               0.000000000               0.999999988              -0.000990473              -0.000000000               0.999999988              -0.001000127              -0.000000000               0.999999988              -0.001010488              -0.000000000               0.999999988              -0.001021247               0.000000000               0.999999988              -0.001032203               0.000000000               0.999999988              -0.001042932              -0.000000000               0.999999988              -0.001052948              -0.000000000               0.999999988              -0.001061777              -0.000000000               0.999999988              -0.001068956              -0.000000000               0.999999988              -0.001073888               0.000000000               0.999999988              -0.001075720               0.000000000               0.999999988              -0.000886316              -0.000122230               0.999999988              -0.000928607              -0.000096222               0.999999988              -0.000944809              -0.000084021               0.999999988              -0.000952995              -0.000078610               0.999999988              -0.000959448              -0.000076671               0.999999988              -0.000966276              -0.000076225               0.999999988              -0.000973995              -0.000076171               0.999999988              -0.000982626              -0.000075881               0.999999988              -0.000991889              -0.000075009               0.999999988              -0.001001451              -0.000073288               0.999999988              -0.001011002              -0.000070118               0.999999988              -0.001020017              -0.000065121               0.999999988              -0.001028026              -0.000058041               0.999999988              -0.001034588              -0.000048681               0.999999988              -0.001039295              -0.000036453               0.999999988              -0.001041615              -0.000020373               0.999999988              -0.001040959               0.000001109               0.999999988              -0.000871701              -0.000243411               0.999999988              -0.000902096              -0.000192206               0.999999988              -0.000910916              -0.000169072               0.999999988              -0.000914381              -0.000159429               0.999999988              -0.000917540              -0.000156249               0.999999988              -0.000921727              -0.000155771               0.999999988              -0.000926988              -0.000155990               0.999999988              -0.000933071              -0.000155684               0.999999988              -0.000939431              -0.000154115               0.999999988              -0.000945568              -0.000150572               0.999999988              -0.000951017              -0.000144201               0.999999988              -0.000955227              -0.000134438               0.999999988              -0.000957836              -0.000120845               0.999999988              -0.000958458              -0.000103022               0.999999988              -0.000956746              -0.000080161               0.999999988              -0.000952456              -0.000050835               0.999999988              -0.000945449              -0.000013413               0.999999988              -0.000847723              -0.000362538               0.999999988              -0.000859422              -0.000287834               0.999999988              -0.000857501              -0.000256069               0.999999988              -0.000854520              -0.000243948               0.999999988              -0.000853431              -0.000240790               0.999999988              -0.000854238              -0.000241085               0.999999988              -0.000856277              -0.000241952               0.999999988              -0.000858711              -0.000241882               0.999999988              -0.000860787              -0.000239631               0.999999988              -0.000861735              -0.000234363               0.999999988              -0.000861084              -0.000224961               0.999999988              -0.000858426              -0.000210842               0.999999988              -0.000853344              -0.000191551               0.999999988              -0.000845604              -0.000166818               0.999999988              -0.000835098              -0.000135937               0.999999988              -0.000821896              -0.000097727               0.999999988              -0.000806314              -0.000051440               0.999999988              -0.000814804              -0.000478618               0.999999988              -0.000802556              -0.000383139               0.999999988              -0.000788523              -0.000345663               0.999999988              -0.000779224              -0.000333045               0.999999988              -0.000774226              -0.000331044               0.999999988              -0.000771787              -0.000332777               0.999999988              -0.000770415              -0.000334708               0.999999988              -0.000768643              -0.000334903               0.999999988              -0.000765502              -0.000331963               0.999999988              -0.000760113              -0.000324734               0.999999988              -0.000752053              -0.000312538               0.999999988              -0.000740954              -0.000294602               0.999999988              -0.000726682              -0.000270696               0.999999988              -0.000709191              -0.000240598               0.999999988              -0.000688624              -0.000204120               0.999999988              -0.000665373              -0.000161109               0.999999988              -0.000640111              -0.000111806               0.999999988              -0.000773460              -0.000590623               0.999999988              -0.000734295              -0.000478256               0.999999988              -0.000709115              -0.000437992               0.999999988              -0.000694941              -0.000426549               0.999999988              -0.000686992              -0.000426475               0.999999988              -0.000681915              -0.000430125               0.999999988              -0.000677139              -0.000433254               0.999999988              -0.000670908              -0.000433495               0.999999988              -0.000661907              -0.000429464               0.999999988              -0.000649259              -0.000420096               0.999999988              -0.000632730              -0.000405050               0.999999988              -0.000612184              -0.000383815               0.999999988              -0.000587682              -0.000356111               0.999999988              -0.000559518              -0.000322221               0.999999988              -0.000528120              -0.000282471               0.999999988              -0.000494290              -0.000237679               0.999999988              -0.000459092              -0.000189066               0.999999988              -0.000724386              -0.000697495               0.999999988              -0.000657987              -0.000573353               0.999999988              -0.000624298              -0.000532804               0.999999988              -0.000607473              -0.000523464               0.999999988              -0.000598154              -0.000525615               0.999999988              -0.000591197              -0.000531148               0.999999988              -0.000583191              -0.000534960               0.999999988              -0.000571959              -0.000534867               0.999999988              -0.000556133              -0.000529337               0.999999988              -0.000535260              -0.000517719               0.999999988              -0.000509156              -0.000500049               0.999999988              -0.000478113              -0.000475889               0.999999988              -0.000442415              -0.000445256               0.999999988              -0.000402889              -0.000408846               0.999999988              -0.000360386              -0.000367803               0.999999988              -0.000316109              -0.000323559               0.999999988              -0.000271283              -0.000278180               0.999999988              -0.000668645              -0.000798040               0.999999988              -0.000577195              -0.000668238               0.999999988              -0.000538675              -0.000629236               0.999999988              -0.000521976              -0.000622101               0.999999988              -0.000512789              -0.000626232               0.999999988              -0.000504429              -0.000633003               0.999999988              -0.000492758              -0.000637059               0.999999988              -0.000475616              -0.000636150               0.999999988              -0.000451955              -0.000628947               0.999999988              -0.000421762              -0.000615022               0.999999988              -0.000385144              -0.000594687               0.999999988              -0.000342590              -0.000568051               0.999999988              -0.000295067              -0.000535438               0.999999988              -0.000243777              -0.000498343               0.999999988              -0.000190086              -0.000458308               0.999999988              -0.000135514              -0.000417151               0.999999988              -0.000081211              -0.000376565               0.999999988              -0.000607867              -0.000890430               0.999999988              -0.000494650              -0.000762822               0.999999988              -0.000456738              -0.000725648               0.999999988              -0.000442238              -0.000720223               0.999999988              -0.000433908              -0.000725956               0.999999988              -0.000423947              -0.000733405               0.999999988              -0.000407760              -0.000737276               0.999999988              -0.000383691              -0.000735131               0.999999988              -0.000351176              -0.000726133               0.999999988              -0.000310508              -0.000710143               0.999999988              -0.000262221              -0.000687579               0.999999988              -0.000207266              -0.000659309               0.999999988              -0.000147059              -0.000626442               0.999999988              -0.000083330              -0.000590872               0.999999988              -0.000017947              -0.000554545               0.999999988               0.000047747              -0.000519110               0.999999988               0.000112810              -0.000485126               0.999999988              -0.000544680              -0.000978062               0.999999988              -0.000425275              -0.000869658               0.999999988              -0.000385288              -0.000829395               0.999999988              -0.000370700              -0.000819958               0.999999988              -0.000363443              -0.000823483               0.999999988              -0.000355753              -0.000831252               0.999999988              -0.000343152              -0.000838201               0.999999988              -0.000323413              -0.000841411               0.999999988              -0.000296146              -0.000839771               0.999999988              -0.000261181              -0.000832692               0.999999988              -0.000218745              -0.000820325               0.999999988              -0.000169230              -0.000803244               0.999999988              -0.000113285              -0.000782119               0.999999988              -0.000052297              -0.000757883               0.999999988               0.000012421              -0.000732045               0.999999988               0.000079240              -0.000706231               0.999999988               0.000146605              -0.000681637               0.999999988              -0.000475954              -0.001057845               0.999999988              -0.000358469              -0.000973230               0.999999988              -0.000316488              -0.000936022               0.999999988              -0.000300886              -0.000924785               0.999999988              -0.000293890              -0.000927095               0.999999988              -0.000287557              -0.000935395               0.999999988              -0.000277847              -0.000945079               0.999999988              -0.000262226              -0.000953080               0.999999988              -0.000240022              -0.000957933               0.999999988              -0.000210630              -0.000958954               0.999999988              -0.000174091              -0.000955990               0.999999988              -0.000130370              -0.000949097               0.999999988              -0.000079820              -0.000938808               0.999999988              -0.000023036              -0.000925564               0.999999988               0.000039216              -0.000910188               0.999999988               0.000105639              -0.000893886               0.999999988               0.000174367              -0.000877975               0.999999988              -0.000403105              -0.001127821               0.999999988              -0.000294155              -0.001070240               0.999999988              -0.000251967              -0.001040611               0.999999988              -0.000235211              -0.001030645               0.999999988              -0.000227818              -0.001033140               0.999999988              -0.000222306              -0.001042439               0.999999988              -0.000214584              -0.001054740               0.999999988              -0.000202476              -0.001067286               0.999999988              -0.000184857              -0.001078217               0.999999988              -0.000161024              -0.001086636               0.999999988              -0.000130508              -0.001092250               0.999999988              -0.000093029              -0.001095025               0.999999988              -0.000048683              -0.001094918               0.999999988               0.000002548              -0.001092181               0.999999988               0.000060460              -0.001087224               0.999999988               0.000124699              -0.001080747               0.999999988               0.000193835              -0.001073796               0.999999988              -0.000326856              -0.001186791               0.999999988              -0.000232297              -0.001156517               0.999999988              -0.000192668              -0.001137652               0.999999988              -0.000175568              -0.001131808               0.999999988              -0.000167827              -0.001136154               0.999999988              -0.000162596              -0.001147351               0.999999988              -0.000156332              -0.001162332               0.999999988              -0.000147105              -0.001178907               0.999999988              -0.000133645              -0.001195472               0.999999988              -0.000115006              -0.001210899               0.999999988              -0.000090558              -0.001224550               0.999999988              -0.000059942              -0.001236242               0.999999988              -0.000022823              -0.001245736               0.999999988               0.000021402              -0.001253128               0.999999988               0.000073163              -0.001258457               0.999999988               0.000132586              -0.001262060               0.999999988               0.000199625              -0.001264524               0.999999988              -0.000247754              -0.001233908               0.999999988              -0.000172442              -0.001228407               0.999999988              -0.000138698              -0.001221440               0.999999988              -0.000123007              -0.001221394               0.999999988              -0.000115442              -0.001228949               0.999999988              -0.000110690              -0.001242622               0.999999988              -0.000105698              -0.001260476               0.999999988              -0.000098907              -0.001280841               0.999999988              -0.000089033              -0.001302317               0.999999988              -0.000075312              -0.001323926               0.999999988              -0.000057067              -0.001344910               0.999999988              -0.000033757              -0.001364732               0.999999988              -0.000004709              -0.001383227               0.999999988               0.000030759              -0.001400173               0.999999988               0.000073591              -0.001415335               0.999999988               0.000124826              -0.001428761               0.999999988               0.000185390              -0.001440694               0.999999988              -0.000166424              -0.001268347               0.999999988              -0.000114158              -0.001282495               0.999999988              -0.000089466              -0.001286343               0.999999988              -0.000077313              -0.001292354               0.999999988              -0.000071032              -0.001303511               0.999999988              -0.000067291              -0.001319933               0.999999988              -0.000063688              -0.001340537               0.999999988              -0.000059151              -0.001364103               0.999999988              -0.000052539              -0.001389647               0.999999988              -0.000043493              -0.001416306               0.999999988              -0.000031460              -0.001443277               0.999999988              -0.000015612              -0.001470103               0.999999988               0.000004515              -0.001496429               0.999999988               0.000029558              -0.001521848               0.999999988               0.000060539              -0.001546076               0.999999988               0.000098895              -0.001568750               0.999999988               0.000146425              -0.001589496               0.999999988              -0.000083596              -0.001289385               0.999999988              -0.000056858              -0.001316187               0.999999988              -0.000043747              -0.001327579               0.999999988              -0.000037123              -0.001338126               0.999999988              -0.000033546              -0.001352134               0.999999988              -0.000031457              -0.001370688               0.999999988              -0.000029567              -0.001393378               0.999999988              -0.000027181              -0.001419390               0.999999988              -0.000023750              -0.001447701               0.999999988              -0.000019221              -0.001477571               0.999999988              -0.000013238              -0.001508494               0.999999988              -0.000005241              -0.001540064               0.999999988               0.000004984              -0.001571812               0.999999988               0.000018032              -0.001603257               0.999999988               0.000034518              -0.001633991               0.999999988               0.000055127              -0.001663374               0.999999988               0.000081453              -0.001690651               0.999999988              -0.000000000              -0.001296484               0.999999988              -0.000000000              -0.001327676               0.999999988              -0.000000000              -0.001341743               0.999999988               0.000000000              -0.001353947               0.999999988               0.000000000              -0.001369074               0.999999988              -0.000000000              -0.001388466               0.999999988              -0.000000000              -0.001411987               0.999999988               0.000000000              -0.001438920               0.999999988               0.000000000              -0.001468194               0.999999988               0.000000000              -0.001499188               0.999999988              -0.000000000              -0.001531498               0.999999988              -0.000000000              -0.001564654               0.999999988              -0.000000000              -0.001598293               0.999999988               0.000000000              -0.001631911               0.999999988              -0.000000000              -0.001664932               0.999999988               0.000000000              -0.001696738               0.999999988              -0.000000000              -0.001726479               0.999999988               0.000891236              -0.000000000               0.999999988               0.000937603               0.000000000               0.999999988               0.000956432              -0.000000000               0.999999988               0.000966313              -0.000000000               0.999999988               0.000973939               0.000000000               0.999999988               0.000981761              -0.000000000               0.999999988               0.000990473              -0.000000000               0.999999988               0.001000127              -0.000000000               0.999999988               0.001010488              -0.000000000               0.999999988               0.001021247              -0.000000000               0.999999988               0.001032203               0.000000000               0.999999988               0.001042932               0.000000000               0.999999988               0.001052948              -0.000000000               0.999999988               0.001061777               0.000000000               0.999999988               0.001068956              -0.000000000               0.999999988               0.001073888              -0.000000000               0.999999988               0.001075720               0.000000000               0.999999988               0.000886316              -0.000122230               0.999999988               0.000928607              -0.000096222               0.999999988               0.000944809              -0.000084021               0.999999988               0.000952995              -0.000078610               0.999999988               0.000959448              -0.000076671               0.999999988               0.000966276              -0.000076225               0.999999988               0.000973995              -0.000076171               0.999999988               0.000982626              -0.000075881               0.999999988               0.000991889              -0.000075009               0.999999988               0.001001451              -0.000073288               0.999999988               0.001011002              -0.000070118               0.999999988               0.001020017              -0.000065121               0.999999988               0.001028026              -0.000058041               0.999999988               0.001034588              -0.000048681               0.999999988               0.001039295              -0.000036453               0.999999988               0.001041615              -0.000020373               0.999999988               0.001040959               0.000001109               0.999999988               0.000871701              -0.000243411               0.999999988               0.000902096              -0.000192206               0.999999988               0.000910916              -0.000169072               0.999999988               0.000914381              -0.000159429               0.999999988               0.000917540              -0.000156249               0.999999988               0.000921727              -0.000155771               0.999999988               0.000926988              -0.000155990               0.999999988               0.000933071              -0.000155684               0.999999988               0.000939431              -0.000154115               0.999999988               0.000945568              -0.000150572               0.999999988               0.000951017              -0.000144201               0.999999988               0.000955227              -0.000134438               0.999999988               0.000957836              -0.000120845               0.999999988               0.000958458              -0.000103022               0.999999988               0.000956746              -0.000080161               0.999999988               0.000952456              -0.000050835               0.999999988               0.000945449              -0.000013413               0.999999988               0.000847723              -0.000362538               0.999999988               0.000859422              -0.000287834               0.999999988               0.000857501              -0.000256069               0.999999988               0.000854520              -0.000243948               0.999999988               0.000853431              -0.000240790               0.999999988               0.000854238              -0.000241085               0.999999988               0.000856277              -0.000241952               0.999999988               0.000858711              -0.000241882               0.999999988               0.000860787              -0.000239631               0.999999988               0.000861735              -0.000234363               0.999999988               0.000861084              -0.000224961               0.999999988               0.000858426              -0.000210842               0.999999988               0.000853344              -0.000191551               0.999999988               0.000845604              -0.000166818               0.999999988               0.000835098              -0.000135937               0.999999988               0.000821896              -0.000097727               0.999999988               0.000806314              -0.000051440               0.999999988               0.000814804              -0.000478618               0.999999988               0.000802556              -0.000383139               0.999999988               0.000788523              -0.000345663               0.999999988               0.000779224              -0.000333045               0.999999988               0.000774226              -0.000331044               0.999999988               0.000771787              -0.000332777               0.999999988               0.000770415              -0.000334708               0.999999988               0.000768643              -0.000334903               0.999999988               0.000765502              -0.000331963               0.999999988               0.000760113              -0.000324734               0.999999988               0.000752053              -0.000312538               0.999999988               0.000740954              -0.000294602               0.999999988               0.000726682              -0.000270696               0.999999988               0.000709191              -0.000240598               0.999999988               0.000688624              -0.000204120               0.999999988               0.000665373              -0.000161109               0.999999988               0.000640111              -0.000111806               0.999999988               0.000773460              -0.000590623               0.999999988               0.000734295              -0.000478256               0.999999988               0.000709115              -0.000437992               0.999999988               0.000694941              -0.000426549               0.999999988               0.000686992              -0.000426475               0.999999988               0.000681915              -0.000430125               0.999999988               0.000677139              -0.000433254               0.999999988               0.000670908              -0.000433495               0.999999988               0.000661907              -0.000429464               0.999999988               0.000649259              -0.000420096               0.999999988               0.000632730              -0.000405050               0.999999988               0.000612184              -0.000383815               0.999999988               0.000587682              -0.000356111               0.999999988               0.000559518              -0.000322221               0.999999988               0.000528120              -0.000282471               0.999999988               0.000494290              -0.000237679               0.999999988               0.000459092              -0.000189066               0.999999988               0.000724386              -0.000697495               0.999999988               0.000657987              -0.000573353               0.999999988               0.000624298              -0.000532804               0.999999988               0.000607473              -0.000523464               0.999999988               0.000598154              -0.000525615               0.999999988               0.000591197              -0.000531148               0.999999988               0.000583191              -0.000534960               0.999999988               0.000571959              -0.000534867               0.999999988               0.000556133              -0.000529337               0.999999988               0.000535260              -0.000517719               0.999999988               0.000509156              -0.000500049               0.999999988               0.000478113              -0.000475889               0.999999988               0.000442415              -0.000445256               0.999999988               0.000402889              -0.000408846               0.999999988               0.000360386              -0.000367803               0.999999988               0.000316109              -0.000323559               0.999999988               0.000271283              -0.000278180               0.999999988               0.000668645              -0.000798040               0.999999988               0.000577195              -0.000668238               0.999999988               0.000538675              -0.000629236               0.999999988               0.000521976              -0.000622101               0.999999988               0.000512789              -0.000626232               0.999999988               0.000504429              -0.000633003               0.999999988               0.000492758              -0.000637059               0.999999988               0.000475616              -0.000636150               0.999999988               0.000451955              -0.000628947               0.999999988               0.000421762              -0.000615022               0.999999988               0.000385144              -0.000594687               0.999999988               0.000342590              -0.000568051               0.999999988               0.000295067              -0.000535438               0.999999988               0.000243777              -0.000498343               0.999999988               0.000190086              -0.000458308               0.999999988               0.000135514              -0.000417151               0.999999988               0.000081211              -0.000376565               0.999999988               0.000607867              -0.000890430               0.999999988               0.000494650              -0.000762822               0.999999988               0.000456738              -0.000725648               0.999999988               0.000442238              -0.000720223               0.999999988               0.000433908              -0.000725956               0.999999988               0.000423947              -0.000733405               0.999999988               0.000407760              -0.000737276               0.999999988               0.000383691              -0.000735131               0.999999988               0.000351176              -0.000726133               0.999999988               0.000310508              -0.000710143               0.999999988               0.000262221              -0.000687579               0.999999988               0.000207266              -0.000659309               0.999999988               0.000147059              -0.000626442               0.999999988               0.000083330              -0.000590872               0.999999988               0.000017947              -0.000554545               0.999999988              -0.000047747              -0.000519110               0.999999988              -0.000112810              -0.000485126               0.999999988               0.000544680              -0.000978062               0.999999988               0.000425275              -0.000869658               0.999999988               0.000385288              -0.000829395               0.999999988               0.000370700              -0.000819958               0.999999988               0.000363443              -0.000823483               0.999999988               0.000355753              -0.000831252               0.999999988               0.000343152              -0.000838201               0.999999988               0.000323413              -0.000841411               0.999999988               0.000296146              -0.000839771               0.999999988               0.000261181              -0.000832692               0.999999988               0.000218745              -0.000820325               0.999999988               0.000169230              -0.000803244               0.999999988               0.000113285              -0.000782119               0.999999988               0.000052297              -0.000757883               0.999999988              -0.000012421              -0.000732045               0.999999988              -0.000079240              -0.000706231               0.999999988              -0.000146605              -0.000681637               0.999999988               0.000475954              -0.001057845               0.999999988               0.000358469              -0.000973230               0.999999988               0.000316488              -0.000936022               0.999999988               0.000300886              -0.000924785               0.999999988               0.000293890              -0.000927095               0.999999988               0.000287557              -0.000935395               0.999999988               0.000277847              -0.000945079               0.999999988               0.000262226              -0.000953080               0.999999988               0.000240022              -0.000957933               0.999999988               0.000210630              -0.000958954               0.999999988               0.000174091              -0.000955990               0.999999988               0.000130370              -0.000949097               0.999999988               0.000079820              -0.000938808               0.999999988               0.000023036              -0.000925564               0.999999988              -0.000039216              -0.000910188               0.999999988              -0.000105639              -0.000893886               0.999999988              -0.000174367              -0.000877975               0.999999988               0.000403105              -0.001127821               0.999999988               0.000294155              -0.001070240               0.999999988               0.000251967              -0.001040611               0.999999988               0.000235211              -0.001030645               0.999999988               0.000227818              -0.001033140               0.999999988               0.000222306              -0.001042439               0.999999988               0.000214584              -0.001054740               0.999999988               0.000202476              -0.001067286               0.999999988               0.000184857              -0.001078217               0.999999988               0.000161024              -0.001086636               0.999999988               0.000130508              -0.001092250               0.999999988               0.000093029              -0.001095025               0.999999988               0.000048683              -0.001094918               0.999999988              -0.000002548              -0.001092181               0.999999988              -0.000060460              -0.001087224               0.999999988              -0.000124699              -0.001080747               0.999999988              -0.000193835              -0.001073796               0.999999988               0.000326856              -0.001186791               0.999999988               0.000232297              -0.001156517               0.999999988               0.000192668              -0.001137652               0.999999988               0.000175568              -0.001131808               0.999999988               0.000167827              -0.001136154               0.999999988               0.000162596              -0.001147351               0.999999988               0.000156332              -0.001162332               0.999999988               0.000147105              -0.001178907               0.999999988               0.000133645              -0.001195472               0.999999988               0.000115006              -0.001210899               0.999999988               0.000090558              -0.001224550               0.999999988               0.000059942              -0.001236242               0.999999988               0.000022823              -0.001245736               0.999999988              -0.000021402              -0.001253128               0.999999988              -0.000073163              -0.001258457               0.999999988              -0.000132586              -0.001262060               0.999999988              -0.000199625              -0.001264524               0.999999988               0.000247754              -0.001233908               0.999999988               0.000172442              -0.001228407               0.999999988               0.000138698              -0.001221440               0.999999988               0.000123007              -0.001221394               0.999999988               0.000115442              -0.001228949               0.999999988               0.000110690              -0.001242622               0.999999988               0.000105698              -0.001260476               0.999999988               0.000098907              -0.001280841               0.999999988               0.000089033              -0.001302317               0.999999988               0.000075312              -0.001323926               0.999999988               0.000057067              -0.001344910               0.999999988               0.000033757              -0.001364732               0.999999988               0.000004709              -0.001383227               0.999999988              -0.000030759              -0.001400173               0.999999988              -0.000073591              -0.001415335               0.999999988              -0.000124826              -0.001428761               0.999999988              -0.000185390              -0.001440694               0.999999988               0.000166424              -0.001268347               0.999999988               0.000114158              -0.001282495               0.999999988               0.000089466              -0.001286343               0.999999988               0.000077313              -0.001292354               0.999999988               0.000071032              -0.001303511               0.999999988               0.000067291              -0.001319933               0.999999988               0.000063688              -0.001340537               0.999999988               0.000059151              -0.001364103               0.999999988               0.000052539              -0.001389647               0.999999988               0.000043493              -0.001416306               0.999999988               0.000031460              -0.001443277               0.999999988               0.000015612              -0.001470103               0.999999988              -0.000004515              -0.001496429               0.999999988              -0.000029558              -0.001521848               0.999999988              -0.000060539              -0.001546076               0.999999988              -0.000098895              -0.001568750               0.999999988              -0.000146425              -0.001589496               0.999999988               0.000083596              -0.001289385               0.999999988               0.000056858              -0.001316187               0.999999988               0.000043747              -0.001327579               0.999999988               0.000037123              -0.001338126               0.999999988               0.000033546              -0.001352134               0.999999988               0.000031457              -0.001370688               0.999999988               0.000029567              -0.001393378               0.999999988               0.000027181              -0.001419390               0.999999988               0.000023750              -0.001447701               0.999999988               0.000019221              -0.001477571               0.999999988               0.000013238              -0.001508494               0.999999988               0.000005241              -0.001540064               0.999999988              -0.000004984              -0.001571812               0.999999988              -0.000018032              -0.001603257               0.999999988              -0.000034518              -0.001633991               0.999999988              -0.000055127              -0.001663374               0.999999988              -0.000081453              -0.001690651               0.999999988              -0.000000000              -0.001296484               0.999999988              -0.000000000              -0.001327676               0.999999988              -0.000000000              -0.001341743               0.999999988               0.000000000              -0.001353947               0.999999988               0.000000000              -0.001369074               0.999999988              -0.000000000              -0.001388466               0.999999988              -0.000000000              -0.001411987               0.999999988               0.000000000              -0.001438920               0.999999988               0.000000000              -0.001468194               0.999999988               0.000000000              -0.001499188               0.999999988              -0.000000000              -0.001531498               0.999999988              -0.000000000              -0.001564654               0.999999988              -0.000000000              -0.001598293               0.999999988               0.000000000              -0.001631911               0.999999988              -0.000000000              -0.001664932               0.999999988               0.000000000              -0.001696738               0.999999988              -0.000000000              -0.001726479               0.999999988               0.000891236              -0.000000000               0.999999988               0.000937603               0.000000000               0.999999988               0.000956432              -0.000000000               0.999999988               0.000966313              -0.000000000               0.999999988               0.000973939               0.000000000               0.999999988               0.000981761              -0.000000000               0.999999988               0.000990473              -0.000000000               0.999999988               0.001000127              -0.000000000               0.999999988               0.001010488              -0.000000000               0.999999988               0.001021247              -0.000000000               0.999999988               0.001032203               0.000000000               0.999999988               0.001042932               0.000000000               0.999999988               0.001052948              -0.000000000               0.999999988               0.001061777               0.000000000               0.999999988               0.001068956              -0.000000000               0.999999988               0.001073888              -0.000000000               0.999999988               0.001075720               0.000000000               0.999999988               0.000886316               0.000122230               0.999999988               0.000928607               0.000096222               0.999999988               0.000944809               0.000084021               0.999999988               0.000952995               0.000078610               0.999999988               0.000959448               0.000076671               0.999999988               0.000966276               0.000076225               0.999999988               0.000973995               0.000076171               0.999999988               0.000982626               0.000075881               0.999999988               0.000991889               0.000075009               0.999999988               0.001001451               0.000073288               0.999999988               0.001011002               0.000070118               0.999999988               0.001020017               0.000065121               0.999999988               0.001028026               0.000058041               0.999999988               0.001034588               0.000048681               0.999999988               0.001039295               0.000036453               0.999999988               0.001041615               0.000020373               0.999999988               0.001040959              -0.000001109               0.999999988               0.000871701               0.000243411               0.999999988               0.000902096               0.000192206               0.999999988               0.000910916               0.000169072               0.999999988               0.000914381               0.000159429               0.999999988               0.000917540               0.000156249               0.999999988               0.000921727               0.000155771               0.999999988               0.000926988               0.000155990               0.999999988               0.000933071               0.000155684               0.999999988               0.000939431               0.000154115               0.999999988               0.000945568               0.000150572               0.999999988               0.000951017               0.000144201               0.999999988               0.000955227               0.000134438               0.999999988               0.000957836               0.000120845               0.999999988               0.000958458               0.000103022               0.999999988               0.000956746               0.000080161               0.999999988               0.000952456               0.000050835               0.999999988               0.000945449               0.000013413               0.999999988               0.000847723               0.000362538               0.999999988               0.000859422               0.000287834               0.999999988               0.000857501               0.000256069               0.999999988               0.000854520               0.000243948               0.999999988               0.000853431               0.000240790               0.999999988               0.000854238               0.000241085               0.999999988               0.000856277               0.000241952               0.999999988               0.000858711               0.000241882               0.999999988               0.000860787               0.000239631               0.999999988               0.000861735               0.000234363               0.999999988               0.000861084               0.000224961               0.999999988               0.000858426               0.000210842               0.999999988               0.000853344               0.000191551               0.999999988               0.000845604               0.000166818               0.999999988               0.000835098               0.000135937               0.999999988               0.000821896               0.000097727               0.999999988               0.000806314               0.000051440               0.999999988               0.000814804               0.000478618               0.999999988               0.000802556               0.000383139               0.999999988               0.000788523               0.000345663               0.999999988               0.000779224               0.000333045               0.999999988               0.000774226               0.000331044               0.999999988               0.000771787               0.000332777               0.999999988               0.000770415               0.000334708               0.999999988               0.000768643               0.000334903               0.999999988               0.000765502               0.000331963               0.999999988               0.000760113               0.000324734               0.999999988               0.000752053               0.000312538               0.999999988               0.000740954               0.000294602               0.999999988               0.000726682               0.000270696               0.999999988               0.000709191               0.000240598               0.999999988               0.000688624               0.000204120               0.999999988               0.000665373               0.000161109               0.999999988               0.000640111               0.000111806               0.999999988               0.000773460               0.000590623               0.999999988               0.000734295               0.000478256               0.999999988               0.000709115               0.000437992               0.999999988               0.000694941               0.000426549               0.999999988               0.000686992               0.000426475               0.999999988               0.000681915               0.000430125               0.999999988               0.000677139               0.000433254               0.999999988               0.000670908               0.000433495               0.999999988               0.000661907               0.000429464               0.999999988               0.000649259               0.000420096               0.999999988               0.000632730               0.000405050               0.999999988               0.000612184               0.000383815               0.999999988               0.000587682               0.000356111               0.999999988               0.000559518               0.000322221               0.999999988               0.000528120               0.000282471               0.999999988               0.000494290               0.000237679               0.999999988               0.000459092               0.000189066               0.999999988               0.000724386               0.000697495               0.999999988               0.000657987               0.000573353               0.999999988               0.000624298               0.000532804               0.999999988               0.000607473               0.000523464               0.999999988               0.000598154               0.000525615               0.999999988               0.000591197               0.000531148               0.999999988               0.000583191               0.000534960               0.999999988               0.000571959               0.000534867               0.999999988               0.000556133               0.000529337               0.999999988               0.000535260               0.000517719               0.999999988               0.000509156               0.000500049               0.999999988               0.000478113               0.000475889               0.999999988               0.000442415               0.000445256               0.999999988               0.000402889               0.000408846               0.999999988               0.000360386               0.000367803               0.999999988               0.000316109               0.000323559               0.999999988               0.000271283               0.000278180               0.999999988               0.000668645               0.000798040               0.999999988               0.000577195               0.000668238               0.999999988               0.000538675               0.000629236               0.999999988               0.000521976               0.000622101               0.999999988               0.000512789               0.000626232               0.999999988               0.000504429               0.000633003               0.999999988               0.000492758               0.000637059               0.999999988               0.000475616               0.000636150               0.999999988               0.000451955               0.000628947               0.999999988               0.000421762               0.000615022               0.999999988               0.000385144               0.000594687               0.999999988               0.000342590               0.000568051               0.999999988               0.000295067               0.000535438               0.999999988               0.000243777               0.000498343               0.999999988               0.000190086               0.000458308               0.999999988               0.000135514               0.000417151               0.999999988               0.000081211               0.000376565               0.999999988               0.000607867               0.000890430               0.999999988               0.000494650               0.000762822               0.999999988               0.000456738               0.000725648               0.999999988               0.000442238               0.000720223               0.999999988               0.000433908               0.000725956               0.999999988               0.000423947               0.000733405               0.999999988               0.000407760               0.000737276               0.999999988               0.000383691               0.000735131               0.999999988               0.000351176               0.000726133               0.999999988               0.000310508               0.000710143               0.999999988               0.000262221               0.000687579               0.999999988               0.000207266               0.000659309               0.999999988               0.000147059               0.000626442               0.999999988               0.000083330               0.000590872               0.999999988               0.000017947               0.000554545               0.999999988              -0.000047747               0.000519110               0.999999988              -0.000112810               0.000485126               0.999999988               0.000544680               0.000978062               0.999999988               0.000425275               0.000869658               0.999999988               0.000385288               0.000829395               0.999999988               0.000370700               0.000819958               0.999999988               0.000363443               0.000823483               0.999999988               0.000355753               0.000831252               0.999999988               0.000343152               0.000838201               0.999999988               0.000323413               0.000841411               0.999999988               0.000296146               0.000839771               0.999999988               0.000261181               0.000832692               0.999999988               0.000218745               0.000820325               0.999999988               0.000169230               0.000803244               0.999999988               0.000113285               0.000782119               0.999999988               0.000052297               0.000757883               0.999999988              -0.000012421               0.000732045               0.999999988              -0.000079240               0.000706231               0.999999988              -0.000146605               0.000681637               0.999999988               0.000475954               0.001057845               0.999999988               0.000358469               0.000973230               0.999999988               0.000316488               0.000936022               0.999999988               0.000300886               0.000924785               0.999999988               0.000293890               0.000927095               0.999999988               0.000287557               0.000935395               0.999999988               0.000277847               0.000945079               0.999999988               0.000262226               0.000953080               0.999999988               0.000240022               0.000957933               0.999999988               0.000210630               0.000958954               0.999999988               0.000174091               0.000955990               0.999999988               0.000130370               0.000949097               0.999999988               0.000079820               0.000938808               0.999999988               0.000023036               0.000925564               0.999999988              -0.000039216               0.000910188               0.999999988              -0.000105639               0.000893886               0.999999988              -0.000174367               0.000877975               0.999999988               0.000403105               0.001127821               0.999999988               0.000294155               0.001070240               0.999999988               0.000251967               0.001040611               0.999999988               0.000235211               0.001030645               0.999999988               0.000227818               0.001033140               0.999999988               0.000222306               0.001042439               0.999999988               0.000214584               0.001054740               0.999999988               0.000202476               0.001067286               0.999999988               0.000184857               0.001078217               0.999999988               0.000161024               0.001086636               0.999999988               0.000130508               0.001092250               0.999999988               0.000093029               0.001095025               0.999999988               0.000048683               0.001094918               0.999999988              -0.000002548               0.001092181               0.999999988              -0.000060460               0.001087224               0.999999988              -0.000124699               0.001080747               0.999999988              -0.000193835               0.001073796               0.999999988               0.000326856               0.001186791               0.999999988               0.000232297               0.001156517               0.999999988               0.000192668               0.001137652               0.999999988               0.000175568               0.001131808               0.999999988               0.000167827               0.001136154               0.999999988               0.000162596               0.001147351               0.999999988               0.000156332               0.001162332               0.999999988               0.000147105               0.001178907               0.999999988               0.000133645               0.001195472               0.999999988               0.000115006               0.001210899               0.999999988               0.000090558               0.001224550               0.999999988               0.000059942               0.001236242               0.999999988               0.000022823               0.001245736               0.999999988              -0.000021402               0.001253128               0.999999988              -0.000073163               0.001258457               0.999999988              -0.000132586               0.001262060               0.999999988              -0.000199625               0.001264524               0.999999988               0.000247754               0.001233908               0.999999988               0.000172442               0.001228407               0.999999988               0.000138698               0.001221440               0.999999988               0.000123007               0.001221394               0.999999988               0.000115442               0.001228949               0.999999988               0.000110690               0.001242622               0.999999988               0.000105698               0.001260476               0.999999988               0.000098907               0.001280841               0.999999988               0.000089033               0.001302317               0.999999988               0.000075312               0.001323926               0.999999988               0.000057067               0.001344910               0.999999988               0.000033757               0.001364732               0.999999988               0.000004709               0.001383227               0.999999988              -0.000030759               0.001400173               0.999999988              -0.000073591               0.001415335               0.999999988              -0.000124826               0.001428761               0.999999988              -0.000185390               0.001440694               0.999999988               0.000166424               0.001268347               0.999999988               0.000114158               0.001282495               0.999999988               0.000089466               0.001286343               0.999999988               0.000077313               0.001292354               0.999999988               0.000071032               0.001303511               0.999999988               0.000067291               0.001319933               0.999999988               0.000063688               0.001340537               0.999999988               0.000059151               0.001364103               0.999999988               0.000052539               0.001389647               0.999999988               0.000043493               0.001416306               0.999999988               0.000031460               0.001443277               0.999999988               0.000015612               0.001470103               0.999999988              -0.000004515               0.001496429               0.999999988              -0.000029558               0.001521848               0.999999988              -0.000060539               0.001546076               0.999999988              -0.000098895               0.001568750               0.999999988              -0.000146425               0.001589496               0.999999988               0.000083596               0.001289385               0.999999988               0.000056858               0.001316187               0.999999988               0.000043747               0.001327579               0.999999988               0.000037123               0.001338126               0.999999988               0.000033546               0.001352134               0.999999988               0.000031457               0.001370688               0.999999988               0.000029567               0.001393378               0.999999988               0.000027181               0.001419390               0.999999988               0.000023750               0.001447701               0.999999988               0.000019221               0.001477571               0.999999988               0.000013238               0.001508494               0.999999988               0.000005241               0.001540064               0.999999988              -0.000004984               0.001571812               0.999999988              -0.000018032               0.001603257               0.999999988              -0.000034518               0.001633991               0.999999988              -0.000055127               0.001663374               0.999999988              -0.000081453               0.001690651               0.999999988               0.000000000               0.001296484               0.999999988              -0.000000000               0.001327676               0.999999988               0.000000000               0.001341743               0.999999988               0.000000000               0.001353947               0.999999988               0.000000000               0.001369074               0.999999988              -0.000000000               0.001388466               0.999999988               0.000000000               0.001411987               0.999999988              -0.000000000               0.001438920               0.999999988              -0.000000000               0.001468194               0.999999988              -0.000000000               0.001499188               0.999999988              -0.000000000               0.001531498               0.999999988              -0.000000000               0.001564654               0.999999988              -0.000000000               0.001598293               0.999999988               0.000000000               0.001631911               0.999999988               0.000000000               0.001664932               0.999999988               0.000000000               0.001696738               0.999999988              -0.000000000               0.001726479               0.999999988 </DataArray>
<DataArray type="Float64"                                    Name="defo"                                                      NumberOfComponents=" 3" format="ascii">
             -0.000891236              -0.000000000               0.999999988              -0.000937603               0.000000000               0.999999988              -0.000956432              -0.000000000               0.999999988              -0.000966313               0.000000000               0.999999988              -0.000973939               0.000000000               0.999999988              -0.000981761               0.000000000               0.999999988              -0.000990473              -0.000000000               0.999999988              -0.001000127              -0.000000000               0.999999988              -0.001010488              -0.000000000               0.999999988              -0.001021247               0.000000000               0.999999988              -0.001032203               0.000000000               0.999999988              -0.001042932              -0.000000000               0.999999988              -0.001052948              -0.000000000               0.999999988              -0.001061777              -0.000000000               0.999999988              -0.001068956              -0.000000000               0.999999988              -0.001073888               0.000000000               0.999999988              -0.001075720               0.000000000               0.999999988              -0.000886316               0.000122230               0.999999988              -0.000928607               0.000096222               0.999999988              -0.000944809               0.000084021               0.999999988              -0.000952995               0.000078610               0.999999988              -0.000959448               0.000076671               0.999999988              -0.000966276               0.000076225               0.999999988              -0.000973995               0.000076171               0.999999988              -0.000982626               0.000075881               0.999999988              -0.000991889               0.000075009               0.999999988              -0.001001451               0.000073288               0.999999988              -0.001011002               0.000070118               0.999999988              -0.001020017               0.000065121               0.999999988              -0.001028026               0.000058041               0.999999988              -0.001034588               0.000048681               0.999999988              -0.001039295               0.000036453               0.999999988              -0.001041615               0.000020373               0.999999988              -0.001040959              -0.000001109               0.999999988              -0.000871701               0.000243411               0.999999988              -0.000902096               0.000192206               0.999999988              -0.000910916               0.000169072               0.999999988              -0.000914381               0.000159429               0.999999988              -0.000917540               0.000156249               0.999999988              -0.000921727               0.000155771               0.999999988              -0.000926988               0.000155990               0.999999988              -0.000933071               0.000155684               0.999999988              -0.000939431               0.000154115               0.999999988              -0.000945568               0.000150572               0.999999988              -0.000951017               0.000144201               0.999999988              -0.000955227               0.000134438               0.999999988              -0.000957836               0.000120845               0.999999988              -0.000958458               0.000103022               0.999999988              -0.000956746               0.000080161               0.999999988              -0.000952456               0.000050835               0.999999988              -0.000945449               0.000013413               0.999999988              -0.000847723               0.000362538               0.999999988              -0.000859422               0.000287834               0.999999988              -0.000857501               0.000256069               0.999999988              -0.000854520               0.000243948               0.999999988              -0.000853431               0.000240790               0.999999988              -0.000854238               0.000241085               0.999999988              -0.000856277               0.000241952               0.999999988              -0.000858711               0.000241882               0.999999988              -0.000860787               0.000239631               0.999999988              -0.000861735               0.000234363               0.999999988              -0.000861084               0.000224961               0.999999988              -0.000858426               0.000210842               0.999999988              -0.000853344               0.000191551               0.999999988              -0.000845604               0.000166818               0.999999988              -0.000835098               0.000135937               0.999999988              -0.000821896               0.000097727               0.999999988              -0.000806314               0.000051440               0.999999988              -0.000814804               0.000478618               0.999999988              -0.000802556               0.000383139               0.999999988              -0.000788523               0.000345663               0.999999988              -0.000779224               0.000333045               0.999999988              -0.000774226               0.000331044               0.999999988              -0.000771787               0.000332777               0.999999988              -0.000770415               0.000334708               0.999999988              -0.000768643               0.000334903               0.999999988              -0.000765502               0.000331963               0.999999988              -0.000760113               0.000324734               0.999999988              -0.000752053               0.000312538               0.999999988              -0.000740954               0.000294602               0.999999988              -0.000726682               0.000270696               0.999999988              -0.000709191               0.000240598               0.999999988              -0.000688624               0.000204120               0.999999988              -0.000665373               0.000161109               0.999999988              -0.000640111               0.000111806               0.999999988              -0.000773460               0.000590623               0.999999988              -0.000734295               0.000478256               0.999999988              -0.000709115               0.000437992               0.999999988              -0.000694941               0.000426549               0.999999988              -0.000686992               0.000426475               0.999999988              -0.000681915               0.000430125               0.999999988              -0.000677139               0.000433254               0.999999988              -0.000670908               0.000433495               0.999999988              -0.000661907               0.000429464               0.999999988              -0.000649259               0.000420096               0.999999988              -0.000632730               0.000405050               0.999999988              -0.000612184               0.000383815               0.999999988              -0.000587682               0.000356111               0.999999988              -0.000559518               0.000322221               0.999999988              -0.000528120               0.000282471               0.999999988              -0.000494290               0.000237679               0.999999988              -0.000459092               0.000189066               0.999999988              -0.000724386               0.000697495               0.999999988              -0.000657987               0.000573353               0.999999988              -0.000624298               0.000532804               0.999999988              -0.000607473               0.000523464               0.999999988              -0.000598154               0.000525615               0.999999988              -0.000591197               0.000531148               0.999999988              -0.000583191               0.000534960               0.999999988              -0.000571959               0.000534867               0.999999988              -0.000556133               0.000529337               0.999999988              -0.000535260               0.000517719               0.999999988              -0.000509156               0.000500049               0.999999988              -0.000478113               0.000475889               0.999999988              -0.000442415               0.000445256               0.999999988              -0.000402889               0.000408846               0.999999988              -0.000360386               0.000367803               0.999999988              -0.000316109               0.000323559               0.999999988              -0.000271283               0.000278180               0.999999988              -0.000668645               0.000798040               0.999999988              -0.000577195               0.000668238               0.999999988              -0.000538675               0.000629236               0.999999988              -0.000521976               0.000622101               0.999999988              -0.000512789               0.000626232               0.999999988              -0.000504429               0.000633003               0.999999988              -0.000492758               0.000637059               0.999999988              -0.000475616               0.000636150               0.999999988              -0.000451955               0.000628947               0.999999988              -0.000421762               0.000615022               0.999999988              -0.000385144               0.000594687               0.999999988              -0.000342590               0.000568051               0.999999988              -0.000295067               0.000535438               0.999999988              -0.000243777               0.000498343               0.999999988              -0.000190086               0.000458308               0.999999988              -0.000135514               0.000417151               0.999999988              -0.000081211               0.000376565               0.999999988              -0.000607867               0.000890430               0.999999988              -0.000494650               0.000762822               0.999999988              -0.000456738               0.000725648               0.999999988              -0.000442238               0.000720223               0.999999988              -0.000433908               0.000725956               0.999999988              -0.000423947               0.000733405               0.999999988              -0.000407760               0.000737276               0.999999988              -0.000383691               0.000735131               0.999999988              -0.000351176               0.000726133               0.999999988              -0.000310508               0.000710143               0.999999988              -0.000262221               0.000687579               0.999999988              -0.000207266               0.000659309               0.999999988              -0.000147059               0.000626442               0.999999988              -0.000083330               0.000590872               0.999999988              -0.000017947               0.000554545               0.999999988               0.000047747               0.000519110               0.999999988               0.000112810               0.000485126               0.999999988              -0.000544680               0.000978062               0.999999988              -0.000425275               0.000869658               0.999999988              -0.000385288               0.000829395               0.999999988              -0.000370700               0.000819958               0.999999988              -0.000363443               0.000823483               0.999999988              -0.000355753               0.000831252               0.999999988              -0.000343152               0.000838201               0.999999988              -0.000323413               0.000841411               0.999999988              -0.000296146               0.000839771               0.999999988              -0.000261181               0.000832692               0.999999988              -0.000218745               0.000820325               0.999999988              -0.000169230               0.000803244               0.999999988              -0.000113285               0.000782119               0.999999988              -0.000052297               0.000757883               0.999999988               0.000012421               0.000732045               0.999999988               0.000079240               0.000706231               0.999999988               0.000146605               0.000681637               0.999999988              -0.000475954               0.001057845               0.999999988              -0.000358469               0.000973230               0.999999988              -0.000316488               0.000936022               0.999999988              -0.000300886               0.000924785               0.999999988              -0.000293890               0.000927095               0.999999988              -0.000287557               0.000935395               0.999999988              -0.000277847               0.000945079               0.999999988              -0.000262226               0.000953080               0.999999988              -0.000240022               0.000957933               0.999999988              -0.000210630               0.000958954               0.999999988              -0.000174091               0.000955990               0.999999988              -0.000130370               0.000949097               0.999999988              -0.000079820               0.000938808               0.999999988              -0.000023036               0.000925564               0.999999988               0.000039216               0.000910188               0.999999988               0.000105639               0.000893886               0.999999988               0.000174367               0.000877975               0.999999988              -0.000403105               0.001127821               0.999999988              -0.000294155               0.001070240               0.999999988              -0.000251967               0.001040611               0.999999988              -0.000235211               0.001030645               0.999999988              -0.000227818               0.001033140               0.999999988              -0.000222306               0.001042439               0.999999988              -0.000214584               0.001054740               0.999999988              -0.000202476               0.001067286               0.999999988              -0.000184857               0.001078217               0.999999988              -0.000161024               0.001086636               0.999999988              -0.000130508               0.001092250               0.999999988              -0.000093029               0.001095025               0.999999988              -0.000048683               0.001094918               0.999999988               0.000002548               0.001092181               0.999999988               0.000060460               0.001087224               0.999999988               0.000124699               0.001080747               0.999999988               0.000193835               0.001073796               0.999999988              -0.000326856               0.001186791               0.999999988              -0.000232297               0.001156517               0.999999988              -0.000192668               0.001137652               0.999999988              -0.000175568               0.001131808               0.999999988              -0.000167827               0.001136154               0.999999988              -0.000162596               0.001147351               0.999999988              -0.000156332               0.001162332               0.999999988              -0.000147105               0.001178907               0.999999988              -0.000133645               0.001195472               0.999999988              -0.000115006               0.001210899               0.999999988              -0.000090558               0.001224550               0.999999988              -0.000059942               0.001236242               0.999999988              -0.000022823               0.001245736               0.999999988               0.000021402               0.001253128               0.999999988               0.000073163               0.001258457               0.999999988               0.000132586               0.001262060               0.999999988               0.000199625               0.001264524               0.999999988              -0.000247754               0.001233908               0.999999988              -0.000172442               0.001228407               0.999999988              -0.000138698               0.001221440               0.999999988              -0.000123007               0.001221394               0.999999988              -0.000115442               0.001228949               0.999999988              -0.000110690               0.001242622               0.999999988              -0.000105698               0.001260476               0.999999988              -0.000098907               0.001280841               0.999999988              -0.000089033               0.001302317               0.999999988              -0.000075312               0.001323926               0.999999988              -0.000057067               0.001344910               0.999999988              -0.000033757               0.001364732               0.999999988              -0.000004709               0.001383227               0.999999988               0.000030759               0.001400173               0.999999988               0.000073591               0.001415335               0.999999988               0.000124826               0.001428761               0.999999988               0.000185390               0.001440694               0.999999988              -0.000166424               0.001268347               0.999999988              -0.000114158               0.001282495               0.999999988              -0.000089466               0.001286343               0.999999988              -0.000077313               0.001292354               0.999999988              -0.000071032               0.001303511               0.999999988              -0.000067291               0.001319933               0.999999988              -0.000063688               0.001340537               0.999999988              -0.000059151               0.001364103               0.999999988              -0.000052539               0.001389647               0.999999988              -0.000043493               0.001416306               0.999999988              -0.000031460               0.001443277               0.999999988              -0.000015612               0.001470103               0.999999988               0.000004515               0.001496429               0.999999988               0.000029558               0.001521848               0.999999988               0.000060539               0.001546076               0.999999988               0.000098895               0.001568750               0.999999988               0.000146425               0.001589496               0.999999988              -0.000083596               0.001289385               0.999999988              -0.000056858               0.001316187               0.999999988              -0.000043747               0.001327579               0.999999988              -0.000037123               0.001338126               0.999999988              -0.000033546               0.001352134               0.999999988              -0.000031457               0.001370688               0.999999988              -0.000029567               0.001393378               0.999999988              -0.000027181               0.001419390               0.999999988              -0.000023750               0.001447701               0.999999988              -0.000019221               0.001477571               0.999999988              -0.000013238               0.001508494               0.999999988              -0.000005241               0.001540064               0.999999988               0.000004984               0.001571812               0.999999988               0.000018032               0.001603257               0.999999988               0.000034518               0.001633991               0.999999988               0.000055127               0.001663374               0.999999988               0.000081453               0.001690651               0.999999988               0.000000000               0.001296484               0.999999988              -0.000000000               0.001327676               0.999999988               0.000000000               0.001341743               0.999999988               0.000000000               0.001353947               0.999999988               0.000000000               0.001369074               0.999999988              -0.000000000               0.001388466               0.999999988               0.000000000               0.001411987               0.999999988              -0.000000000               0.001438920               0.999999988              -0.000000000               0.001468194               0.999999988              -0.000000000               0.001499188               0.999999988              -0.000000000               0.001531498               0.999999988              -0.000000000               0.001564654               0.999999988              -0.000000000               0.001598293               0.999999988               0.000000000               0.001631911               0.999999988               0.000000000               0.001664932               0.999999988               0.000000000               0.001696738               0.999999988              -0.000000000               0.001726479               0.999999988              -0.000891236              -0.000000000               0.999999988              -0.000937603               0.000000000               0.999999988              -0.000956432              -0.000000000               0.999999988              -0.000966313               0.000000000               0.999999988              -0.000973939               0.000000000               0.999999988              -0.000981761               0.000000000               0.999999988              -0.000990473              -0.000000000               0.999999988              -0.001000127              -0.000000000               0.999999988              -0.001010488              -0.000000000               0.999999988              -0.001021247               0.000000000               0.999999988              -0.001032203               0.000000000               0.999999988              -0.001042932              -0.000000000               0.999999988              -0.001052948              -0.000000000               0.999999988              -0.001061777              -0.000000000               0.999999988              -0.001068956              -0.000000000               0.999999988              -0.001073888               0.000000000               0.999999988              -0.001075720               0.000000000               0.999999988              -0.000886316              -0.000122230               0.999999988              -0.000928607              -0.000096222               0.999999988              -0.000944809              -0.000084021               0.999999988              -0.000952995              -0.000078610               0.999999988              -0.000959448              -0.000076671               0.999999988              -0.000966276              -0.000076225               0.999999988              -0.000973995              -0.000076171               0.999999988              -0.000982626              -0.000075881               0.999999988              -0.000991889              -0.000075009               0.999999988              -0.001001451              -0.000073288               0.999999988              -0.001011002              -0.000070118               0.999999988              -0.001020017              -0.000065121               0.999999988              -0.001028026              -0.000058041               0.999999988              -0.001034588              -0.000048681               0.999999988              -0.001039295              -0.000036453               0.999999988              -0.001041615              -0.000020373               0.999999988              -0.001040959               0.000001109               0.999999988              -0.000871701              -0.000243411               0.999999988              -0.000902096              -0.000192206               0.999999988              -0.000910916              -0.000169072               0.999999988              -0.000914381              -0.000159429               0.999999988              -0.000917540              -0.000156249               0.999999988              -0.000921727              -0.000155771               0.999999988              -0.000926988              -0.000155990               0.999999988              -0.000933071              -0.000155684               0.999999988              -0.000939431              -0.000154115               0.999999988              -0.000945568              -0.000150572               0.999999988              -0.000951017              -0.000144201               0.999999988              -0.000955227              -0.000134438               0.999999988              -0.000957836              -0.000120845               0.999999988              -0.000958458              -0.000103022               0.999999988              -0.000956746              -0.000080161               0.999999988              -0.000952456              -0.000050835               0.999999988              -0.000945449              -0.000013413               0.999999988              -0.000847723              -0.000362538               0.999999988              -0.000859422              -0.000287834               0.999999988              -0.000857501              -0.000256069               0.999999988              -0.000854520              -0.000243948               0.999999988              -0.000853431              -0.000240790               0.999999988              -0.000854238              -0.000241085               0.999999988              -0.000856277              -0.000241952               0.999999988              -0.000858711              -0.000241882               0.999999988              -0.000860787              -0.000239631               0.999999988              -0.000861735              -0.000234363               0.999999988              -0.000861084              -0.000224961               0.999999988              -0.000858426              -0.000210842               0.999999988              -0.000853344              -0.000191551               0.999999988              -0.000845604              -0.000166818               0.999999988              -0.000835098              -0.000135937               0.999999988              -0.000821896              -0.000097727               0.999999988              -0.000806314              -0.000051440               0.999999988              -0.000814804              -0.000478618               0.999999988              -0.000802556              -0.000383139               0.999999988              -0.000788523              -0.000345663               0.999999988              -0.000779224              -0.000333045               0.999999988              -0.000774226              -0.000331044               0.999999988              -0.000771787              -0.000332777               0.999999988              -0.000770415              -0.000334708               0.999999988              -0.000768643              -0.000334903               0.999999988              -0.000765502              -0.000331963               0.999999988              -0.000760113              -0.000324734               0.999999988              -0.000752053              -0.000312538               0.999999988              -0.000740954              -0.000294602               0.999999988              -0.000726682              -0.000270696               0.999999988              -0.000709191              -0.000240598               0.999999988              -0.000688624              -0.000204120               0.999999988              -0.000665373              -0.000161109               0.999999988              -0.000640111              -0.000111806               0.999999988              -0.000773460              -0.000590623               0.999999988              -0.000734295              -0.000478256               0.999999988              -0.000709115              -0.000437992               0.999999988              -0.000694941              -0.000426549               0.999999988              -0.000686992              -0.000426475               0.999999988              -0.000681915              -0.000430125               0.999999988              -0.000677139              -0.000433254               0.999999988              -0.000670908              -0.000433495               0.999999988              -0.000661907              -0.000429464               0.999999988              -0.000649259              -0.000420096               0.999999988              -0.000632730              -0.000405050               0.999999988              -0.000612184              -0.000383815               0.999999988              -0.000587682              -0.000356111               0.999999988              -0.000559518              -0.000322221               0.999999988              -0.000528120              -0.000282471               0.999999988              -0.000494290              -0.000237679               0.999999988              -0.000459092              -0.000189066               0.999999988              -0.000724386              -0.000697495               0.999999988              -0.000657987              -0.000573353               0.999999988              -0.000624298              -0.000532804               0.999999988              -0.000607473              -0.000523464               0.999999988              -0.000598154              -0.000525615               0.999999988              -0.000591197              -0.000531148               0.999999988              -0.000583191              -0.000534960               0.999999988              -0.000571959              -0.000534867               0.999999988              -0.000556133              -0.000529337               0.999999988              -0.000535260              -0.000517719               0.999999988              -0.000509156              -0.000500049               0.999999988              -0.000478113              -0.000475889               0.999999988              -0.000442415              -0.000445256               0.999999988              -0.000402889              -0.000408846               0.999999988              -0.000360386              -0.000367803               0.999999988              -0.000316109              -0.000323559               0.999999988              -0.000271283              -0.000278180               0.999999988              -0.000668645              -0.000798040               0.999999988              -0.000577195              -0.000668238               0.999999988              -0.000538675              -0.000629236               0.999999988              -0.000521976              -0.000622101               0.999999988              -0.000512789              -0.000626232               0.999999988              -0.000504429              -0.000633003               0.999999988              -0.000492758              -0.000637059               0.999999988              -0.000475616              -0.000636150               0.999999988              -0.000451955              -0.000628947               0.999999988              -0.000421762              -0.000615022               0.999999988              -0.000385144              -0.000594687               0.999999988              -0.000342590              -0.000568051               0.999999988              -0.000295067              -0.000535438               0.999999988              -0.000243777              -0.000498343               0.999999988              -0.000190086              -0.000458308               0.999999988              -0.000135514              -0.000417151               0.999999988              -0.000081211              -0.000376565               0.999999988              -0.000607867              -0.000890430               0.999999988              -0.000494650              -0.000762822               0.999999988              -0.000456738              -0.000725648               0.999999988              -0.000442238              -0.000720223               0.999999988              -0.000433908              -0.000725956               0.999999988              -0.000423947              -0.000733405               0.999999988              -0.000407760              -0.000737276               0.999999988              -0.000383691              -0.000735131               0.999999988              -0.000351176              -0.000726133               0.999999988              -0.000310508              -0.000710143               0.999999988              -0.000262221              -0.000687579               0.999999988              -0.000207266              -0.000659309               0.999999988              -0.000147059              -0.000626442               0.999999988              -0.000083330              -0.000590872               0.999999988              -0.000017947              -0.000554545               0.999999988               0.000047747              -0.000519110               0.999999988               0.000112810              -0.000485126               0.999999988              -0.000544680              -0.000978062               0.999999988              -0.000425275              -0.000869658               0.999999988              -0.000385288              -0.000829395               0.999999988              -0.000370700              -0.000819958               0.999999988              -0.000363443              -0.000823483               0.999999988              -0.000355753              -0.000831252               0.999999988              -0.000343152              -0.000838201               0.999999988              -0.000323413              -0.000841411               0.999999988              -0.000296146              -0.000839771               0.999999988              -0.000261181              -0.000832692               0.999999988              -0.000218745              -0.000820325               0.999999988              -0.000169230              -0.000803244               0.999999988              -0.000113285              -0.000782119               0.999999988              -0.000052297              -0.000757883               0.999999988               0.000012421              -0.000732045               0.999999988               0.000079240              -0.000706231               0.999999988               0.000146605              -0.000681637               0.999999988              -0.000475954              -0.001057845               0.999999988              -0.000358469              -0.000973230               0.999999988              -0.000316488              -0.000936022               0.999999988              -0.000300886              -0.000924785               0.999999988              -0.000293890              -0.000927095               0.999999988              -0.000287557              -0.000935395               0.999999988              -0.000277847              -0.000945079               0.999999988              -0.000262226              -0.000953080               0.999999988              -0.000240022              -0.000957933               0.999999988              -0.000210630              -0.000958954               0.999999988              -0.000174091              -0.000955990               0.999999988              -0.000130370              -0.000949097               0.999999988              -0.000079820              -0.000938808               0.999999988              -0.000023036              -0.000925564               0.999999988               0.000039216              -0.000910188               0.999999988               0.000105639              -0.000893886               0.999999988               0.000174367              -0.000877975               0.999999988              -0.000403105              -0.001127821               0.999999988              -0.000294155              -0.001070240               0.999999988              -0.000251967              -0.001040611               0.999999988              -0.000235211              -0.001030645               0.999999988              -0.000227818              -0.001033140               0.999999988              -0.000222306              -0.001042439               0.999999988              -0.000214584              -0.001054740               0.999999988              -0.000202476              -0.001067286               0.999999988              -0.000184857              -0.001078217               0.999999988              -0.000161024              -0.001086636               0.999999988              -0.000130508              -0.001092250               0.999999988              -0.000093029              -0.001095025               0.999999988              -0.000048683              -0.001094918               0.999999988               0.000002548              -0.001092181               0.999999988               0.000060460              -0.001087224               0.999999988               0.000124699              -0.001080747               0.999999988               0.000193835              -0.001073796               0.999999988              -0.000326856              -0.001186791               0.999999988              -0.000232297              -0.001156517               0.999999988              -0.000192668              -0.001137652               0.999999988              -0.000175568              -0.001131808               0.999999988              -0.000167827              -0.001136154               0.999999988              -0.000162596              -0.001147351               0.999999988              -0.000156332              -0.001162332               0.999999988              -0.000147105              -0.001178907               0.999999988              -0.000133645              -0.001195472               0.999999988              -0.000115006              -0.001210899               0.999999988              -0.000090558              -0.001224550               0.999999988              -0.000059942              -0.001236242               0.999999988              -0.000022823              -0.001245736               0.999999988               0.000021402              -0.001253128               0.999999988               0.000073163              -0.001258457               0.999999988               0.000132586              -0.001262060               0.999999988               0.000199625              -0.001264524               0.999999988              -0.000247754              -0.001233908               0.999999988              -0.000172442              -0.001228407               0.999999988              -0.000138698              -0.001221440               0.999999988              -0.000123007              -0.001221394               0.999999988              -0.000115442              -0.001228949               0.999999988              -0.000110690              -0.001242622               0.999999988              -0.000105698              -0.001260476               0.999999988              -0.000098907              -0.001280841               0.999999988              -0.000089033              -0.001302317               0.999999988              -0.000075312              -0.001323926               0.999999988              -0.000057067              -0.001344910               0.999999988              -0.000033757              -0.001364732               0.999999988              -0.000004709              -0.001383227               0.999999988               0.000030759              -0.001400173               0.999999988               0.000073591              -0.001415335               0.999999988               0.000124826              -0.001428761               0.999999988               0.000185390              -0.001440694               0.999999988              -0.000166424              -0.001268347               0.999999988              -0.000114158              -0.001282495               0.999999988              -0.000089466              -0.001286343               0.999999988              -0.000077313              -0.001292354               0.999999988              -0.000071032              -0.001303511               0.999999988              -0.000067291              -0.001319933               0.999999988              -0.000063688              -0.001340537               0.999999988              -0.000059151              -0.001364103               0.999999988              -0.000052539              -0.001389647               0.999999988              -0.000043493              -0.001416306               0.999999988              -0.000031460              -0.001443277               0.999999988              -0.000015612              -0.001470103               0.999999988               0.000004515              -0.001496429               0.999999988               0.000029558              -0.001521848               0.999999988               0.000060539              -0.001546076               0.999999988               0.000098895              -0.001568750               0.999999988               0.000146425              -0.001589496               0.999999988              -0.000083596              -0.001289385               0.999999988              -0.000056858              -0.001316187               0.999999988              -0.000043747              -0.001327579               0.999999988              -0.000037123              -0.001338126               0.999999988              -0.000033546              -0.001352134               0.999999988              -0.000031457              -0.001370688               0.999999988              -0.000029567              -0.001393378               0.999999988              -0.000027181              -0.001419390               0.999999988              -0.000023750              -0.001447701               0.999999988              -0.000019221              -0.001477571               0.999999988              -0.000013238              -0.001508494               0.999999988              -0.000005241              -0.001540064               0.999999988               0.000004984              -0.001571812               0.999999988               0.000018032              -0.001603257               0.999999988               0.000034518              -0.001633991               0.999999988               0.000055127              -0.001663374               0.999999988               0.000081453              -0.001690651               0.999999988              -0.000000000              -0.001296484               0.999999988              -0.000000000              -0.001327676               0.999999988              -0.000000000              -0.001341743               0.999999988               0.000000000              -0.001353947               0.999999988               0.000000000              -0.001369074               0.999999988              -0.000000000              -0.001388466               0.999999988              -0.000000000              -0.001411987               0.999999988               0.000000000              -0.001438920               0.999999988               0.000000000              -0.001468194               0.999999988               0.000000000              -0.001499188               0.999999988              -0.000000000              -0.001531498               0.999999988              -0.000000000              -0.001564654               0.999999988              -0.000000000              -0.001598293               0.999999988               0.000000000              -0.001631911               0.999999988              -0.000000000              -0.001664932               0.999999988               0.000000000              -0.001696738               0.999999988              -0.000000000              -0.001726479               0.999999988               0.000891236              -0.000000000               0.999999988               0.000937603               0.000000000               0.999999988               0.000956432              -0.000000000               0.999999988               0.000966313              -0.000000000               0.999999988               0.000973939               0.000000000               0.999999988               0.000981761              -0.000000000               0.999999988               0.000990473              -0.000000000               0.999999988               0.001000127              -0.000000000               0.999999988               0.001010488              -0.000000000               0.999999988               0.001021247              -0.000000000               0.999999988               0.001032203               0.000000000               0.999999988               0.001042932               0.000000000               0.999999988               0.001052948              -0.000000000               0.999999988               0.001061777               0.000000000               0.999999988               0.001068956              -0.000000000               0.999999988               0.001073888              -0.000000000               0.999999988               0.001075720               0.000000000               0.999999988               0.000886316              -0.000122230               0.999999988               0.000928607              -0.000096222               0.999999988               0.000944809              -0.000084021               0.999999988               0.000952995              -0.000078610               0.999999988               0.000959448              -0.000076671               0.999999988               0.000966276              -0.000076225               0.999999988               0.000973995              -0.000076171               0.999999988               0.000982626              -0.000075881               0.999999988               0.000991889              -0.000075009               0.999999988               0.001001451              -0.000073288               0.999999988               0.001011002              -0.000070118               0.999999988               0.001020017              -0.000065121               0.999999988               0.001028026              -0.000058041               0.999999988               0.001034588              -0.000048681               0.999999988               0.001039295              -0.000036453               0.999999988               0.001041615              -0.000020373               0.999999988               0.001040959               0.000001109               0.999999988               0.000871701              -0.000243411               0.999999988               0.000902096              -0.000192206               0.999999988               0.000910916              -0.000169072               0.999999988               0.000914381              -0.000159429               0.999999988               0.000917540              -0.000156249               0.999999988               0.000921727              -0.000155771               0.999999988               0.000926988              -0.000155990               0.999999988               0.000933071              -0.000155684               0.999999988               0.000939431              -0.000154115               0.999999988               0.000945568              -0.000150572               0.999999988               0.000951017              -0.000144201               0.999999988               0.000955227              -0.000134438               0.999999988               0.000957836              -0.000120845               0.999999988               0.000958458              -0.000103022               0.999999988               0.000956746              -0.000080161               0.999999988               0.000952456              -0.000050835               0.999999988               0.000945449              -0.000013413               0.999999988               0.000847723              -0.000362538               0.999999988               0.000859422              -0.000287834               0.999999988               0.000857501              -0.000256069               0.999999988               0.000854520              -0.000243948               0.999999988               0.000853431              -0.000240790               0.999999988               0.000854238              -0.000241085               0.999999988               0.000856277              -0.000241952               0.999999988               0.000858711              -0.000241882               0.999999988               0.000860787              -0.000239631               0.999999988               0.000861735              -0.000234363               0.999999988               0.000861084              -0.000224961               0.999999988               0.000858426              -0.000210842               0.999999988               0.000853344              -0.000191551               0.999999988               0.000845604              -0.000166818               0.999999988               0.000835098              -0.000135937               0.999999988               0.000821896              -0.000097727               0.999999988               0.000806314              -0.000051440               0.999999988               0.000814804              -0.000478618               0.999999988               0.000802556              -0.000383139               0.999999988               0.000788523              -0.000345663               0.999999988               0.000779224              -0.000333045               0.999999988               0.000774226              -0.000331044               0.999999988               0.000771787              -0.000332777               0.999999988               0.000770415              -0.000334708               0.999999988               0.000768643              -0.000334903               0.999999988               0.000765502              -0.000331963               0.999999988               0.000760113              -0.000324734               0.999999988               0.000752053              -0.000312538               0.999999988               0.000740954              -0.000294602               0.999999988               0.000726682              -0.000270696               0.999999988               0.000709191              -0.000240598               0.999999988               0.000688624              -0.000204120               0.999999988               0.000665373              -0.000161109               0.999999988               0.000640111              -0.000111806               0.999999988               0.000773460              -0.000590623               0.999999988               0.000734295              -0.000478256               0.999999988               0.000709115              -0.000437992               0.999999988               0.000694941              -0.000426549               0.999999988               0.000686992              -0.000426475               0.999999988               0.000681915              -0.000430125               0.999999988               0.000677139              -0.000433254               0.999999988               0.000670908              -0.000433495               0.999999988               0.000661907              -0.000429464               0.999999988               0.000649259              -0.000420096               0.999999988               0.000632730              -0.000405050               0.999999988               0.000612184              -0.000383815               0.999999988               0.000587682              -0.000356111               0.999999988               0.000559518              -0.000322221               0.999999988               0.000528120              -0.000282471               0.999999988               0.000494290              -0.000237679               0.999999988               0.000459092              -0.000189066               0.999999988               0.000724386              -0.000697495               0.999999988               0.000657987              -0.000573353               0.999999988               0.000624298              -0.000532804               0.999999988               0.000607473              -0.000523464               0.999999988               0.000598154              -0.000525615               0.999999988               0.000591197              -0.000531148               0.999999988               0.000583191              -0.000534960               0.999999988               0.000571959              -0.000534867               0.999999988               0.000556133              -0.000529337               0.999999988               0.000535260              -0.000517719               0.999999988               0.000509156              -0.000500049               0.999999988               0.000478113              -0.000475889               0.999999988               0.000442415              -0.000445256               0.999999988               0.000402889              -0.000408846               0.999999988               0.000360386              -0.000367803               0.999999988               0.000316109              -0.000323559               0.999999988               0.000271283              -0.000278180               0.999999988               0.000668645              -0.000798040               0.999999988               0.000577195              -0.000668238               0.999999988               0.000538675              -0.000629236               0.999999988               0.000521976              -0.000622101               0.999999988               0.000512789              -0.000626232               0.999999988               0.000504429              -0.000633003               0.999999988               0.000492758              -0.000637059               0.999999988               0.000475616              -0.000636150               0.999999988               0.000451955              -0.000628947               0.999999988               0.000421762              -0.000615022               0.999999988               0.000385144              -0.000594687               0.999999988               0.000342590              -0.000568051               0.999999988               0.000295067              -0.000535438               0.999999988               0.000243777              -0.000498343               0.999999988               0.000190086              -0.000458308               0.999999988               0.000135514              -0.000417151               0.999999988               0.000081211              -0.000376565               0.999999988               0.000607867              -0.000890430               0.999999988               0.000494650              -0.000762822               0.999999988               0.000456738              -0.000725648               0.999999988               0.000442238              -0.000720223               0.999999988               0.000433908              -0.000725956               0.999999988               0.000423947              -0.000733405               0.999999988               0.000407760              -0.000737276               0.999999988               0.000383691              -0.000735131               0.999999988               0.000351176              -0.000726133               0.999999988               0.000310508              -0.000710143               0.999999988               0.000262221              -0.000687579               0.999999988               0.000207266              -0.000659309               0.999999988               0.000147059              -0.000626442               0.999999988               0.000083330              -0.000590872               0.999999988               0.000017947              -0.000554545               0.999999988              -0.000047747              -0.000519110               0.999999988              -0.000112810              -0.000485126               0.999999988               0.000544680              -0.000978062               0.999999988               0.000425275              -0.000869658               0.999999988               0.000385288              -0.000829395               0.999999988               0.000370700              -0.000819958               0.999999988               0.000363443              -0.000823483               0.999999988               0.000355753              -0.000831252               0.999999988               0.000343152              -0.000838201               0.999999988               0.000323413              -0.000841411               0.999999988               0.000296146              -0.000839771               0.999999988               0.000261181              -0.000832692               0.999999988               0.000218745              -0.000820325               0.999999988               0.000169230              -0.000803244               0.999999988               0.000113285              -0.000782119               0.999999988               0.000052297              -0.000757883               0.999999988              -0.000012421              -0.000732045               0.999999988              -0.000079240              -0.000706231               0.999999988              -0.000146605              -0.000681637               0.999999988               0.000475954              -0.001057845               0.999999988               0.000358469              -0.000973230               0.999999988               0.000316488              -0.000936022               0.999999988               0.000300886              -0.000924785               0.999999988               0.000293890              -0.000927095               0.999999988               0.000287557              -0.000935395               0.999999988               0.000277847              -0.000945079               0.999999988               0.000262226              -0.000953080               0.999999988               0.000240022              -0.000957933               0.999999988               0.000210630              -0.000958954               0.999999988               0.000174091              -0.000955990               0.999999988               0.000130370              -0.000949097               0.999999988               0.000079820              -0.000938808               0.999999988               0.000023036              -0.000925564               0.999999988              -0.000039216              -0.000910188               0.999999988              -0.000105639              -0.000893886               0.999999988              -0.000174367              -0.000877975               0.999999988               0.000403105              -0.001127821               0.999999988               0.000294155              -0.001070240               0.999999988               0.000251967              -0.001040611               0.999999988               0.000235211              -0.001030645               0.999999988               0.000227818              -0.001033140               0.999999988               0.000222306              -0.001042439               0.999999988               0.000214584              -0.001054740               0.999999988               0.000202476              -0.001067286               0.999999988               0.000184857              -0.001078217               0.999999988               0.000161024              -0.001086636               0.999999988               0.000130508              -0.001092250               0.999999988               0.000093029              -0.001095025               0.999999988               0.000048683              -0.001094918               0.999999988              -0.000002548              -0.001092181               0.999999988              -0.000060460              -0.001087224               0.999999988              -0.000124699              -0.001080747               0.999999988              -0.000193835              -0.001073796               0.999999988               0.000326856              -0.001186791               0.999999988               0.000232297              -0.001156517               0.999999988               0.000192668              -0.001137652               0.999999988               0.000175568              -0.001131808               0.999999988               0.000167827              -0.001136154               0.999999988               0.000162596              -0.001147351               0.999999988               0.000156332              -0.001162332               0.999999988               0.000147105              -0.001178907               0.999999988               0.000133645              -0.001195472               0.999999988               0.000115006              -0.001210899               0.999999988               0.000090558              -0.001224550               0.999999988               0.000059942              -0.001236242               0.999999988               0.000022823              -0.001245736               0.999999988              -0.000021402              -0.001253128               0.999999988              -0.000073163              -0.001258457               0.999999988              -0.000132586              -0.001262060               0.999999988              -0.000199625              -0.001264524               0.999999988               0.000247754              -0.001233908               0.999999988               0.000172442              -0.001228407               0.999999988               0.000138698              -0.001221440               0.999999988               0.000123007              -0.001221394               0.999999988               0.000115442              -0.001228949               0.999999988               0.000110690              -0.001242622               0.999999988               0.000105698              -0.001260476               0.999999988               0.000098907              -0.001280841               0.999999988               0.000089033              -0.001302317               0.999999988               0.000075312              -0.001323926               0.999999988               0.000057067              -0.001344910               0.999999988               0.000033757              -0.001364732               0.999999988               0.000004709              -0.001383227               0.999999988              -0.000030759              -0.001400173               0.999999988              -0.000073591              -0.001415335               0.999999988              -0.000124826              -0.001428761               0.999999988              -0.000185390              -0.001440694               0.999999988               0.000166424              -0.001268347               0.999999988               0.000114158              -0.001282495               0.999999988               0.000089466              -0.001286343               0.999999988               0.000077313              -0.001292354               0.999999988               0.000071032              -0.001303511               0.999999988               0.000067291              -0.001319933               0.999999988               0.000063688              -0.001340537               0.999999988               0.000059151              -0.001364103               0.999999988               0.000052539              -0.001389647               0.999999988               0.000043493              -0.001416306               0.999999988               0.000031460              -0.001443277               0.999999988               0.000015612              -0.001470103               0.999999988              -0.000004515              -0.001496429               0.999999988              -0.000029558              -0.001521848               0.999999988              -0.000060539              -0.001546076               0.999999988              -0.000098895              -0.001568750               0.999999988              -0.000146425              -0.001589496               0.999999988               0.000083596              -0.001289385               0.999999988               0.000056858              -0.001316187               0.999999988               0.000043747              -0.001327579               0.999999988               0.000037123              -0.001338126               0.999999988               0.000033546              -0.001352134               0.999999988               0.000031457              -0.001370688               0.999999988               0.000029567              -0.001393378               0.999999988               0.000027181              -0.001419390               0.999999988               0.000023750              -0.001447701               0.999999988               0.000019221              -0.001477571               0.999999988               0.000013238              -0.001508494               0.999999988               0.000005241              -0.001540064               0.999999988              -0.000004984              -0.001571812               0.999999988              -0.000018032              -0.001603257               0.999999988              -0.000034518              -0.001633991               0.999999988              -0.000055127              -0.001663374               0.999999988              -0.000081453              -0.001690651               0.999999988              -0.000000000              -0.001296484               0.999999988              -0.000000000              -0.001327676               0.999999988              -0.000000000              -0.001341743               0.999999988               0.000000000              -0.001353947               0.999999988               0.000000000              -0.001369074               0.999999988              -0.000000000              -0.001388466               0.999999988              -0.000000000              -0.001411987               0.999999988               0.000000000              -0.001438920               0.999999988               0.000000000              -0.001468194               0.999999988               0.000000000              -0.001499188               0.999999988              -0.000000000              -0.001531498               0.999999988              -0.000000000              -0.001564654               0.999999988              -0.000000000              -0.001598293               0.999999988               0.000000000              -0.001631911               0.999999988              -0.000000000              -0.001664932               0.999999988               0.000000000              -0.001696738               0.999999988              -0.000000000              -0.001726479               0.999999988               0.000891236              -0.000000000               0.999999988               0.000937603               0.000000000               0.999999988               0.000956432              -0.000000000               0.999999988               0.000966313              -0.000000000               0.999999988               0.000973939               0.000000000               0.999999988               0.000981761              -0.000000000               0.999999988               0.000990473              -0.000000000               0.999999988               0.001000127              -0.000000000               0.999999988               0.001010488              -0.000000000               0.999999988               0.001021247              -0.000000000               0.999999988               0.001032203               0.000000000               0.999999988               0.001042932               0.000000000               0.999999988               0.001052948              -0.000000000               0.999999988               0.001061777               0.000000000               0.999999988               0.001068956              -0.000000000               0.999999988               0.001073888              -0.000000000               0.999999988               0.001075720               0.000000000               0.999999988               0.000886316               0.000122230               0.999999988               0.000928607               0.000096222               0.999999988               0.000944809               0.000084021               0.999999988               0.000952995               0.000078610               0.999999988               0.000959448               0.000076671               0.999999988               0.000966276               0.000076225               0.999999988               0.000973995               0.000076171               0.999999988               0.000982626               0.000075881               0.999999988               0.000991889               0.000075009               0.999999988               0.001001451               0.000073288               0.999999988               0.001011002               0.000070118               0.999999988               0.001020017               0.000065121               0.999999988               0.001028026               0.000058041               0.999999988               0.001034588               0.000048681               0.999999988               0.001039295               0.000036453               0.999999988               0.001041615               0.000020373               0.999999988               0.001040959              -0.000001109               0.999999988               0.000871701               0.000243411               0.999999988               0.000902096               0.000192206               0.999999988               0.000910916               0.000169072               0.999999988               0.000914381               0.000159429               0.999999988               0.000917540               0.000156249               0.999999988               0.000921727               0.000155771               0.999999988               0.000926988               0.000155990               0.999999988               0.000933071               0.000155684               0.999999988               0.000939431               0.000154115               0.999999988               0.000945568               0.000150572               0.999999988               0.000951017               0.000144201               0.999999988               0.000955227               0.000134438               0.999999988               0.000957836               0.000120845               0.999999988               0.000958458               0.000103022               0.999999988               0.000956746               0.000080161               0.999999988               0.000952456               0.000050835               0.999999988               0.000945449               0.000013413               0.999999988               0.000847723               0.000362538               0.999999988               0.000859422               0.000287834               0.999999988               0.000857501               0.000256069               0.999999988               0.000854520               0.000243948               0.999999988               0.000853431               0.000240790               0.999999988               0.000854238               0.000241085               0.999999988               0.000856277               0.000241952               0.999999988               0.000858711               0.000241882               0.999999988               0.000860787               0.000239631               0.999999988               0.000861735               0.000234363               0.999999988               0.000861084               0.000224961               0.999999988               0.000858426               0.000210842               0.999999988               0.000853344               0.000191551               0.999999988               0.000845604               0.000166818               0.999999988               0.000835098               0.000135937               0.999999988               0.000821896               0.000097727               0.999999988               0.000806314               0.000051440               0.999999988               0.000814804               0.000478618               0.999999988               0.000802556               0.000383139               0.999999988               0.000788523               0.000345663               0.999999988               0.000779224               0.000333045               0.999999988               0.000774226               0.000331044               0.999999988               0.000771787               0.000332777               0.999999988               0.000770415               0.000334708               0.999999988               0.000768643               0.000334903               0.999999988               0.000765502               0.000331963               0.999999988               0.000760113               0.000324734               0.999999988               0.000752053               0.000312538               0.999999988               0.000740954               0.000294602               0.999999988               0.000726682               0.000270696               0.999999988               0.000709191               0.000240598               0.999999988               0.000688624               0.000204120               0.999999988               0.000665373               0.000161109               0.999999988               0.000640111               0.000111806               0.999999988               0.000773460               0.000590623               0.999999988               0.000734295               0.000478256               0.999999988               0.000709115               0.000437992               0.999999988               0.000694941               0.000426549               0.999999988               0.000686992               0.000426475               0.999999988               0.000681915               0.000430125               0.999999988               0.000677139               0.000433254               0.999999988               0.000670908               0.000433495               0.999999988               0.000661907               0.000429464               0.999999988               0.000649259               0.000420096               0.999999988               0.000632730               0.000405050               0.999999988               0.000612184               0.000383815               0.999999988               0.000587682               0.000356111               0.999999988               0.000559518               0.000322221               0.999999988               0.000528120               0.000282471               0.999999988               0.000494290               0.000237679               0.999999988               0.000459092               0.000189066               0.999999988               0.000724386               0.000697495               0.999999988               0.000657987               0.000573353               0.999999988               0.000624298               0.000532804               0.999999988               0.000607473               0.000523464               0.999999988               0.000598154               0.000525615               0.999999988               0.000591197               0.000531148               0.999999988               0.000583191               0.000534960               0.999999988               0.000571959               0.000534867               0.999999988               0.000556133               0.000529337               0.999999988               0.000535260               0.000517719               0.999999988               0.000509156               0.000500049               0.999999988               0.000478113               0.000475889               0.999999988               0.000442415               0.000445256               0.999999988               0.000402889               0.000408846               0.999999988               0.000360386               0.000367803               0.999999988               0.000316109               0.000323559               0.999999988               0.000271283               0.000278180               0.999999988               0.000668645               0.000798040               0.999999988               0.000577195               0.000668238               0.999999988               0.000538675               0.000629236               0.999999988               0.000521976               0.000622101               0.999999988               0.000512789               0.000626232               0.999999988               0.000504429               0.000633003               0.999999988               0.000492758               0.000637059               0.999999988               0.000475616               0.000636150               0.999999988               0.000451955               0.000628947               0.999999988               0.000421762               0.000615022               0.999999988               0.000385144               0.000594687               0.999999988               0.000342590               0.000568051               0.999999988               0.000295067               0.000535438               0.999999988               0.000243777               0.000498343               0.999999988               0.000190086               0.000458308               0.999999988               0.000135514               0.000417151               0.999999988               0.000081211               0.000376565               0.999999988               0.000607867               0.000890430               0.999999988               0.000494650               0.000762822               0.999999988               0.000456738               0.000725648               0.999999988               0.000442238               0.000720223               0.999999988               0.000433908               0.000725956               0.999999988               0.000423947               0.000733405               0.999999988               0.000407760               0.000737276               0.999999988               0.000383691               0.000735131               0.999999988               0.000351176               0.000726133               0.999999988               0.000310508               0.000710143               0.999999988               0.000262221               0.000687579               0.999999988               0.000207266               0.000659309               0.999999988               0.000147059               0.000626442               0.999999988               0.000083330               0.000590872               0.999999988               0.000017947               0.000554545               0.999999988              -0.000047747               0.000519110               0.999999988              -0.000112810               0.000485126               0.999999988               0.000544680               0.000978062               0.999999988               0.000425275               0.000869658               0.999999988               0.000385288               0.000829395               0.999999988               0.000370700               0.000819958               0.999999988               0.000363443               0.000823483               0.999999988               0.000355753               0.000831252               0.999999988               0.000343152               0.000838201               0.999999988               0.000323413               0.000841411               0.999999988               0.000296146               0.000839771               0.999999988               0.000261181               0.000832692               0.999999988               0.000218745               0.000820325               0.999999988               0.000169230               0.000803244               0.999999988               0.000113285               0.000782119               0.999999988               0.000052297               0.000757883               0.999999988              -0.000012421               0.000732045               0.999999988              -0.000079240               0.000706231               0.999999988              -0.000146605               0.000681637               0.999999988               0.000475954               0.001057845               0.999999988               0.000358469               0.000973230               0.999999988               0.000316488               0.000936022               0.999999988               0.000300886               0.000924785               0.999999988               0.000293890               0.000927095               0.999999988               0.000287557               0.000935395               0.999999988               0.000277847               0.000945079               0.999999988               0.000262226               0.000953080               0.999999988               0.000240022               0.000957933               0.999999988               0.000210630               0.000958954               0.999999988               0.000174091               0.000955990               0.999999988               0.000130370               0.000949097               0.999999988               0.000079820               0.000938808               0.999999988               0.000023036               0.000925564               0.999999988              -0.000039216               0.000910188               0.999999988              -0.000105639               0.000893886               0.999999988              -0.000174367               0.000877975               0.999999988               0.000403105               0.001127821               0.999999988               0.000294155               0.001070240               0.999999988               0.000251967               0.001040611               0.999999988               0.000235211               0.001030645               0.999999988               0.000227818               0.001033140               0.999999988               0.000222306               0.001042439               0.999999988               0.000214584               0.001054740               0.999999988               0.000202476               0.001067286               0.999999988               0.000184857               0.001078217               0.999999988               0.000161024               0.001086636               0.999999988               0.000130508               0.001092250               0.999999988               0.000093029               0.001095025               0.999999988               0.000048683               0.001094918               0.999999988              -0.000002548               0.001092181               0.999999988              -0.000060460               0.001087224               0.999999988              -0.000124699               0.001080747               0.999999988              -0.000193835               0.001073796               0.999999988               0.000326856               0.001186791               0.999999988               0.000232297               0.001156517               0.999999988               0.000192668               0.001137652               0.999999988               0.000175568               0.001131808               0.999999988               0.000167827               0.001136154               0.999999988               0.000162596               0.001147351               0.999999988               0.000156332               0.001162332               0.999999988               0.000147105               0.001178907               0.999999988               0.000133645               0.001195472               0.999999988               0.000115006               0.001210899               0.999999988               0.000090558               0.001224550               0.999999988               0.000059942               0.001236242               0.999999988               0.000022823               0.001245736               0.999999988              -0.000021402               0.001253128               0.999999988              -0.000073163               0.001258457               0.999999988              -0.000132586               0.001262060               0.999999988              -0.000199625               0.001264524               0.999999988               0.000247754               0.001233908               0.999999988               0.000172442               0.001228407               0.999999988               0.000138698               0.001221440               0.999999988               0.000123007               0.001221394               0.999999988               0.000115442               0.001228949               0.999999988               0.000110690               0.001242622               0.999999988               0.000105698               0.001260476               0.999999988               0.000098907               0.001280841               0.999999988               0.000089033               0.001302317               0.999999988               0.000075312               0.001323926               0.999999988               0.000057067               0.001344910               0.999999988               0.000033757               0.001364732               0.999999988               0.000004709               0.001383227               0.999999988              -0.000030759               0.001400173               0.999999988              -0.000073591               0.001415335               0.999999988              -0.000124826               0.001428761               0.999999988              -0.000185390               0.001440694               0.999999988               0.000166424               0.001268347               0.999999988               0.000114158               0.001282495               0.999999988               0.000089466               0.001286343               0.999999988               0.000077313               0.001292354               0.999999988               0.000071032               0.001303511               0.999999988               0.000067291               0.001319933               0.999999988               0.000063688               0.001340537               0.999999988               0.000059151               0.001364103               0.999999988               0.000052539               0.001389647               0.999999988               0.000043493               0.001416306               0.999999988               0.000031460               0.001443277               0.999999988               0.000015612               0.001470103               0.999999988              -0.000004515               0.001496429               0.999999988              -0.000029558               0.001521848               0.999999988              -0.000060539               0.001546076               0.999999988              -0.000098895               0.001568750               0.999999988              -0.000146425               0.001589496               0.999999988               0.000083596               0.001289385               0.999999988               0.000056858               0.001316187               0.999999988               0.000043747               0.001327579               0.999999988               0.000037123               0.001338126               0.999999988               0.000033546               0.001352134               0.999999988               0.000031457               0.001370688               0.999999988               0.000029567               0.001393378               0.999999988               0.000027181               0.001419390               0.999999988               0.000023750               0.001447701               0.999999988               0.000019221               0.001477571               0.999999988               0.000013238               0.001508494               0.999999988               0.000005241               0.001540064               0.999999988              -0.000004984               0.001571812               0.999999988              -0.000018032               0.001603257               0.999999988              -0.000034518               0.001633991               0.999999988              -0.000055127               0.001663374               0.999999988              -0.000081453               0.001690651               0.999999988               0.000000000               0.001296484               0.999999988              -0.000000000               0.001327676               0.999999988               0.000000000               0.001341743               0.999999988               0.000000000               0.001353947               0.999999988               0.000000000               0.001369074               0.999999988              -0.000000000               0.001388466               0.999999988               0.000000000               0.001411987               0.999999988              -0.000000000               0.001438920               0.999999988              -0.000000000               0.001468194               0.999999988              -0.000000000               0.001499188               0.999999988              -0.000000000               0.001531498               0.999999988              -0.000000000               0.001564654               0.999999988              -0.000000000               0.001598293               0.999999988               0.000000000               0.001631911               0.999999988               0.000000000               0.001664932               0.999999988               0.000000000               0.001696738               0.999999988              -0.000000000               0.001726479               0.999999988 </DataArray>
<DataArray type="Float64"                                    Name="stress"                                                      NumberOfComponents="10" format="ascii">
              0.002108682               0.022143188               0.000000000              -0.001977138               0.008040035               0.006062897               0.000000000               0.000000000               0.000000000               0.000000000               0.002020052               0.016908988              -0.000000000              -0.001356101               0.006088307               0.004732206               0.000000000               0.000000000               0.000000000               0.000000000               0.002591097               0.012653239              -0.000000000              -0.000609992               0.004421035               0.003811043               0.000000000               0.000000000               0.000000000               0.000000000               0.002390311               0.010248587              -0.000000000              -0.000384706               0.003544397               0.003159691               0.000000000               0.000000000               0.000000000               0.000000000               0.001986290               0.008729322              -0.000000000              -0.000346306               0.003025180               0.002678875               0.000000000               0.000000000               0.000000000               0.000000000               0.001563666               0.007656018              -0.000000000              -0.000370627               0.002675523               0.002304896               0.000000000               0.000000000               0.000000000               0.000000000               0.001180979               0.006817590              -0.000000000              -0.000409331               0.002408951               0.001999620               0.000000000               0.000000000               0.000000000               0.000000000               0.000853705               0.006109512               0.000000000              -0.000443548               0.002184333               0.001740785               0.000000000               0.000000000               0.000000000               0.000000000               0.000584536               0.005478579               0.000000000              -0.000465620               0.001981381               0.001515761               0.000000000               0.000000000               0.000000000               0.000000000               0.000359281               0.004885010               0.000000000              -0.000475895               0.001786952               0.001311057               0.000000000               0.000000000               0.000000000               0.000000000               0.000174149               0.004292045              -0.000000000              -0.000471199               0.001587733               0.001116535               0.000000000               0.000000000               0.000000000               0.000000000               0.000037190               0.003682549              -0.000000000              -0.000446371               0.001376294               0.000929923               0.000000000               0.000000000               0.000000000               0.000000000              -0.000054103               0.003047599               0.000000000              -0.000401238               0.001149602               0.000748364               0.000000000               0.000000000               0.000000000               0.000000000              -0.000104395               0.002379095               0.000000000              -0.000336534               0.000905202               0.000568668               0.000000000               0.000000000               0.000000000               0.000000000              -0.000113461               0.001657022               0.000000000              -0.000249675               0.000635560               0.000385885               0.000000000               0.000000000               0.000000000               0.000000000              -0.000073001               0.000849260               0.000000000              -0.000133533               0.000327595               0.000194062               0.000000000               0.000000000               0.000000000               0.000000000              -0.000106979               0.000226687               0.000000000              -0.000068453               0.000098379               0.000029926               0.000000000               0.000000000               0.000000000               0.000000000               0.002166117               0.021664758              -0.001455239              -0.001895797               0.007853446               0.005957649               0.000000000               0.000000000               0.000000000               0.000000000               0.001953414               0.016609389              -0.000633844              -0.001343640               0.005984288               0.004640647               0.000000000               0.000000000               0.000000000               0.000000000               0.002392322               0.012541521               0.000174823              -0.000670568               0.004403988               0.003733420               0.000000000               0.000000000               0.000000000               0.000000000               0.002142924               0.010236841               0.000506405              -0.000476008               0.003570916               0.003094908               0.000000000               0.000000000               0.000000000               0.000000000               0.001730614               0.008763251               0.000631734              -0.000446425               0.003069863               0.002623438               0.000000000               0.000000000               0.000000000               0.000000000               0.001321197               0.007710353               0.000663858              -0.000468344               0.002726207               0.002257862               0.000000000               0.000000000               0.000000000               0.000000000               0.000959580               0.006883115               0.000655648              -0.000500546               0.002461197               0.001960652               0.000000000               0.000000000               0.000000000               0.000000000               0.000655581               0.006182000               0.000631431              -0.000526906               0.002236281               0.001709375               0.000000000               0.000000000               0.000000000               0.000000000               0.000409641               0.005553112               0.000602216              -0.000540523               0.002031193               0.001490670               0.000000000               0.000000000               0.000000000               0.000000000               0.000208251               0.004956009               0.000565557              -0.000541406               0.001832455               0.001291049               0.000000000               0.000000000               0.000000000               0.000000000               0.000051885               0.004363888               0.000521948              -0.000526028               0.001629957               0.001103930               0.000000000               0.000000000               0.000000000               0.000000000              -0.000055486               0.003763756               0.000477190              -0.000491276               0.001418331               0.000927056               0.000000000               0.000000000               0.000000000               0.000000000              -0.000120037               0.003146274               0.000432026              -0.000438297               0.001194847               0.000756550               0.000000000               0.000000000               0.000000000               0.000000000              -0.000146251               0.002503622               0.000378082              -0.000367796               0.000957131               0.000589335               0.000000000               0.000000000               0.000000000               0.000000000              -0.000134342               0.001822084               0.000298545              -0.000278138               0.000700068               0.000421930               0.000000000               0.000000000               0.000000000               0.000000000              -0.000080991               0.001080656               0.000173652              -0.000165453               0.000415366               0.000249913               0.000000000               0.000000000               0.000000000               0.000000000              -0.000103206               0.000526244               0.000108704              -0.000104483               0.000210240               0.000105758               0.000000000               0.000000000               0.000000000               0.000000000               0.002297956               0.020299952              -0.002687549              -0.001675757               0.007325168               0.005649411               0.000000000               0.000000000               0.000000000               0.000000000               0.001743874               0.015761109              -0.001164194              -0.001316183               0.005692378               0.004376195               0.000000000               0.000000000               0.000000000               0.000000000               0.001822573               0.012225729               0.000322654              -0.000844749               0.004356785               0.003512036               0.000000000               0.000000000               0.000000000               0.000000000               0.001451411               0.010189314               0.000908722              -0.000729383               0.003639532               0.002910148               0.000000000               0.000000000               0.000000000               0.000000000               0.001026829               0.008844554               0.001116548              -0.000720507               0.003188324               0.002467817               0.000000000               0.000000000               0.000000000               0.000000000               0.000656181               0.007850739               0.001160791              -0.000735273               0.002861978               0.002126705               0.000000000               0.000000000               0.000000000               0.000000000               0.000355200               0.007049702               0.001136777              -0.000748011               0.002599214               0.001851203               0.000000000               0.000000000               0.000000000               0.000000000               0.000122483               0.006362610               0.001086787              -0.000749394               0.002370646               0.001621253               0.000000000               0.000000000               0.000000000               0.000000000              -0.000047655               0.005738512               0.001027512              -0.000735183               0.002157879               0.001422696               0.000000000               0.000000000               0.000000000               0.000000000              -0.000171013               0.005143661               0.000958206              -0.000707086               0.001950232               0.001243146               0.000000000               0.000000000               0.000000000               0.000000000              -0.000249844               0.004561226               0.000879892              -0.000663844               0.001741675               0.001077831               0.000000000               0.000000000               0.000000000               0.000000000              -0.000285691               0.003985249               0.000797661              -0.000605289               0.001530166               0.000924877               0.000000000               0.000000000               0.000000000               0.000000000              -0.000285964               0.003410619               0.000711810              -0.000533563               0.001314716               0.000781153               0.000000000               0.000000000               0.000000000               0.000000000              -0.000252153               0.002836406               0.000610589              -0.000449107               0.001095161               0.000646054               0.000000000               0.000000000               0.000000000               0.000000000              -0.000189441               0.002259970               0.000468651              -0.000353536               0.000871161               0.000517625               0.000000000               0.000000000               0.000000000               0.000000000              -0.000103946               0.001681584               0.000264557              -0.000249177               0.000643582               0.000394404               0.000000000               0.000000000               0.000000000               0.000000000              -0.000097533               0.001283833               0.000160803              -0.000197054               0.000493624               0.000296571               0.000000000               0.000000000               0.000000000               0.000000000               0.002390149               0.018232369              -0.003524121              -0.001382739               0.006538308               0.005155569               0.000000000               0.000000000               0.000000000               0.000000000               0.001361437               0.014493959              -0.001516354              -0.001301203               0.005265006               0.003963802               0.000000000               0.000000000               0.000000000               0.000000000               0.000942674               0.011754781               0.000411273              -0.001115842               0.004290169               0.003174326               0.000000000               0.000000000               0.000000000               0.000000000               0.000435994               0.010090962               0.001120744              -0.001097870               0.003729577               0.002631707               0.000000000               0.000000000               0.000000000               0.000000000               0.000030320               0.008921567               0.001347906              -0.001103824               0.003341767               0.002237943               0.000000000               0.000000000               0.000000000               0.000000000              -0.000257695               0.008010744               0.001378509              -0.001097976               0.003036213               0.001938237               0.000000000               0.000000000               0.000000000               0.000000000              -0.000447626               0.007248815               0.001334731              -0.001073960               0.002774234               0.001700274               0.000000000               0.000000000               0.000000000               0.000000000              -0.000561731               0.006577634               0.001265136              -0.001032851               0.002536806               0.001503955               0.000000000               0.000000000               0.000000000               0.000000000              -0.000614018               0.005959751               0.001185062              -0.000975224               0.002311638               0.001336414               0.000000000               0.000000000               0.000000000               0.000000000              -0.000623212               0.005372181               0.001095272              -0.000905225               0.002092451               0.001187225               0.000000000               0.000000000               0.000000000               0.000000000              -0.000600530               0.004810325               0.000994120              -0.000826488               0.001878921               0.001052434               0.000000000               0.000000000               0.000000000               0.000000000              -0.000545221               0.004271670               0.000887483              -0.000738415               0.001670014               0.000931599               0.000000000               0.000000000               0.000000000               0.000000000              -0.000461493               0.003757338               0.000775942              -0.000642726               0.001466675               0.000823950               0.000000000               0.000000000               0.000000000               0.000000000              -0.000357211               0.003268988               0.000648280              -0.000542576               0.001270510               0.000727934               0.000000000               0.000000000               0.000000000               0.000000000              -0.000240340               0.002816705               0.000480420              -0.000442215               0.001086297               0.000644082               0.000000000               0.000000000               0.000000000               0.000000000              -0.000121019               0.002421674               0.000261185              -0.000348091               0.000923247               0.000575156               0.000000000               0.000000000               0.000000000               0.000000000              -0.000086315               0.002185468               0.000152104              -0.000305551               0.000830332               0.000524781               0.000000000               0.000000000               0.000000000               0.000000000               0.002297839               0.015707891              -0.003882165              -0.001101797               0.005603176               0.004501379               0.000000000               0.000000000               0.000000000               0.000000000               0.000781035               0.012975651              -0.001674051              -0.001329066               0.004768195               0.003439129               0.000000000               0.000000000               0.000000000               0.000000000              -0.000151556               0.011182127               0.000400999              -0.001454596               0.004212204               0.002757608               0.000000000               0.000000000               0.000000000               0.000000000              -0.000736749               0.009926828               0.001100220              -0.001517131               0.003814620               0.002297489               0.000000000               0.000000000               0.000000000               0.000000000              -0.001060641               0.008938973               0.001300497              -0.001515109               0.003484664               0.001969555               0.000000000               0.000000000               0.000000000               0.000000000              -0.001210602               0.008118786               0.001308849              -0.001468821               0.003195842               0.001727021               0.000000000               0.000000000               0.000000000               0.000000000              -0.001246348               0.007402178               0.001249865              -0.001392650               0.002931585               0.001538935               0.000000000               0.000000000               0.000000000               0.000000000              -0.001207698               0.006746768               0.001170983              -0.001296230               0.002680977               0.001384747               0.000000000               0.000000000               0.000000000               0.000000000              -0.001119494               0.006134103               0.001083639              -0.001186570               0.002440204               0.001253633               0.000000000               0.000000000               0.000000000               0.000000000              -0.001003596               0.005554954               0.000991882              -0.001070715               0.002208538               0.001137822               0.000000000               0.000000000               0.000000000               0.000000000              -0.000870371               0.005018792               0.000890345              -0.000953736               0.001990826               0.001037090               0.000000000               0.000000000               0.000000000               0.000000000              -0.000721420               0.004526137               0.000779054              -0.000836298               0.001787463               0.000951165               0.000000000               0.000000000               0.000000000               0.000000000              -0.000563536               0.004075580               0.000661320              -0.000720772               0.001598770               0.000877998               0.000000000               0.000000000               0.000000000               0.000000000              -0.000401708               0.003673632               0.000530458              -0.000609843               0.001427813               0.000817969               0.000000000               0.000000000               0.000000000               0.000000000              -0.000247180               0.003335613               0.000376734              -0.000509643               0.001281741               0.000772098               0.000000000               0.000000000               0.000000000               0.000000000              -0.000113119               0.003088564               0.000197727              -0.000428489               0.001172341               0.000743852               0.000000000               0.000000000               0.000000000               0.000000000              -0.000063804               0.002971302               0.000109729              -0.000395338               0.001122203               0.000726865               0.000000000               0.000000000               0.000000000               0.000000000               0.001889919               0.012986704              -0.003778136              -0.000914619               0.004633730               0.003719111               0.000000000               0.000000000               0.000000000               0.000000000               0.000002364               0.011375120              -0.001676949              -0.001421001               0.004265335               0.002844334               0.000000000               0.000000000               0.000000000               0.000000000              -0.001331822               0.010556103               0.000261484              -0.001818942               0.004124980               0.002306038               0.000000000               0.000000000               0.000000000               0.000000000              -0.001882692               0.009682114               0.000858689              -0.001916269               0.003866095               0.001949826               0.000000000               0.000000000               0.000000000               0.000000000              -0.002049831               0.008861269               0.001013651              -0.001876341               0.003579174               0.001702833               0.000000000               0.000000000               0.000000000               0.000000000              -0.002017094               0.008122856               0.001007980              -0.001771763               0.003298179               0.001526416               0.000000000               0.000000000               0.000000000               0.000000000              -0.001878650               0.007437282               0.000948782              -0.001634150               0.003023786               0.001389636               0.000000000               0.000000000               0.000000000               0.000000000              -0.001681852               0.006795141               0.000878424              -0.001480083               0.002758385               0.001278302               0.000000000               0.000000000               0.000000000               0.000000000              -0.001454321               0.006191925               0.000806009              -0.001319358               0.002503740               0.001184382               0.000000000               0.000000000               0.000000000               0.000000000              -0.001219035               0.005635282               0.000733028              -0.001161546               0.002265591               0.001104045               0.000000000               0.000000000               0.000000000               0.000000000              -0.000989833               0.005133653               0.000652990              -0.001012892               0.002048831               0.001035939               0.000000000               0.000000000               0.000000000               0.000000000              -0.000764930               0.004689105               0.000557270              -0.000872985               0.001854014               0.000981029               0.000000000               0.000000000               0.000000000               0.000000000              -0.000554603               0.004300200               0.000454222              -0.000745499               0.001681885               0.000936386               0.000000000               0.000000000               0.000000000               0.000000000              -0.000361869               0.003978472               0.000344884              -0.000633008               0.001537147               0.000904138               0.000000000               0.000000000               0.000000000               0.000000000              -0.000197469               0.003739301               0.000228768              -0.000541462               0.001426909               0.000885446               0.000000000               0.000000000               0.000000000               0.000000000              -0.000080267               0.003597212               0.000113373              -0.000479751               0.001358975               0.000879225               0.000000000               0.000000000               0.000000000               0.000000000              -0.000035135               0.003555842               0.000057452              -0.000457655               0.001337820               0.000880166               0.000000000               0.000000000               0.000000000               0.000000000               0.001106152               0.010299147              -0.003300595              -0.000872587               0.003723876               0.002851289               0.000000000               0.000000000               0.000000000               0.000000000              -0.000930325               0.009823248              -0.001583441              -0.001576775               0.003799974               0.002223200               0.000000000               0.000000000               0.000000000               0.000000000              -0.002466035               0.009902492              -0.000011435              -0.002162569               0.004021654               0.001859085               0.000000000               0.000000000               0.000000000               0.000000000              -0.002857250               0.009343113               0.000440196              -0.002239352               0.003860791               0.001621438               0.000000000               0.000000000               0.000000000               0.000000000              -0.002803098               0.008659957               0.000558062              -0.002133651               0.003597841               0.001464190               0.000000000               0.000000000               0.000000000               0.000000000              -0.002566485               0.007979884               0.000560767              -0.001959912               0.003313239               0.001353327               0.000000000               0.000000000               0.000000000               0.000000000              -0.002250980               0.007320735               0.000527652              -0.001759205               0.003026622               0.001267417               0.000000000               0.000000000               0.000000000               0.000000000              -0.001904340               0.006701075               0.000491386              -0.001551758               0.002750922               0.001199164               0.000000000               0.000000000               0.000000000               0.000000000              -0.001560837               0.006123365               0.000453017              -0.001350731               0.002491345               0.001140614               0.000000000               0.000000000               0.000000000               0.000000000              -0.001232738               0.005601752               0.000415777              -0.001162493               0.002254729               0.001092237               0.000000000               0.000000000               0.000000000               0.000000000              -0.000930517               0.005142377               0.000370355              -0.000991739               0.002044688               0.001052950               0.000000000               0.000000000               0.000000000               0.000000000              -0.000658741               0.004748686               0.000305096              -0.000840611               0.001863083               0.001022472               0.000000000               0.000000000               0.000000000               0.000000000              -0.000424893               0.004426480               0.000230640              -0.000712643               0.001713026               0.001000383               0.000000000               0.000000000               0.000000000               0.000000000              -0.000235740               0.004188007               0.000156212              -0.000611902               0.001599956               0.000988054               0.000000000               0.000000000               0.000000000               0.000000000              -0.000097973               0.004041802               0.000085971              -0.000541964               0.001527908               0.000985945               0.000000000               0.000000000               0.000000000               0.000000000              -0.000024453               0.003986081               0.000033190              -0.000507429               0.001497823               0.000990394               0.000000000               0.000000000               0.000000000               0.000000000               0.000002831               0.003994421               0.000009427              -0.000498240               0.001497540               0.000999301               0.000000000               0.000000000               0.000000000               0.000000000              -0.000011834               0.007822163              -0.002558264              -0.000982207               0.002934763               0.001952556               0.000000000               0.000000000               0.000000000               0.000000000              -0.001956773               0.008408083              -0.001445565              -0.001784797               0.003397598               0.001612802               0.000000000               0.000000000               0.000000000               0.000000000              -0.003438068               0.009211081              -0.000405811              -0.002440655               0.003883881               0.001443226               0.000000000               0.000000000               0.000000000               0.000000000              -0.003563990               0.008893040              -0.000088046              -0.002448120               0.003780357               0.001332237               0.000000000               0.000000000               0.000000000               0.000000000              -0.003264714               0.008326750               0.000026982              -0.002265106               0.003530591               0.001265485               0.000000000               0.000000000               0.000000000               0.000000000              -0.002825875               0.007702596               0.000070722              -0.002022522               0.003241680               0.001219158               0.000000000               0.000000000               0.000000000               0.000000000              -0.002349922               0.007082797               0.000089542              -0.001766566               0.002949764               0.001183198               0.000000000               0.000000000               0.000000000               0.000000000              -0.001883193               0.006495275               0.000103528              -0.001518103               0.002671104               0.001153001               0.000000000               0.000000000               0.000000000               0.000000000              -0.001451540               0.005958614               0.000108164              -0.001289151               0.002415902               0.001126751               0.000000000               0.000000000               0.000000000               0.000000000              -0.001062952               0.005484437               0.000109495              -0.001084159               0.002189514               0.001105355               0.000000000               0.000000000               0.000000000               0.000000000              -0.000715316               0.005077967               0.000103866              -0.000902987               0.001993634               0.001090647               0.000000000               0.000000000               0.000000000               0.000000000              -0.000423366               0.004750428               0.000078200              -0.000752564               0.001834315               0.001081751               0.000000000               0.000000000               0.000000000               0.000000000              -0.000197024               0.004513999               0.000043558              -0.000638132               0.001717362               0.001079230               0.000000000               0.000000000               0.000000000               0.000000000              -0.000041465               0.004375801               0.000013086              -0.000562523               0.001646093               0.001083570               0.000000000               0.000000000               0.000000000               0.000000000               0.000039354               0.004330348              -0.000009680              -0.000526534               0.001618946               0.001092412               0.000000000               0.000000000               0.000000000               0.000000000               0.000045702               0.004357108              -0.000014967              -0.000527499               0.001628188               0.001100689               0.000000000               0.000000000               0.000000000               0.000000000               0.000037221               0.004401710              -0.000017198              -0.000536255               0.001645974               0.001109719               0.000000000               0.000000000               0.000000000               0.000000000              -0.001325404               0.005732148              -0.001670965              -0.001213543               0.002315211               0.001101668               0.000000000               0.000000000               0.000000000               0.000000000              -0.002960335               0.007133384              -0.001306843              -0.002001794               0.003045035               0.001043241               0.000000000               0.000000000               0.000000000               0.000000000              -0.004207190               0.008491035              -0.000883979              -0.002639069               0.003710006               0.001070937               0.000000000               0.000000000               0.000000000               0.000000000              -0.004052480               0.008428512              -0.000647147              -0.002573238               0.003667222               0.001093984               0.000000000               0.000000000               0.000000000               0.000000000              -0.003548755               0.008005853              -0.000503249              -0.002331509               0.003445761               0.001114252               0.000000000               0.000000000               0.000000000               0.000000000              -0.002949426               0.007468071              -0.000401065              -0.002039539               0.003169178               0.001129640               0.000000000               0.000000000               0.000000000               0.000000000              -0.002347925               0.006906447              -0.000321834              -0.001743773               0.002883384               0.001139610               0.000000000               0.000000000               0.000000000               0.000000000              -0.001794533               0.006365120              -0.000255706              -0.001468586               0.002611214               0.001142628               0.000000000               0.000000000               0.000000000               0.000000000              -0.001293706               0.005876696              -0.000205236              -0.001219724               0.002365454               0.001145730               0.000000000               0.000000000               0.000000000               0.000000000              -0.000854680               0.005449441              -0.000164121              -0.001001683               0.002150356               0.001148674               0.000000000               0.000000000               0.000000000               0.000000000              -0.000477027               0.005095028              -0.000128916              -0.000815762               0.001970246               0.001154485               0.000000000               0.000000000               0.000000000               0.000000000              -0.000173979               0.004824190              -0.000104058              -0.000668264               0.001830802               0.001162538               0.000000000               0.000000000               0.000000000               0.000000000               0.000041045               0.004650401              -0.000085860              -0.000565907               0.001738754               0.001172847               0.000000000               0.000000000               0.000000000               0.000000000               0.000166339               0.004578777              -0.000066792              -0.000509969               0.001696233               0.001186265               0.000000000               0.000000000               0.000000000               0.000000000               0.000209945               0.004604001              -0.000044172              -0.000496770               0.001700242               0.001203472               0.000000000               0.000000000               0.000000000               0.000000000               0.000186960               0.004693999              -0.000020666              -0.000516639               0.001736864               0.001220225               0.000000000               0.000000000               0.000000000               0.000000000               0.000151365               0.004754218              -0.000009128              -0.000537514               0.001763895               0.001226381               0.000000000               0.000000000               0.000000000               0.000000000              -0.002822785               0.003791701              -0.000751590              -0.001532504               0.001774722               0.000242218               0.000000000               0.000000000               0.000000000               0.000000000              -0.003798707               0.005639899              -0.001161446              -0.002129497               0.002589780               0.000460282               0.000000000               0.000000000               0.000000000               0.000000000              -0.004678676               0.007397231              -0.001381417              -0.002679151               0.003358769               0.000679618               0.000000000               0.000000000               0.000000000               0.000000000              -0.004373713               0.007719055              -0.001228862              -0.002605018               0.003441332               0.000836314               0.000000000               0.000000000               0.000000000               0.000000000              -0.003785726               0.007566072              -0.001054467              -0.002365401               0.003310465               0.000945065               0.000000000               0.000000000               0.000000000               0.000000000              -0.003139993               0.007228523              -0.000895804              -0.002081058               0.003103170               0.001022112               0.000000000               0.000000000               0.000000000               0.000000000              -0.002497432               0.006814772              -0.000757690              -0.001788379               0.002867694               0.001079315               0.000000000               0.000000000               0.000000000               0.000000000              -0.001902328               0.006386981              -0.000642467              -0.001511742               0.002632886               0.001121144               0.000000000               0.000000000               0.000000000               0.000000000              -0.001362090               0.005983537              -0.000548589              -0.001258723               0.002414067               0.001155344               0.000000000               0.000000000               0.000000000               0.000000000              -0.000885299               0.005619937              -0.000465061              -0.001034477               0.002218119               0.001183643               0.000000000               0.000000000               0.000000000               0.000000000              -0.000471202               0.005318308              -0.000386467              -0.000841487               0.002053247               0.001211760               0.000000000               0.000000000               0.000000000               0.000000000              -0.000130449               0.005079514              -0.000307709              -0.000683856               0.001921106               0.001237250               0.000000000               0.000000000               0.000000000               0.000000000               0.000125280               0.004904990              -0.000234337              -0.000566142               0.001823694               0.001257552               0.000000000               0.000000000               0.000000000               0.000000000               0.000291404               0.004807133              -0.000164173              -0.000491614               0.001766233               0.001274619               0.000000000               0.000000000               0.000000000               0.000000000               0.000371990               0.004801110              -0.000094838              -0.000460641               0.001753901               0.001293260               0.000000000               0.000000000               0.000000000               0.000000000               0.000382234               0.004875438              -0.000037703              -0.000466091               0.001780493               0.001314402               0.000000000               0.000000000               0.000000000               0.000000000               0.000352195               0.004918932              -0.000007378              -0.000482792               0.001800558               0.001317766               0.000000000               0.000000000               0.000000000               0.000000000              -0.004690163               0.002052059               0.000127745              -0.002015315               0.001355782              -0.000659533               0.000000000               0.000000000               0.000000000               0.000000000              -0.004737104               0.004130010              -0.000955457              -0.002292660               0.002140875              -0.000151785               0.000000000               0.000000000               0.000000000               0.000000000              -0.005068845               0.006089848              -0.001778546              -0.002662041               0.002917276               0.000255234               0.000000000               0.000000000               0.000000000               0.000000000              -0.004631153               0.006771566              -0.001777187              -0.002583122               0.003118206               0.000535084               0.000000000               0.000000000               0.000000000               0.000000000              -0.003994457               0.006927181              -0.001605047              -0.002363813               0.003096975               0.000733161               0.000000000               0.000000000               0.000000000               0.000000000              -0.003328410               0.006831414              -0.001410126              -0.002102076               0.002977807               0.000875731               0.000000000               0.000000000               0.000000000               0.000000000              -0.002675932               0.006605144              -0.001227645              -0.001829113               0.002811397               0.000982284               0.000000000               0.000000000               0.000000000               0.000000000              -0.002054885               0.006321519              -0.001072570              -0.001560768               0.002627408               0.001066640               0.000000000               0.000000000               0.000000000               0.000000000              -0.001482115               0.006026685              -0.000938268              -0.001309126               0.002445250               0.001136124               0.000000000               0.000000000               0.000000000               0.000000000              -0.000962314               0.005750189              -0.000814376              -0.001079639               0.002276590               0.001196951               0.000000000               0.000000000               0.000000000               0.000000000              -0.000501957               0.005505887              -0.000694692              -0.000876468               0.002127433               0.001250965               0.000000000               0.000000000               0.000000000               0.000000000              -0.000105168               0.005300955              -0.000573856              -0.000702056               0.002000986               0.001298930               0.000000000               0.000000000               0.000000000               0.000000000               0.000221259               0.005134271              -0.000453767              -0.000558811               0.001897677               0.001338866               0.000000000               0.000000000               0.000000000               0.000000000               0.000462089               0.005007965              -0.000330565              -0.000452711               0.001820209               0.001367497               0.000000000               0.000000000               0.000000000               0.000000000               0.000612617               0.004942070              -0.000204885              -0.000388027               0.001776682               0.001388656               0.000000000               0.000000000               0.000000000               0.000000000               0.000671072               0.004947647              -0.000090923              -0.000366803               0.001771467               0.001404664               0.000000000               0.000000000               0.000000000               0.000000000               0.000659208               0.004957093              -0.000033496              -0.000372433               0.001776492               0.001404059               0.000000000               0.000000000               0.000000000               0.000000000              -0.006802659               0.000663898               0.000879207              -0.002633982               0.001099286              -0.001534696               0.000000000               0.000000000               0.000000000               0.000000000              -0.005820045               0.002710694              -0.000679038              -0.002521350               0.001744003              -0.000777347               0.000000000               0.000000000               0.000000000               0.000000000              -0.005398834               0.004593718              -0.001973163              -0.002598772               0.002397480              -0.000201292               0.000000000               0.000000000               0.000000000               0.000000000              -0.004743701               0.005519759              -0.002163071              -0.002468852               0.002662851               0.000193999               0.000000000               0.000000000               0.000000000               0.000000000              -0.004041598               0.005955151              -0.002044005              -0.002259988               0.002738359               0.000478371               0.000000000               0.000000000               0.000000000               0.000000000              -0.003358427               0.006109596              -0.001846215              -0.002023105               0.002710880               0.000687774               0.000000000               0.000000000               0.000000000               0.000000000              -0.002708385               0.006095795              -0.001642095              -0.001777615               0.002624449               0.000846834               0.000000000               0.000000000               0.000000000               0.000000000              -0.002086258               0.005983992              -0.001461761              -0.001530342               0.002504758               0.000974415               0.000000000               0.000000000               0.000000000               0.000000000              -0.001500379               0.005824922              -0.001302595              -0.001290755               0.002371873               0.001081118               0.000000000               0.000000000               0.000000000               0.000000000              -0.000951984               0.005659161              -0.001153179              -0.001064387               0.002241163               0.001176777               0.000000000               0.000000000               0.000000000               0.000000000              -0.000447210               0.005506387              -0.001005435              -0.000856000               0.002120777               0.001264777               0.000000000               0.000000000               0.000000000               0.000000000               0.000008789               0.005367503              -0.000858675              -0.000667641               0.002011697               0.001344056               0.000000000               0.000000000               0.000000000               0.000000000               0.000404812               0.005239252              -0.000705914              -0.000503101               0.001914100               0.001410999               0.000000000               0.000000000               0.000000000               0.000000000               0.000725770               0.005128045              -0.000539673              -0.000368841               0.001832278               0.001463437               0.000000000               0.000000000               0.000000000               0.000000000               0.000958420               0.005043935              -0.000358580              -0.000271084               0.001771656               0.001500572               0.000000000               0.000000000               0.000000000               0.000000000               0.001091339               0.005005841              -0.000174980              -0.000216477               0.001740756               0.001524279               0.000000000               0.000000000               0.000000000               0.000000000               0.001119642               0.004994406              -0.000083410              -0.000204435               0.001732930               0.001528495               0.000000000               0.000000000               0.000000000               0.000000000              -0.009021192              -0.000304563               0.001381979              -0.003344874               0.001013430              -0.002331444               0.000000000               0.000000000               0.000000000               0.000000000              -0.006985465               0.001467426              -0.000390866              -0.002802974               0.001423457              -0.001379517               0.000000000               0.000000000               0.000000000               0.000000000              -0.005693057               0.003047863              -0.001941293              -0.002515875               0.001854566              -0.000661309               0.000000000               0.000000000               0.000000000               0.000000000              -0.004737488               0.004075077              -0.002296965              -0.002285938               0.002120323              -0.000165615               0.000000000               0.000000000               0.000000000               0.000000000              -0.003938507               0.004723894              -0.002258330              -0.002067423               0.002263755               0.000196333               0.000000000               0.000000000               0.000000000               0.000000000              -0.003230860               0.005104623              -0.002090960              -0.001849646               0.002318072               0.000468426               0.000000000               0.000000000               0.000000000               0.000000000              -0.002582491               0.005299289              -0.001897719              -0.001630842               0.002310025               0.000679184               0.000000000               0.000000000               0.000000000               0.000000000              -0.001969097               0.005376365              -0.001714874              -0.001410454               0.002262255               0.000851800               0.000000000               0.000000000               0.000000000               0.000000000              -0.001385692               0.005379792              -0.001547025              -0.001192106               0.002190614               0.000998508               0.000000000               0.000000000               0.000000000               0.000000000              -0.000827334               0.005344644              -0.001389805              -0.000978329               0.002107640               0.001129311               0.000000000               0.000000000               0.000000000               0.000000000              -0.000291307               0.005297875              -0.001237434              -0.000771473               0.002023098               0.001251625               0.000000000               0.000000000               0.000000000               0.000000000               0.000216604               0.005245011              -0.001083820              -0.000574399               0.001939786               0.001365387               0.000000000               0.000000000               0.000000000               0.000000000               0.000684081               0.005189772              -0.000917058              -0.000392191               0.001860637               0.001468446               0.000000000               0.000000000               0.000000000               0.000000000               0.001098252               0.005132635              -0.000726251              -0.000229735               0.001787439               0.001557705               0.000000000               0.000000000               0.000000000               0.000000000               0.001440523               0.005074333              -0.000508040              -0.000094096               0.001722793               0.001628697               0.000000000               0.000000000               0.000000000               0.000000000               0.001692832               0.005031964              -0.000263358               0.000005816               0.001675366               0.001681182               0.000000000               0.000000000               0.000000000               0.000000000               0.001806170               0.005022329              -0.000139879               0.000049522               0.001657586               0.001707108               0.000000000               0.000000000               0.000000000               0.000000000              -0.011142526              -0.000885084               0.001534219              -0.004067809               0.001060900              -0.003006909               0.000000000               0.000000000               0.000000000               0.000000000              -0.008127951               0.000470723              -0.000157866              -0.003106819               0.001192506              -0.001914313               0.000000000               0.000000000               0.000000000               0.000000000              -0.005963558               0.001606601              -0.001689749              -0.002437156               0.001347909              -0.001089247               0.000000000               0.000000000               0.000000000               0.000000000              -0.004659529               0.002609057              -0.002123912              -0.002073452               0.001560825              -0.000512627               0.000000000               0.000000000               0.000000000               0.000000000              -0.003736073               0.003382490              -0.002158446              -0.001823835               0.001735429              -0.000088406               0.000000000               0.000000000               0.000000000               0.000000000              -0.002985485               0.003942590              -0.002044201              -0.001612377               0.001851642               0.000239264               0.000000000               0.000000000               0.000000000               0.000000000              -0.002331279               0.004327419              -0.001887501              -0.001415154               0.001914176               0.000499022               0.000000000               0.000000000               0.000000000               0.000000000              -0.001730197               0.004583441              -0.001726684              -0.001221752               0.001935048               0.000713297               0.000000000               0.000000000               0.000000000               0.000000000              -0.001160914               0.004749079              -0.001572991              -0.001028976               0.001926002               0.000897026               0.000000000               0.000000000               0.000000000               0.000000000              -0.000602113               0.004856258              -0.001431311              -0.000832823               0.001896344               0.001063521               0.000000000               0.000000000               0.000000000               0.000000000              -0.000048485               0.004924968              -0.001294554              -0.000633802               0.001852907               0.001219105               0.000000000               0.000000000               0.000000000               0.000000000               0.000494643               0.004974271              -0.001153528              -0.000436293               0.001803504               0.001367212               0.000000000               0.000000000               0.000000000               0.000000000               0.001025247               0.005011814              -0.000999018              -0.000242009               0.001751258               0.001509248               0.000000000               0.000000000               0.000000000               0.000000000               0.001537741               0.005029429              -0.000817853              -0.000052026               0.001693802               0.001641776               0.000000000               0.000000000               0.000000000               0.000000000               0.002019446               0.005030380              -0.000596461               0.000128493               0.001633946               0.001762439               0.000000000               0.000000000               0.000000000               0.000000000               0.002447004               0.005022857              -0.000323816               0.000289767               0.001577680               0.001867447               0.000000000               0.000000000               0.000000000               0.000000000               0.002699739               0.005040045              -0.000186375               0.000382393               0.001552534               0.001934927               0.000000000               0.000000000               0.000000000               0.000000000              -0.012917820              -0.001178967               0.001301696              -0.004696809               0.001172606              -0.003524203               0.000000000               0.000000000               0.000000000               0.000000000              -0.009104102              -0.000248786              -0.000020943              -0.003382938               0.001044710              -0.002338228               0.000000000               0.000000000               0.000000000               0.000000000              -0.006194028               0.000431167              -0.001247135              -0.002376654               0.000935934              -0.001440721               0.000000000               0.000000000               0.000000000               0.000000000              -0.004556613               0.001333777              -0.001639202              -0.001875450               0.001069734              -0.000805715               0.000000000               0.000000000               0.000000000               0.000000000              -0.003490334               0.002160785              -0.001709334              -0.001578971               0.001246576              -0.000332395               0.000000000               0.000000000               0.000000000               0.000000000              -0.002690626               0.002843443              -0.001649271              -0.001364413               0.001402608               0.000038196               0.000000000               0.000000000               0.000000000               0.000000000              -0.002028556               0.003371613              -0.001543025              -0.001182158               0.001517912               0.000335754               0.000000000               0.000000000               0.000000000               0.000000000              -0.001440667               0.003771867              -0.001424852              -0.001011732               0.001594520               0.000582788               0.000000000               0.000000000               0.000000000               0.000000000              -0.000885248               0.004076201              -0.001309202              -0.000841492               0.001639217               0.000797725               0.000000000               0.000000000               0.000000000               0.000000000              -0.000335329               0.004307544              -0.001203860              -0.000664190               0.001657230               0.000993040               0.000000000               0.000000000               0.000000000               0.000000000               0.000223129               0.004490557              -0.001097680              -0.000477646               0.001656052               0.001178407               0.000000000               0.000000000               0.000000000               0.000000000               0.000794911               0.004646526              -0.000987977              -0.000282724               0.001643068               0.001360343               0.000000000               0.000000000               0.000000000               0.000000000               0.001383857               0.004776242              -0.000870888              -0.000078085               0.001618093               0.001540008               0.000000000               0.000000000               0.000000000               0.000000000               0.001989576               0.004878736              -0.000730972               0.000136248               0.001580813               0.001717061               0.000000000               0.000000000               0.000000000               0.000000000               0.002614279               0.004954391              -0.000551079               0.000361052               0.001531096               0.001892149               0.000000000               0.000000000               0.000000000               0.000000000               0.003254041               0.004995163              -0.000309738               0.000595864               0.001466416               0.002062280               0.000000000               0.000000000               0.000000000               0.000000000               0.003693301               0.005049222              -0.000187354               0.000753827               0.001431782               0.002185609               0.000000000               0.000000000               0.000000000               0.000000000              -0.014105187              -0.001294571               0.000742404              -0.005127620               0.001277674              -0.003849946               0.000000000               0.000000000               0.000000000               0.000000000              -0.009769530              -0.000680614               0.000018085              -0.003578495               0.000965954              -0.002612541               0.000000000               0.000000000               0.000000000               0.000000000              -0.006350397              -0.000341021              -0.000662809              -0.002338769               0.000665911              -0.001672858               0.000000000               0.000000000               0.000000000               0.000000000              -0.004472249               0.000457857              -0.000895078              -0.001734324               0.000730721              -0.001003602               0.000000000               0.000000000               0.000000000               0.000000000              -0.003289658               0.001296677              -0.000948821              -0.001395704               0.000897454              -0.000498250               0.000000000               0.000000000               0.000000000               0.000000000              -0.002449343               0.002047110              -0.000926758              -0.001174390               0.001073826              -0.000100564               0.000000000               0.000000000               0.000000000               0.000000000              -0.001777778               0.002670021              -0.000874092              -0.001000417               0.001223470               0.000223053               0.000000000               0.000000000               0.000000000               0.000000000              -0.001194296               0.003162085              -0.000812088              -0.000843120               0.001335058               0.000491938               0.000000000               0.000000000               0.000000000               0.000000000              -0.000645941               0.003547218              -0.000751060              -0.000685629               0.001410937               0.000725308               0.000000000               0.000000000               0.000000000               0.000000000              -0.000104104               0.003862156              -0.000695266              -0.000521808               0.001461308               0.000939501               0.000000000               0.000000000               0.000000000               0.000000000               0.000453561               0.004132649              -0.000636685              -0.000346495               0.001493034               0.001146539               0.000000000               0.000000000               0.000000000               0.000000000               0.001044810               0.004369687              -0.000576269              -0.000154407               0.001508017               0.001353610               0.000000000               0.000000000               0.000000000               0.000000000               0.001675075               0.004571000              -0.000511708               0.000056777               0.001504726               0.001561503               0.000000000               0.000000000               0.000000000               0.000000000               0.002353206               0.004739518              -0.000432733               0.000290009               0.001483154               0.001773163               0.000000000               0.000000000               0.000000000               0.000000000               0.003092248               0.004871206              -0.000332421               0.000550687               0.001440157               0.001990844               0.000000000               0.000000000               0.000000000               0.000000000               0.003908295               0.004953248              -0.000191520               0.000846446               0.001368917               0.002215363               0.000000000               0.000000000               0.000000000               0.000000000               0.004514495               0.005043134              -0.000119562               0.001062533               0.001326850               0.002389383               0.000000000               0.000000000               0.000000000               0.000000000              -0.014523909              -0.001321245              -0.000000000              -0.005281307               0.001320012              -0.003961295               0.000000000               0.000000000               0.000000000               0.000000000              -0.010006765              -0.000825526               0.000000000              -0.003649344               0.000941266              -0.002708078               0.000000000               0.000000000               0.000000000               0.000000000              -0.006404623              -0.000612085               0.000000000              -0.002325221               0.000571041              -0.001754180               0.000000000               0.000000000               0.000000000               0.000000000              -0.004440067               0.000145093              -0.000000000              -0.001683160               0.000609414              -0.001073747               0.000000000               0.000000000               0.000000000               0.000000000              -0.003214459               0.000984165              -0.000000000              -0.001328441               0.000770863              -0.000557577               0.000000000               0.000000000               0.000000000               0.000000000              -0.002358501               0.001756186              -0.000000000              -0.001103959               0.000953375              -0.000150584               0.000000000               0.000000000               0.000000000               0.000000000              -0.001683006               0.002411554               0.000000000              -0.000932569               0.001114699               0.000182130               0.000000000               0.000000000               0.000000000               0.000000000              -0.001097001               0.002933167               0.000000000              -0.000778019               0.001237052               0.000459033               0.000000000               0.000000000               0.000000000               0.000000000              -0.000547066               0.003344911               0.000000000              -0.000623262               0.001322713               0.000699451               0.000000000               0.000000000               0.000000000               0.000000000              -0.000006533               0.003691008              -0.000000000              -0.000463825               0.001384932               0.000921107               0.000000000               0.000000000               0.000000000               0.000000000               0.000549412               0.003991729               0.000000000              -0.000292936               0.001428209               0.001135272               0.000000000               0.000000000               0.000000000               0.000000000               0.001144552               0.004257155               0.000000000              -0.000102937               0.001453350               0.001350413               0.000000000               0.000000000               0.000000000               0.000000000               0.001787204               0.004487041               0.000000000               0.000109320               0.001459225               0.001568546               0.000000000               0.000000000               0.000000000               0.000000000               0.002493160               0.004679535               0.000000000               0.000349990               0.001443166               0.001793156               0.000000000               0.000000000               0.000000000               0.000000000               0.003278612               0.004832085              -0.000000000               0.000625463               0.001402191               0.002027654               0.000000000               0.000000000               0.000000000               0.000000000               0.004162292               0.004933493              -0.000000000               0.000944163               0.001329760               0.002273924               0.000000000               0.000000000               0.000000000               0.000000000               0.004832916               0.005039400              -0.000000000               0.001182407               0.001285648               0.002468054               0.000000000               0.000000000               0.000000000               0.000000000               0.000000000               0.000000000               0.000000000               0.000000000               0.000000000               0.000000000               0.000000000               0.000000000               0.000000000               0.000000000               0.000000000               0.000000000               0.000000000               0.000000000               0.000000000               0.000000000               0.000000000               0.000000000               0.000000000               0.000000000               0.000000000               0.000000000               0.000000000               0.000000000               0.000000000               0.000000000               0.000000000               0.000000000               0.000000000               0.000000000               0.000000000               0.000000000               0.000000000               0.000000000               0.000000000               0.000000000               0.000000000               0.000000000               0.000000000               0.000000000               0.000000000               0.000000000               0.000000000               0.000000000               0.000000000               0.000000000               0.000000000               0.000000000               0.000000000               0.000000000               0.000000000               0.000000000               0.000000000               0.000000000               0.000000000               0.000000000               0.000000000               0.000000000               0.000000000               0.000000000               0.000000000               0.000000000               0.000000000               0.000000000               0.000000000               0.000000000               0.000000000               0.000000000               0.000000000               0.000000000               0.000000000               0.000000000               0.000000000               0.000000000               0.000000000               0.000000000               0.000000000               0.000000000               0.000000000               0.000000000               0.000000000               0.000000000               0.000000000               0.000000000               0.000000000               0.000000000               0.000000000               0.000000000               0.000000000               0.000000000               0.000000000               0.000000000               0.000000000               0.000000000               0.000000000               0.000000000               0.000000000               0.000000000               0.000000000               0.000000000               0.000000000               0.000000000               0.000000000               0.000000000               0.000000000               0.000000000               0.000000000               0.000000000               0.000000000               0.000000000               0.000000000               0.000000000               0.000000000               0.000000000               0.000000000               0.000000000               0.000000000               0.000000000               0.000000000               0.000000000               0.000000000               0.000000000               0.000000000               0.000000000               0.000000000               0.000000000               0.000000000               0.000000000               0.000000000               0.000000000               0.000000000               0.000000000               0.000000000               0.000000000               0.000000000               0.000000000               0.000000000               0.000000000               0.000000000               0.000000000               0.000000000               0.000000000               0.000000000               0.000000000               0.000000000               0.000000000               0.000000000               0.000000000               0.000000000               0.000000000               0.000000000               0.000000000               0.000000000               0.000000000               0.000000000               0.000000000               0.000000000               0.000000000               0.000000000               0.000000000               0.000000000               0.000000000               0.000000000               0.000000000               0.000000000               0.000000000               0.000000000               0.000000000               0.000000000               0.000000000               0.002166117               0.021664758               0.001455239              -0.001895797               0.007853446               0.005957649               0.000000000               0.000000000               0.000000000               0.000000000               0.001953414               0.016609389               0.000633844              -0.001343640               0.005984288               0.004640647               0.000000000               0.000000000               0.000000000               0.000000000               0.002392322               0.012541521              -0.000174823              -0.000670568               0.004403988               0.003733420               0.000000000               0.000000000               0.000000000               0.000000000               0.002142924               0.010236841              -0.000506405              -0.000476008               0.003570916               0.003094908               0.000000000               0.000000000               0.000000000               0.000000000               0.001730614               0.008763251              -0.000631734              -0.000446425               0.003069863               0.002623438               0.000000000               0.000000000               0.000000000               0.000000000               0.001321197               0.007710353              -0.000663858              -0.000468344               0.002726207               0.002257862               0.000000000               0.000000000               0.000000000               0.000000000               0.000959580               0.006883115              -0.000655648              -0.000500546               0.002461197               0.001960652               0.000000000               0.000000000               0.000000000               0.000000000               0.000655581               0.006182000              -0.000631431              -0.000526906               0.002236281               0.001709375               0.000000000               0.000000000               0.000000000               0.000000000               0.000409641               0.005553112              -0.000602216              -0.000540523               0.002031193               0.001490670               0.000000000               0.000000000               0.000000000               0.000000000               0.000208251               0.004956009              -0.000565557              -0.000541406               0.001832455               0.001291049               0.000000000               0.000000000               0.000000000               0.000000000               0.000051885               0.004363888              -0.000521948              -0.000526028               0.001629957               0.001103930               0.000000000               0.000000000               0.000000000               0.000000000              -0.000055486               0.003763756              -0.000477190              -0.000491276               0.001418331               0.000927056               0.000000000               0.000000000               0.000000000               0.000000000              -0.000120037               0.003146274              -0.000432026              -0.000438297               0.001194847               0.000756550               0.000000000               0.000000000               0.000000000               0.000000000              -0.000146251               0.002503622              -0.000378082              -0.000367796               0.000957131               0.000589335               0.000000000               0.000000000               0.000000000               0.000000000              -0.000134342               0.001822084              -0.000298545              -0.000278138               0.000700068               0.000421930               0.000000000               0.000000000               0.000000000               0.000000000              -0.000080991               0.001080656              -0.000173652              -0.000165453               0.000415366               0.000249913               0.000000000               0.000000000               0.000000000               0.000000000              -0.000103206               0.000526244              -0.000108704              -0.000104483               0.000210240               0.000105758               0.000000000               0.000000000               0.000000000               0.000000000               0.002297956               0.020299952               0.002687549              -0.001675757               0.007325168               0.005649411               0.000000000               0.000000000               0.000000000               0.000000000               0.001743874               0.015761109               0.001164194              -0.001316183               0.005692378               0.004376195               0.000000000               0.000000000               0.000000000               0.000000000               0.001822573               0.012225729              -0.000322654              -0.000844749               0.004356785               0.003512036               0.000000000               0.000000000               0.000000000               0.000000000               0.001451411               0.010189314              -0.000908722              -0.000729383               0.003639532               0.002910148               0.000000000               0.000000000               0.000000000               0.000000000               0.001026829               0.008844554              -0.001116548              -0.000720507               0.003188324               0.002467817               0.000000000               0.000000000               0.000000000               0.000000000               0.000656181               0.007850739              -0.001160791              -0.000735273               0.002861978               0.002126705               0.000000000               0.000000000               0.000000000               0.000000000               0.000355200               0.007049702              -0.001136777              -0.000748011               0.002599214               0.001851203               0.000000000               0.000000000               0.000000000               0.000000000               0.000122483               0.006362610              -0.001086787              -0.000749394               0.002370646               0.001621253               0.000000000               0.000000000               0.000000000               0.000000000              -0.000047655               0.005738512              -0.001027512              -0.000735183               0.002157879               0.001422696               0.000000000               0.000000000               0.000000000               0.000000000              -0.000171013               0.005143661              -0.000958206              -0.000707086               0.001950232               0.001243146               0.000000000               0.000000000               0.000000000               0.000000000              -0.000249844               0.004561226              -0.000879892              -0.000663844               0.001741675               0.001077831               0.000000000               0.000000000               0.000000000               0.000000000              -0.000285691               0.003985249              -0.000797661              -0.000605289               0.001530166               0.000924877               0.000000000               0.000000000               0.000000000               0.000000000              -0.000285964               0.003410619              -0.000711810              -0.000533563               0.001314716               0.000781153               0.000000000               0.000000000               0.000000000               0.000000000              -0.000252153               0.002836406              -0.000610589              -0.000449107               0.001095161               0.000646054               0.000000000               0.000000000               0.000000000               0.000000000              -0.000189441               0.002259970              -0.000468651              -0.000353536               0.000871161               0.000517625               0.000000000               0.000000000               0.000000000               0.000000000              -0.000103946               0.001681584              -0.000264557              -0.000249177               0.000643582               0.000394404               0.000000000               0.000000000               0.000000000               0.000000000              -0.000097533               0.001283833              -0.000160803              -0.000197054               0.000493624               0.000296571               0.000000000               0.000000000               0.000000000               0.000000000               0.002390149               0.018232369               0.003524121              -0.001382739               0.006538308               0.005155569               0.000000000               0.000000000               0.000000000               0.000000000               0.001361437               0.014493959               0.001516354              -0.001301203               0.005265006               0.003963802               0.000000000               0.000000000               0.000000000               0.000000000               0.000942674               0.011754781              -0.000411273              -0.001115842               0.004290169               0.003174326               0.000000000               0.000000000               0.000000000               0.000000000               0.000435994               0.010090962              -0.001120744              -0.001097870               0.003729577               0.002631707               0.000000000               0.000000000               0.000000000               0.000000000               0.000030320               0.008921567              -0.001347906              -0.001103824               0.003341767               0.002237943               0.000000000               0.000000000               0.000000000               0.000000000              -0.000257695               0.008010744              -0.001378509              -0.001097976               0.003036213               0.001938237               0.000000000               0.000000000               0.000000000               0.000000000              -0.000447626               0.007248815              -0.001334731              -0.001073960               0.002774234               0.001700274               0.000000000               0.000000000               0.000000000               0.000000000              -0.000561731               0.006577634              -0.001265136              -0.001032851               0.002536806               0.001503955               0.000000000               0.000000000               0.000000000               0.000000000              -0.000614018               0.005959751              -0.001185062              -0.000975224               0.002311638               0.001336414               0.000000000               0.000000000               0.000000000               0.000000000              -0.000623212               0.005372181              -0.001095272              -0.000905225               0.002092451               0.001187225               0.000000000               0.000000000               0.000000000               0.000000000              -0.000600530               0.004810325              -0.000994120              -0.000826488               0.001878921               0.001052434               0.000000000               0.000000000               0.000000000               0.000000000              -0.000545221               0.004271670              -0.000887483              -0.000738415               0.001670014               0.000931599               0.000000000               0.000000000               0.000000000               0.000000000              -0.000461493               0.003757338              -0.000775942              -0.000642726               0.001466675               0.000823950               0.000000000               0.000000000               0.000000000               0.000000000              -0.000357211               0.003268988              -0.000648280              -0.000542576               0.001270510               0.000727934               0.000000000               0.000000000               0.000000000               0.000000000              -0.000240340               0.002816705              -0.000480420              -0.000442215               0.001086297               0.000644082               0.000000000               0.000000000               0.000000000               0.000000000              -0.000121019               0.002421674              -0.000261185              -0.000348091               0.000923247               0.000575156               0.000000000               0.000000000               0.000000000               0.000000000              -0.000086315               0.002185468              -0.000152104              -0.000305551               0.000830332               0.000524781               0.000000000               0.000000000               0.000000000               0.000000000               0.002297839               0.015707891               0.003882165              -0.001101797               0.005603176               0.004501379               0.000000000               0.000000000               0.000000000               0.000000000               0.000781035               0.012975651               0.001674051              -0.001329066               0.004768195               0.003439129               0.000000000               0.000000000               0.000000000               0.000000000              -0.000151556               0.011182127              -0.000400999              -0.001454596               0.004212204               0.002757608               0.000000000               0.000000000               0.000000000               0.000000000              -0.000736749               0.009926828              -0.001100220              -0.001517131               0.003814620               0.002297489               0.000000000               0.000000000               0.000000000               0.000000000              -0.001060641               0.008938973              -0.001300497              -0.001515109               0.003484664               0.001969555               0.000000000               0.000000000               0.000000000               0.000000000              -0.001210602               0.008118786              -0.001308849              -0.001468821               0.003195842               0.001727021               0.000000000               0.000000000               0.000000000               0.000000000              -0.001246348               0.007402178              -0.001249865              -0.001392650               0.002931585               0.001538935               0.000000000               0.000000000               0.000000000               0.000000000              -0.001207698               0.006746768              -0.001170983              -0.001296230               0.002680977               0.001384747               0.000000000               0.000000000               0.000000000               0.000000000              -0.001119494               0.006134103              -0.001083639              -0.001186570               0.002440204               0.001253633               0.000000000               0.000000000               0.000000000               0.000000000              -0.001003596               0.005554954              -0.000991882              -0.001070715               0.002208538               0.001137822               0.000000000               0.000000000               0.000000000               0.000000000              -0.000870371               0.005018792              -0.000890345              -0.000953736               0.001990826               0.001037090               0.000000000               0.000000000               0.000000000               0.000000000              -0.000721420               0.004526137              -0.000779054              -0.000836298               0.001787463               0.000951165               0.000000000               0.000000000               0.000000000               0.000000000              -0.000563536               0.004075580              -0.000661320              -0.000720772               0.001598770               0.000877998               0.000000000               0.000000000               0.000000000               0.000000000              -0.000401708               0.003673632              -0.000530458              -0.000609843               0.001427813               0.000817969               0.000000000               0.000000000               0.000000000               0.000000000              -0.000247180               0.003335613              -0.000376734              -0.000509643               0.001281741               0.000772098               0.000000000               0.000000000               0.000000000               0.000000000              -0.000113119               0.003088564              -0.000197727              -0.000428489               0.001172341               0.000743852               0.000000000               0.000000000               0.000000000               0.000000000              -0.000063804               0.002971302              -0.000109729              -0.000395338               0.001122203               0.000726865               0.000000000               0.000000000               0.000000000               0.000000000               0.001889919               0.012986704               0.003778136              -0.000914619               0.004633730               0.003719111               0.000000000               0.000000000               0.000000000               0.000000000               0.000002364               0.011375120               0.001676949              -0.001421001               0.004265335               0.002844334               0.000000000               0.000000000               0.000000000               0.000000000              -0.001331822               0.010556103              -0.000261484              -0.001818942               0.004124980               0.002306038               0.000000000               0.000000000               0.000000000               0.000000000              -0.001882692               0.009682114              -0.000858689              -0.001916269               0.003866095               0.001949826               0.000000000               0.000000000               0.000000000               0.000000000              -0.002049831               0.008861269              -0.001013651              -0.001876341               0.003579174               0.001702833               0.000000000               0.000000000               0.000000000               0.000000000              -0.002017094               0.008122856              -0.001007980              -0.001771763               0.003298179               0.001526416               0.000000000               0.000000000               0.000000000               0.000000000              -0.001878650               0.007437282              -0.000948782              -0.001634150               0.003023786               0.001389636               0.000000000               0.000000000               0.000000000               0.000000000              -0.001681852               0.006795141              -0.000878424              -0.001480083               0.002758385               0.001278302               0.000000000               0.000000000               0.000000000               0.000000000              -0.001454321               0.006191925              -0.000806009              -0.001319358               0.002503740               0.001184382               0.000000000               0.000000000               0.000000000               0.000000000              -0.001219035               0.005635282              -0.000733028              -0.001161546               0.002265591               0.001104045               0.000000000               0.000000000               0.000000000               0.000000000              -0.000989833               0.005133653              -0.000652990              -0.001012892               0.002048831               0.001035939               0.000000000               0.000000000               0.000000000               0.000000000              -0.000764930               0.004689105              -0.000557270              -0.000872985               0.001854014               0.000981029               0.000000000               0.000000000               0.000000000               0.000000000              -0.000554603               0.004300200              -0.000454222              -0.000745499               0.001681885               0.000936386               0.000000000               0.000000000               0.000000000               0.000000000              -0.000361869               0.003978472              -0.000344884              -0.000633008               0.001537147               0.000904138               0.000000000               0.000000000               0.000000000               0.000000000              -0.000197469               0.003739301              -0.000228768              -0.000541462               0.001426909               0.000885446               0.000000000               0.000000000               0.000000000               0.000000000              -0.000080267               0.003597212              -0.000113373              -0.000479751               0.001358975               0.000879225               0.000000000               0.000000000               0.000000000               0.000000000              -0.000035135               0.003555842              -0.000057452              -0.000457655               0.001337820               0.000880166               0.000000000               0.000000000               0.000000000               0.000000000               0.001106152               0.010299147               0.003300595              -0.000872587               0.003723876               0.002851289               0.000000000               0.000000000               0.000000000               0.000000000              -0.000930325               0.009823248               0.001583441              -0.001576775               0.003799974               0.002223200               0.000000000               0.000000000               0.000000000               0.000000000              -0.002466035               0.009902492               0.000011435              -0.002162569               0.004021654               0.001859085               0.000000000               0.000000000               0.000000000               0.000000000              -0.002857250               0.009343113              -0.000440196              -0.002239352               0.003860791               0.001621438               0.000000000               0.000000000               0.000000000               0.000000000              -0.002803098               0.008659957              -0.000558062              -0.002133651               0.003597841               0.001464190               0.000000000               0.000000000               0.000000000               0.000000000              -0.002566485               0.007979884              -0.000560767              -0.001959912               0.003313239               0.001353327               0.000000000               0.000000000               0.000000000               0.000000000              -0.002250980               0.007320735              -0.000527652              -0.001759205               0.003026622               0.001267417               0.000000000               0.000000000               0.000000000               0.000000000              -0.001904340               0.006701075              -0.000491386              -0.001551758               0.002750922               0.001199164               0.000000000               0.000000000               0.000000000               0.000000000              -0.001560837               0.006123365              -0.000453017              -0.001350731               0.002491345               0.001140614               0.000000000               0.000000000               0.000000000               0.000000000              -0.001232738               0.005601752              -0.000415777              -0.001162493               0.002254729               0.001092237               0.000000000               0.000000000               0.000000000               0.000000000              -0.000930517               0.005142377              -0.000370355              -0.000991739               0.002044688               0.001052950               0.000000000               0.000000000               0.000000000               0.000000000              -0.000658741               0.004748686              -0.000305096              -0.000840611               0.001863083               0.001022472               0.000000000               0.000000000               0.000000000               0.000000000              -0.000424893               0.004426480              -0.000230640              -0.000712643               0.001713026               0.001000383               0.000000000               0.000000000               0.000000000               0.000000000              -0.000235740               0.004188007              -0.000156212              -0.000611902               0.001599956               0.000988054               0.000000000               0.000000000               0.000000000               0.000000000              -0.000097973               0.004041802              -0.000085971              -0.000541964               0.001527908               0.000985945               0.000000000               0.000000000               0.000000000               0.000000000              -0.000024453               0.003986081              -0.000033190              -0.000507429               0.001497823               0.000990394               0.000000000               0.000000000               0.000000000               0.000000000               0.000002831               0.003994421              -0.000009427              -0.000498240               0.001497540               0.000999301               0.000000000               0.000000000               0.000000000               0.000000000              -0.000011834               0.007822163               0.002558264              -0.000982207               0.002934763               0.001952556               0.000000000               0.000000000               0.000000000               0.000000000              -0.001956773               0.008408083               0.001445565              -0.001784797               0.003397598               0.001612802               0.000000000               0.000000000               0.000000000               0.000000000              -0.003438068               0.009211081               0.000405811              -0.002440655               0.003883881               0.001443226               0.000000000               0.000000000               0.000000000               0.000000000              -0.003563990               0.008893040               0.000088046              -0.002448120               0.003780357               0.001332237               0.000000000               0.000000000               0.000000000               0.000000000              -0.003264714               0.008326750              -0.000026982              -0.002265106               0.003530591               0.001265485               0.000000000               0.000000000               0.000000000               0.000000000              -0.002825875               0.007702596              -0.000070722              -0.002022522               0.003241680               0.001219158               0.000000000               0.000000000               0.000000000               0.000000000              -0.002349922               0.007082797              -0.000089542              -0.001766566               0.002949764               0.001183198               0.000000000               0.000000000               0.000000000               0.000000000              -0.001883193               0.006495275              -0.000103528              -0.001518103               0.002671104               0.001153001               0.000000000               0.000000000               0.000000000               0.000000000              -0.001451540               0.005958614              -0.000108164              -0.001289151               0.002415902               0.001126751               0.000000000               0.000000000               0.000000000               0.000000000              -0.001062952               0.005484437              -0.000109495              -0.001084159               0.002189514               0.001105355               0.000000000               0.000000000               0.000000000               0.000000000              -0.000715316               0.005077967              -0.000103866              -0.000902987               0.001993634               0.001090647               0.000000000               0.000000000               0.000000000               0.000000000              -0.000423366               0.004750428              -0.000078200              -0.000752564               0.001834315               0.001081751               0.000000000               0.000000000               0.000000000               0.000000000              -0.000197024               0.004513999              -0.000043558              -0.000638132               0.001717362               0.001079230               0.000000000               0.000000000               0.000000000               0.000000000              -0.000041465               0.004375801              -0.000013086              -0.000562523               0.001646093               0.001083570               0.000000000               0.000000000               0.000000000               0.000000000               0.000039354               0.004330348               0.000009680              -0.000526534               0.001618946               0.001092412               0.000000000               0.000000000               0.000000000               0.000000000               0.000045702               0.004357108               0.000014967              -0.000527499               0.001628188               0.001100689               0.000000000               0.000000000               0.000000000               0.000000000               0.000037221               0.004401710               0.000017198              -0.000536255               0.001645974               0.001109719               0.000000000               0.000000000               0.000000000               0.000000000              -0.001325404               0.005732148               0.001670965              -0.001213543               0.002315211               0.001101668               0.000000000               0.000000000               0.000000000               0.000000000              -0.002960335               0.007133384               0.001306843              -0.002001794               0.003045035               0.001043241               0.000000000               0.000000000               0.000000000               0.000000000              -0.004207190               0.008491035               0.000883979              -0.002639069               0.003710006               0.001070937               0.000000000               0.000000000               0.000000000               0.000000000              -0.004052480               0.008428512               0.000647147              -0.002573238               0.003667222               0.001093984               0.000000000               0.000000000               0.000000000               0.000000000              -0.003548755               0.008005853               0.000503249              -0.002331509               0.003445761               0.001114252               0.000000000               0.000000000               0.000000000               0.000000000              -0.002949426               0.007468071               0.000401065              -0.002039539               0.003169178               0.001129640               0.000000000               0.000000000               0.000000000               0.000000000              -0.002347925               0.006906447               0.000321834              -0.001743773               0.002883384               0.001139610               0.000000000               0.000000000               0.000000000               0.000000000              -0.001794533               0.006365120               0.000255706              -0.001468586               0.002611214               0.001142628               0.000000000               0.000000000               0.000000000               0.000000000              -0.001293706               0.005876696               0.000205236              -0.001219724               0.002365454               0.001145730               0.000000000               0.000000000               0.000000000               0.000000000              -0.000854680               0.005449441               0.000164121              -0.001001683               0.002150356               0.001148674               0.000000000               0.000000000               0.000000000               0.000000000              -0.000477027               0.005095028               0.000128916              -0.000815762               0.001970246               0.001154485               0.000000000               0.000000000               0.000000000               0.000000000              -0.000173979               0.004824190               0.000104058              -0.000668264               0.001830802               0.001162538               0.000000000               0.000000000               0.000000000               0.000000000               0.000041045               0.004650401               0.000085860              -0.000565907               0.001738754               0.001172847               0.000000000               0.000000000               0.000000000               0.000000000               0.000166339               0.004578777               0.000066792              -0.000509969               0.001696233               0.001186265               0.000000000               0.000000000               0.000000000               0.000000000               0.000209945               0.004604001               0.000044172              -0.000496770               0.001700242               0.001203472               0.000000000               0.000000000               0.000000000               0.000000000               0.000186960               0.004693999               0.000020666              -0.000516639               0.001736864               0.001220225               0.000000000               0.000000000               0.000000000               0.000000000               0.000151365               0.004754218               0.000009128              -0.000537514               0.001763895               0.001226381               0.000000000               0.000000000               0.000000000               0.000000000              -0.002822785               0.003791701               0.000751590              -0.001532504               0.001774722               0.000242218               0.000000000               0.000000000               0.000000000               0.000000000              -0.003798707               0.005639899               0.001161446              -0.002129497               0.002589780               0.000460282               0.000000000               0.000000000               0.000000000               0.000000000              -0.004678676               0.007397231               0.001381417              -0.002679151               0.003358769               0.000679618               0.000000000               0.000000000               0.000000000               0.000000000              -0.004373713               0.007719055               0.001228862              -0.002605018               0.003441332               0.000836314               0.000000000               0.000000000               0.000000000               0.000000000              -0.003785726               0.007566072               0.001054467              -0.002365401               0.003310465               0.000945065               0.000000000               0.000000000               0.000000000               0.000000000              -0.003139993               0.007228523               0.000895804              -0.002081058               0.003103170               0.001022112               0.000000000               0.000000000               0.000000000               0.000000000              -0.002497432               0.006814772               0.000757690              -0.001788379               0.002867694               0.001079315               0.000000000               0.000000000               0.000000000               0.000000000              -0.001902328               0.006386981               0.000642467              -0.001511742               0.002632886               0.001121144               0.000000000               0.000000000               0.000000000               0.000000000              -0.001362090               0.005983537               0.000548589              -0.001258723               0.002414067               0.001155344               0.000000000               0.000000000               0.000000000               0.000000000              -0.000885299               0.005619937               0.000465061              -0.001034477               0.002218119               0.001183643               0.000000000               0.000000000               0.000000000               0.000000000              -0.000471202               0.005318308               0.000386467              -0.000841487               0.002053247               0.001211760               0.000000000               0.000000000               0.000000000               0.000000000              -0.000130449               0.005079514               0.000307709              -0.000683856               0.001921106               0.001237250               0.000000000               0.000000000               0.000000000               0.000000000               0.000125280               0.004904990               0.000234337              -0.000566142               0.001823694               0.001257552               0.000000000               0.000000000               0.000000000               0.000000000               0.000291404               0.004807133               0.000164173              -0.000491614               0.001766233               0.001274619               0.000000000               0.000000000               0.000000000               0.000000000               0.000371990               0.004801110               0.000094838              -0.000460641               0.001753901               0.001293260               0.000000000               0.000000000               0.000000000               0.000000000               0.000382234               0.004875438               0.000037703              -0.000466091               0.001780493               0.001314402               0.000000000               0.000000000               0.000000000               0.000000000               0.000352195               0.004918932               0.000007378              -0.000482792               0.001800558               0.001317766               0.000000000               0.000000000               0.000000000               0.000000000              -0.004690163               0.002052059              -0.000127745              -0.002015315               0.001355782              -0.000659533               0.000000000               0.000000000               0.000000000               0.000000000              -0.004737104               0.004130010               0.000955457              -0.002292660               0.002140875              -0.000151785               0.000000000               0.000000000               0.000000000               0.000000000              -0.005068845               0.006089848               0.001778546              -0.002662041               0.002917276               0.000255234               0.000000000               0.000000000               0.000000000               0.000000000              -0.004631153               0.006771566               0.001777187              -0.002583122               0.003118206               0.000535084               0.000000000               0.000000000               0.000000000               0.000000000              -0.003994457               0.006927181               0.001605047              -0.002363813               0.003096975               0.000733161               0.000000000               0.000000000               0.000000000               0.000000000              -0.003328410               0.006831414               0.001410126              -0.002102076               0.002977807               0.000875731               0.000000000               0.000000000               0.000000000               0.000000000              -0.002675932               0.006605144               0.001227645              -0.001829113               0.002811397               0.000982284               0.000000000               0.000000000               0.000000000               0.000000000              -0.002054885               0.006321519               0.001072570              -0.001560768               0.002627408               0.001066640               0.000000000               0.000000000               0.000000000               0.000000000              -0.001482115               0.006026685               0.000938268              -0.001309126               0.002445250               0.001136124               0.000000000               0.000000000               0.000000000               0.000000000              -0.000962314               0.005750189               0.000814376              -0.001079639               0.002276590               0.001196951               0.000000000               0.000000000               0.000000000               0.000000000              -0.000501957               0.005505887               0.000694692              -0.000876468               0.002127433               0.001250965               0.000000000               0.000000000               0.000000000               0.000000000              -0.000105168               0.005300955               0.000573856              -0.000702056               0.002000986               0.001298930               0.000000000               0.000000000               0.000000000               0.000000000               0.000221259               0.005134271               0.000453767              -0.000558811               0.001897677               0.001338866               0.000000000               0.000000000               0.000000000               0.000000000               0.000462089               0.005007965               0.000330565              -0.000452711               0.001820209               0.001367497               0.000000000               0.000000000               0.000000000               0.000000000               0.000612617               0.004942070               0.000204885              -0.000388027               0.001776682               0.001388656               0.000000000               0.000000000               0.000000000               0.000000000               0.000671072               0.004947647               0.000090923              -0.000366803               0.001771467               0.001404664               0.000000000               0.000000000               0.000000000               0.000000000               0.000659208               0.004957093               0.000033496              -0.000372433               0.001776492               0.001404059               0.000000000               0.000000000               0.000000000               0.000000000              -0.006802659               0.000663898              -0.000879207              -0.002633982               0.001099286              -0.001534696               0.000000000               0.000000000               0.000000000               0.000000000              -0.005820045               0.002710694               0.000679038              -0.002521350               0.001744003              -0.000777347               0.000000000               0.000000000               0.000000000               0.000000000              -0.005398834               0.004593718               0.001973163              -0.002598772               0.002397480              -0.000201292               0.000000000               0.000000000               0.000000000               0.000000000              -0.004743701               0.005519759               0.002163071              -0.002468852               0.002662851               0.000193999               0.000000000               0.000000000               0.000000000               0.000000000              -0.004041598               0.005955151               0.002044005              -0.002259988               0.002738359               0.000478371               0.000000000               0.000000000               0.000000000               0.000000000              -0.003358427               0.006109596               0.001846215              -0.002023105               0.002710880               0.000687774               0.000000000               0.000000000               0.000000000               0.000000000              -0.002708385               0.006095795               0.001642095              -0.001777615               0.002624449               0.000846834               0.000000000               0.000000000               0.000000000               0.000000000              -0.002086258               0.005983992               0.001461761              -0.001530342               0.002504758               0.000974415               0.000000000               0.000000000               0.000000000               0.000000000              -0.001500379               0.005824922               0.001302595              -0.001290755               0.002371873               0.001081118               0.000000000               0.000000000               0.000000000               0.000000000              -0.000951984               0.005659161               0.001153179              -0.001064387               0.002241163               0.001176777               0.000000000               0.000000000               0.000000000               0.000000000              -0.000447210               0.005506387               0.001005435              -0.000856000               0.002120777               0.001264777               0.000000000               0.000000000               0.000000000               0.000000000               0.000008789               0.005367503               0.000858675              -0.000667641               0.002011697               0.001344056               0.000000000               0.000000000               0.000000000               0.000000000               0.000404812               0.005239252               0.000705914              -0.000503101               0.001914100               0.001410999               0.000000000               0.000000000               0.000000000               0.000000000               0.000725770               0.005128045               0.000539673              -0.000368841               0.001832278               0.001463437               0.000000000               0.000000000               0.000000000               0.000000000               0.000958420               0.005043935               0.000358580              -0.000271084               0.001771656               0.001500572               0.000000000               0.000000000               0.000000000               0.000000000               0.001091339               0.005005841               0.000174980              -0.000216477               0.001740756               0.001524279               0.000000000               0.000000000               0.000000000               0.000000000               0.001119642               0.004994406               0.000083410              -0.000204435               0.001732930               0.001528495               0.000000000               0.000000000               0.000000000               0.000000000              -0.009021192              -0.000304563              -0.001381979              -0.003344874               0.001013430              -0.002331444               0.000000000               0.000000000               0.000000000               0.000000000              -0.006985465               0.001467426               0.000390866              -0.002802974               0.001423457              -0.001379517               0.000000000               0.000000000               0.000000000               0.000000000              -0.005693057               0.003047863               0.001941293              -0.002515875               0.001854566              -0.000661309               0.000000000               0.000000000               0.000000000               0.000000000              -0.004737488               0.004075077               0.002296965              -0.002285938               0.002120323              -0.000165615               0.000000000               0.000000000               0.000000000               0.000000000              -0.003938507               0.004723894               0.002258330              -0.002067423               0.002263755               0.000196333               0.000000000               0.000000000               0.000000000               0.000000000              -0.003230860               0.005104623               0.002090960              -0.001849646               0.002318072               0.000468426               0.000000000               0.000000000               0.000000000               0.000000000              -0.002582491               0.005299289               0.001897719              -0.001630842               0.002310025               0.000679184               0.000000000               0.000000000               0.000000000               0.000000000              -0.001969097               0.005376365               0.001714874              -0.001410454               0.002262255               0.000851800               0.000000000               0.000000000               0.000000000               0.000000000              -0.001385692               0.005379792               0.001547025              -0.001192106               0.002190614               0.000998508               0.000000000               0.000000000               0.000000000               0.000000000              -0.000827334               0.005344644               0.001389805              -0.000978329               0.002107640               0.001129311               0.000000000               0.000000000               0.000000000               0.000000000              -0.000291307               0.005297875               0.001237434              -0.000771473               0.002023098               0.001251625               0.000000000               0.000000000               0.000000000               0.000000000               0.000216604               0.005245011               0.001083820              -0.000574399               0.001939786               0.001365387               0.000000000               0.000000000               0.000000000               0.000000000               0.000684081               0.005189772               0.000917058              -0.000392191               0.001860637               0.001468446               0.000000000               0.000000000               0.000000000               0.000000000               0.001098252               0.005132635               0.000726251              -0.000229735               0.001787439               0.001557705               0.000000000               0.000000000               0.000000000               0.000000000               0.001440523               0.005074333               0.000508040              -0.000094096               0.001722793               0.001628697               0.000000000               0.000000000               0.000000000               0.000000000               0.001692832               0.005031964               0.000263358               0.000005816               0.001675366               0.001681182               0.000000000               0.000000000               0.000000000               0.000000000               0.001806170               0.005022329               0.000139879               0.000049522               0.001657586               0.001707108               0.000000000               0.000000000               0.000000000               0.000000000              -0.011142526              -0.000885084              -0.001534219              -0.004067809               0.001060900              -0.003006909               0.000000000               0.000000000               0.000000000               0.000000000              -0.008127951               0.000470723               0.000157866              -0.003106819               0.001192506              -0.001914313               0.000000000               0.000000000               0.000000000               0.000000000              -0.005963558               0.001606601               0.001689749              -0.002437156               0.001347909              -0.001089247               0.000000000               0.000000000               0.000000000               0.000000000              -0.004659529               0.002609057               0.002123912              -0.002073452               0.001560825              -0.000512627               0.000000000               0.000000000               0.000000000               0.000000000              -0.003736073               0.003382490               0.002158446              -0.001823835               0.001735429              -0.000088406               0.000000000               0.000000000               0.000000000               0.000000000              -0.002985485               0.003942590               0.002044201              -0.001612377               0.001851642               0.000239264               0.000000000               0.000000000               0.000000000               0.000000000              -0.002331279               0.004327419               0.001887501              -0.001415154               0.001914176               0.000499022               0.000000000               0.000000000               0.000000000               0.000000000              -0.001730197               0.004583441               0.001726684              -0.001221752               0.001935048               0.000713297               0.000000000               0.000000000               0.000000000               0.000000000              -0.001160914               0.004749079               0.001572991              -0.001028976               0.001926002               0.000897026               0.000000000               0.000000000               0.000000000               0.000000000              -0.000602113               0.004856258               0.001431311              -0.000832823               0.001896344               0.001063521               0.000000000               0.000000000               0.000000000               0.000000000              -0.000048485               0.004924968               0.001294554              -0.000633802               0.001852907               0.001219105               0.000000000               0.000000000               0.000000000               0.000000000               0.000494643               0.004974271               0.001153528              -0.000436293               0.001803504               0.001367212               0.000000000               0.000000000               0.000000000               0.000000000               0.001025247               0.005011814               0.000999018              -0.000242009               0.001751258               0.001509248               0.000000000               0.000000000               0.000000000               0.000000000               0.001537741               0.005029429               0.000817853              -0.000052026               0.001693802               0.001641776               0.000000000               0.000000000               0.000000000               0.000000000               0.002019446               0.005030380               0.000596461               0.000128493               0.001633946               0.001762439               0.000000000               0.000000000               0.000000000               0.000000000               0.002447004               0.005022857               0.000323816               0.000289767               0.001577680               0.001867447               0.000000000               0.000000000               0.000000000               0.000000000               0.002699739               0.005040045               0.000186375               0.000382393               0.001552534               0.001934927               0.000000000               0.000000000               0.000000000               0.000000000              -0.012917820              -0.001178967              -0.001301696              -0.004696809               0.001172606              -0.003524203               0.000000000               0.000000000               0.000000000               0.000000000              -0.009104102              -0.000248786               0.000020943              -0.003382938               0.001044710              -0.002338228               0.000000000               0.000000000               0.000000000               0.000000000              -0.006194028               0.000431167               0.001247135              -0.002376654               0.000935934              -0.001440721               0.000000000               0.000000000               0.000000000               0.000000000              -0.004556613               0.001333777               0.001639202              -0.001875450               0.001069734              -0.000805715               0.000000000               0.000000000               0.000000000               0.000000000              -0.003490334               0.002160785               0.001709334              -0.001578971               0.001246576              -0.000332395               0.000000000               0.000000000               0.000000000               0.000000000              -0.002690626               0.002843443               0.001649271              -0.001364413               0.001402608               0.000038196               0.000000000               0.000000000               0.000000000               0.000000000              -0.002028556               0.003371613               0.001543025              -0.001182158               0.001517912               0.000335754               0.000000000               0.000000000               0.000000000               0.000000000              -0.001440667               0.003771867               0.001424852              -0.001011732               0.001594520               0.000582788               0.000000000               0.000000000               0.000000000               0.000000000              -0.000885248               0.004076201               0.001309202              -0.000841492               0.001639217               0.000797725               0.000000000               0.000000000               0.000000000               0.000000000              -0.000335329               0.004307544               0.001203860              -0.000664190               0.001657230               0.000993040               0.000000000               0.000000000               0.000000000               0.000000000               0.000223129               0.004490557               0.001097680              -0.000477646               0.001656052               0.001178407               0.000000000               0.000000000               0.000000000               0.000000000               0.000794911               0.004646526               0.000987977              -0.000282724               0.001643068               0.001360343               0.000000000               0.000000000               0.000000000               0.000000000               0.001383857               0.004776242               0.000870888              -0.000078085               0.001618093               0.001540008               0.000000000               0.000000000               0.000000000               0.000000000               0.001989576               0.004878736               0.000730972               0.000136248               0.001580813               0.001717061               0.000000000               0.000000000               0.000000000               0.000000000               0.002614279               0.004954391               0.000551079               0.000361052               0.001531096               0.001892149               0.000000000               0.000000000               0.000000000               0.000000000               0.003254041               0.004995163               0.000309738               0.000595864               0.001466416               0.002062280               0.000000000               0.000000000               0.000000000               0.000000000               0.003693301               0.005049222               0.000187354               0.000753827               0.001431782               0.002185609               0.000000000               0.000000000               0.000000000               0.000000000              -0.014105187              -0.001294571              -0.000742404              -0.005127620               0.001277674              -0.003849946               0.000000000               0.000000000               0.000000000               0.000000000              -0.009769530              -0.000680614              -0.000018085              -0.003578495               0.000965954              -0.002612541               0.000000000               0.000000000               0.000000000               0.000000000              -0.006350397              -0.000341021               0.000662809              -0.002338769               0.000665911              -0.001672858               0.000000000               0.000000000               0.000000000               0.000000000              -0.004472249               0.000457857               0.000895078              -0.001734324               0.000730721              -0.001003602               0.000000000               0.000000000               0.000000000               0.000000000              -0.003289658               0.001296677               0.000948821              -0.001395704               0.000897454              -0.000498250               0.000000000               0.000000000               0.000000000               0.000000000              -0.002449343               0.002047110               0.000926758              -0.001174390               0.001073826              -0.000100564               0.000000000               0.000000000               0.000000000               0.000000000              -0.001777778               0.002670021               0.000874092              -0.001000417               0.001223470               0.000223053               0.000000000               0.000000000               0.000000000               0.000000000              -0.001194296               0.003162085               0.000812088              -0.000843120               0.001335058               0.000491938               0.000000000               0.000000000               0.000000000               0.000000000              -0.000645941               0.003547218               0.000751060              -0.000685629               0.001410937               0.000725308               0.000000000               0.000000000               0.000000000               0.000000000              -0.000104104               0.003862156               0.000695266              -0.000521808               0.001461308               0.000939501               0.000000000               0.000000000               0.000000000               0.000000000               0.000453561               0.004132649               0.000636685              -0.000346495               0.001493034               0.001146539               0.000000000               0.000000000               0.000000000               0.000000000               0.001044810               0.004369687               0.000576269              -0.000154407               0.001508017               0.001353610               0.000000000               0.000000000               0.000000000               0.000000000               0.001675075               0.004571000               0.000511708               0.000056777               0.001504726               0.001561503               0.000000000               0.000000000               0.000000000               0.000000000               0.002353206               0.004739518               0.000432733               0.000290009               0.001483154               0.001773163               0.000000000               0.000000000               0.000000000               0.000000000               0.003092248               0.004871206               0.000332421               0.000550687               0.001440157               0.001990844               0.000000000               0.000000000               0.000000000               0.000000000               0.003908295               0.004953248               0.000191520               0.000846446               0.001368917               0.002215363               0.000000000               0.000000000               0.000000000               0.000000000               0.004514495               0.005043134               0.000119562               0.001062533               0.001326850               0.002389383               0.000000000               0.000000000               0.000000000               0.000000000              -0.014523909              -0.001321245               0.000000000              -0.005281307               0.001320012              -0.003961295               0.000000000               0.000000000               0.000000000               0.000000000              -0.010006765              -0.000825526               0.000000000              -0.003649344               0.000941266              -0.002708078               0.000000000               0.000000000               0.000000000               0.000000000              -0.006404623              -0.000612085              -0.000000000              -0.002325221               0.000571041              -0.001754180               0.000000000               0.000000000               0.000000000               0.000000000              -0.004440067               0.000145093              -0.000000000              -0.001683160               0.000609414              -0.001073747               0.000000000               0.000000000               0.000000000               0.000000000              -0.003214459               0.000984165               0.000000000              -0.001328441               0.000770863              -0.000557577               0.000000000               0.000000000               0.000000000               0.000000000              -0.002358501               0.001756186               0.000000000              -0.001103959               0.000953375              -0.000150584               0.000000000               0.000000000               0.000000000               0.000000000              -0.001683006               0.002411554               0.000000000              -0.000932569               0.001114699               0.000182130               0.000000000               0.000000000               0.000000000               0.000000000              -0.001097001               0.002933167              -0.000000000              -0.000778019               0.001237052               0.000459033               0.000000000               0.000000000               0.000000000               0.000000000              -0.000547066               0.003344911              -0.000000000              -0.000623262               0.001322713               0.000699451               0.000000000               0.000000000               0.000000000               0.000000000              -0.000006533               0.003691008               0.000000000              -0.000463825               0.001384932               0.000921107               0.000000000               0.000000000               0.000000000               0.000000000               0.000549412               0.003991729              -0.000000000              -0.000292936               0.001428209               0.001135272               0.000000000               0.000000000               0.000000000               0.000000000               0.001144552               0.004257155              -0.000000000              -0.000102937               0.001453350               0.001350413               0.000000000               0.000000000               0.000000000               0.000000000               0.001787204               0.004487041              -0.000000000               0.000109320               0.001459225               0.001568546               0.000000000               0.000000000               0.000000000               0.000000000               0.002493160               0.004679535               0.000000000               0.000349990               0.001443166               0.001793156               0.000000000               0.000000000               0.000000000               0.000000000               0.003278612               0.004832085              -0.000000000               0.000625463               0.001402191               0.002027654               0.000000000               0.000000000               0.000000000               0.000000000               0.004162292               0.004933493              -0.000000000               0.000944163               0.001329760               0.002273924               0.000000000               0.000000000               0.000000000               0.000000000               0.004832916               0.005039400              -0.000000000               0.001182407               0.001285648               0.002468054               0.000000000               0.000000000               0.000000000               0.000000000               0.002108682               0.022143188              -0.000000000              -0.001977138               0.008040035               0.006062897               0.000000000               0.000000000               0.000000000               0.000000000               0.002020052               0.016908988              -0.000000000              -0.001356101               0.006088307               0.004732206               0.000000000               0.000000000               0.000000000               0.000000000               0.002591097               0.012653239               0.000000000              -0.000609992               0.004421035               0.003811043               0.000000000               0.000000000               0.000000000               0.000000000               0.002390311               0.010248587              -0.000000000              -0.000384706               0.003544397               0.003159691               0.000000000               0.000000000               0.000000000               0.000000000               0.001986290               0.008729322              -0.000000000              -0.000346306               0.003025180               0.002678875               0.000000000               0.000000000               0.000000000               0.000000000               0.001563666               0.007656018               0.000000000              -0.000370627               0.002675523               0.002304896               0.000000000               0.000000000               0.000000000               0.000000000               0.001180979               0.006817590               0.000000000              -0.000409331               0.002408951               0.001999620               0.000000000               0.000000000               0.000000000               0.000000000               0.000853705               0.006109512              -0.000000000              -0.000443548               0.002184333               0.001740785               0.000000000               0.000000000               0.000000000               0.000000000               0.000584536               0.005478579              -0.000000000              -0.000465620               0.001981381               0.001515761               0.000000000               0.000000000               0.000000000               0.000000000               0.000359281               0.004885010              -0.000000000              -0.000475895               0.001786952               0.001311057               0.000000000               0.000000000               0.000000000               0.000000000               0.000174149               0.004292045              -0.000000000              -0.000471199               0.001587733               0.001116535               0.000000000               0.000000000               0.000000000               0.000000000               0.000037190               0.003682549               0.000000000              -0.000446371               0.001376294               0.000929923               0.000000000               0.000000000               0.000000000               0.000000000              -0.000054103               0.003047599               0.000000000              -0.000401238               0.001149602               0.000748364               0.000000000               0.000000000               0.000000000               0.000000000              -0.000104395               0.002379095              -0.000000000              -0.000336534               0.000905202               0.000568668               0.000000000               0.000000000               0.000000000               0.000000000              -0.000113461               0.001657022               0.000000000              -0.000249675               0.000635560               0.000385885               0.000000000               0.000000000               0.000000000               0.000000000              -0.000073001               0.000849260              -0.000000000              -0.000133533               0.000327595               0.000194062               0.000000000               0.000000000               0.000000000               0.000000000              -0.000106979               0.000226687              -0.000000000              -0.000068453               0.000098379               0.000029926               0.000000000               0.000000000               0.000000000               0.000000000               0.002166117               0.021664758              -0.001455239              -0.001895797               0.007853446               0.005957649               0.000000000               0.000000000               0.000000000               0.000000000               0.001953414               0.016609389              -0.000633844              -0.001343640               0.005984288               0.004640647               0.000000000               0.000000000               0.000000000               0.000000000               0.002392322               0.012541521               0.000174823              -0.000670568               0.004403988               0.003733420               0.000000000               0.000000000               0.000000000               0.000000000               0.002142924               0.010236841               0.000506405              -0.000476008               0.003570916               0.003094908               0.000000000               0.000000000               0.000000000               0.000000000               0.001730614               0.008763251               0.000631734              -0.000446425               0.003069863               0.002623438               0.000000000               0.000000000               0.000000000               0.000000000               0.001321197               0.007710353               0.000663858              -0.000468344               0.002726207               0.002257862               0.000000000               0.000000000               0.000000000               0.000000000               0.000959580               0.006883115               0.000655648              -0.000500546               0.002461197               0.001960652               0.000000000               0.000000000               0.000000000               0.000000000               0.000655581               0.006182000               0.000631431              -0.000526906               0.002236281               0.001709375               0.000000000               0.000000000               0.000000000               0.000000000               0.000409641               0.005553112               0.000602216              -0.000540523               0.002031193               0.001490670               0.000000000               0.000000000               0.000000000               0.000000000               0.000208251               0.004956009               0.000565557              -0.000541406               0.001832455               0.001291049               0.000000000               0.000000000               0.000000000               0.000000000               0.000051885               0.004363888               0.000521948              -0.000526028               0.001629957               0.001103930               0.000000000               0.000000000               0.000000000               0.000000000              -0.000055486               0.003763756               0.000477190              -0.000491276               0.001418331               0.000927056               0.000000000               0.000000000               0.000000000               0.000000000              -0.000120037               0.003146274               0.000432026              -0.000438297               0.001194847               0.000756550               0.000000000               0.000000000               0.000000000               0.000000000              -0.000146251               0.002503622               0.000378082              -0.000367796               0.000957131               0.000589335               0.000000000               0.000000000               0.000000000               0.000000000              -0.000134342               0.001822084               0.000298545              -0.000278138               0.000700068               0.000421930               0.000000000               0.000000000               0.000000000               0.000000000              -0.000080991               0.001080656               0.000173652              -0.000165453               0.000415366               0.000249913               0.000000000               0.000000000               0.000000000               0.000000000              -0.000103206               0.000526244               0.000108704              -0.000104483               0.000210240               0.000105758               0.000000000               0.000000000               0.000000000               0.000000000               0.002297956               0.020299952              -0.002687549              -0.001675757               0.007325168               0.005649411               0.000000000               0.000000000               0.000000000               0.000000000               0.001743874               0.015761109              -0.001164194              -0.001316183               0.005692378               0.004376195               0.000000000               0.000000000               0.000000000               0.000000000               0.001822573               0.012225729               0.000322654              -0.000844749               0.004356785               0.003512036               0.000000000               0.000000000               0.000000000               0.000000000               0.001451411               0.010189314               0.000908722              -0.000729383               0.003639532               0.002910148               0.000000000               0.000000000               0.000000000               0.000000000               0.001026829               0.008844554               0.001116548              -0.000720507               0.003188324               0.002467817               0.000000000               0.000000000               0.000000000               0.000000000               0.000656181               0.007850739               0.001160791              -0.000735273               0.002861978               0.002126705               0.000000000               0.000000000               0.000000000               0.000000000               0.000355200               0.007049702               0.001136777              -0.000748011               0.002599214               0.001851203               0.000000000               0.000000000               0.000000000               0.000000000               0.000122483               0.006362610               0.001086787              -0.000749394               0.002370646               0.001621253               0.000000000               0.000000000               0.000000000               0.000000000              -0.000047655               0.005738512               0.001027512              -0.000735183               0.002157879               0.001422696               0.000000000               0.000000000               0.000000000               0.000000000              -0.000171013               0.005143661               0.000958206              -0.000707086               0.001950232               0.001243146               0.000000000               0.000000000               0.000000000               0.000000000              -0.000249844               0.004561226               0.000879892              -0.000663844               0.001741675               0.001077831               0.000000000               0.000000000               0.000000000               0.000000000              -0.000285691               0.003985249               0.000797661              -0.000605289               0.001530166               0.000924877               0.000000000               0.000000000               0.000000000               0.000000000              -0.000285964               0.003410619               0.000711810              -0.000533563               0.001314716               0.000781153               0.000000000               0.000000000               0.000000000               0.000000000              -0.000252153               0.002836406               0.000610589              -0.000449107               0.001095161               0.000646054               0.000000000               0.000000000               0.000000000               0.000000000              -0.000189441               0.002259970               0.000468651              -0.000353536               0.000871161               0.000517625               0.000000000               0.000000000               0.000000000               0.000000000              -0.000103946               0.001681584               0.000264557              -0.000249177               0.000643582               0.000394404               0.000000000               0.000000000               0.000000000               0.000000000              -0.000097533               0.001283833               0.000160803              -0.000197054               0.000493624               0.000296571               0.000000000               0.000000000               0.000000000               0.000000000               0.002390149               0.018232369              -0.003524121              -0.001382739               0.006538308               0.005155569               0.000000000               0.000000000               0.000000000               0.000000000               0.001361437               0.014493959              -0.001516354              -0.001301203               0.005265006               0.003963802               0.000000000               0.000000000               0.000000000               0.000000000               0.000942674               0.011754781               0.000411273              -0.001115842               0.004290169               0.003174326               0.000000000               0.000000000               0.000000000               0.000000000               0.000435994               0.010090962               0.001120744              -0.001097870               0.003729577               0.002631707               0.000000000               0.000000000               0.000000000               0.000000000               0.000030320               0.008921567               0.001347906              -0.001103824               0.003341767               0.002237943               0.000000000               0.000000000               0.000000000               0.000000000              -0.000257695               0.008010744               0.001378509              -0.001097976               0.003036213               0.001938237               0.000000000               0.000000000               0.000000000               0.000000000              -0.000447626               0.007248815               0.001334731              -0.001073960               0.002774234               0.001700274               0.000000000               0.000000000               0.000000000               0.000000000              -0.000561731               0.006577634               0.001265136              -0.001032851               0.002536806               0.001503955               0.000000000               0.000000000               0.000000000               0.000000000              -0.000614018               0.005959751               0.001185062              -0.000975224               0.002311638               0.001336414               0.000000000               0.000000000               0.000000000               0.000000000              -0.000623212               0.005372181               0.001095272              -0.000905225               0.002092451               0.001187225               0.000000000               0.000000000               0.000000000               0.000000000              -0.000600530               0.004810325               0.000994120              -0.000826488               0.001878921               0.001052434               0.000000000               0.000000000               0.000000000               0.000000000              -0.000545221               0.004271670               0.000887483              -0.000738415               0.001670014               0.000931599               0.000000000               0.000000000               0.000000000               0.000000000              -0.000461493               0.003757338               0.000775942              -0.000642726               0.001466675               0.000823950               0.000000000               0.000000000               0.000000000               0.000000000              -0.000357211               0.003268988               0.000648280              -0.000542576               0.001270510               0.000727934               0.000000000               0.000000000               0.000000000               0.000000000              -0.000240340               0.002816705               0.000480420              -0.000442215               0.001086297               0.000644082               0.000000000               0.000000000               0.000000000               0.000000000              -0.000121019               0.002421674               0.000261185              -0.000348091               0.000923247               0.000575156               0.000000000               0.000000000               0.000000000               0.000000000              -0.000086315               0.002185468               0.000152104              -0.000305551               0.000830332               0.000524781               0.000000000               0.000000000               0.000000000               0.000000000               0.002297839               0.015707891              -0.003882165              -0.001101797               0.005603176               0.004501379               0.000000000               0.000000000               0.000000000               0.000000000               0.000781035               0.012975651              -0.001674051              -0.001329066               0.004768195               0.003439129               0.000000000               0.000000000               0.000000000               0.000000000              -0.000151556               0.011182127               0.000400999              -0.001454596               0.004212204               0.002757608               0.000000000               0.000000000               0.000000000               0.000000000              -0.000736749               0.009926828               0.001100220              -0.001517131               0.003814620               0.002297489               0.000000000               0.000000000               0.000000000               0.000000000              -0.001060641               0.008938973               0.001300497              -0.001515109               0.003484664               0.001969555               0.000000000               0.000000000               0.000000000               0.000000000              -0.001210602               0.008118786               0.001308849              -0.001468821               0.003195842               0.001727021               0.000000000               0.000000000               0.000000000               0.000000000              -0.001246348               0.007402178               0.001249865              -0.001392650               0.002931585               0.001538935               0.000000000               0.000000000               0.000000000               0.000000000              -0.001207698               0.006746768               0.001170983              -0.001296230               0.002680977               0.001384747               0.000000000               0.000000000               0.000000000               0.000000000              -0.001119494               0.006134103               0.001083639              -0.001186570               0.002440204               0.001253633               0.000000000               0.000000000               0.000000000               0.000000000              -0.001003596               0.005554954               0.000991882              -0.001070715               0.002208538               0.001137822               0.000000000               0.000000000               0.000000000               0.000000000              -0.000870371               0.005018792               0.000890345              -0.000953736               0.001990826               0.001037090               0.000000000               0.000000000               0.000000000               0.000000000              -0.000721420               0.004526137               0.000779054              -0.000836298               0.001787463               0.000951165               0.000000000               0.000000000               0.000000000               0.000000000              -0.000563536               0.004075580               0.000661320              -0.000720772               0.001598770               0.000877998               0.000000000               0.000000000               0.000000000               0.000000000              -0.000401708               0.003673632               0.000530458              -0.000609843               0.001427813               0.000817969               0.000000000               0.000000000               0.000000000               0.000000000              -0.000247180               0.003335613               0.000376734              -0.000509643               0.001281741               0.000772098               0.000000000               0.000000000               0.000000000               0.000000000              -0.000113119               0.003088564               0.000197727              -0.000428489               0.001172341               0.000743852               0.000000000               0.000000000               0.000000000               0.000000000              -0.000063804               0.002971302               0.000109729              -0.000395338               0.001122203               0.000726865               0.000000000               0.000000000               0.000000000               0.000000000               0.001889919               0.012986704              -0.003778136              -0.000914619               0.004633730               0.003719111               0.000000000               0.000000000               0.000000000               0.000000000               0.000002364               0.011375120              -0.001676949              -0.001421001               0.004265335               0.002844334               0.000000000               0.000000000               0.000000000               0.000000000              -0.001331822               0.010556103               0.000261484              -0.001818942               0.004124980               0.002306038               0.000000000               0.000000000               0.000000000               0.000000000              -0.001882692               0.009682114               0.000858689              -0.001916269               0.003866095               0.001949826               0.000000000               0.000000000               0.000000000               0.000000000              -0.002049831               0.008861269               0.001013651              -0.001876341               0.003579174               0.001702833               0.000000000               0.000000000               0.000000000               0.000000000              -0.002017094               0.008122856               0.001007980              -0.001771763               0.003298179               0.001526416               0.000000000               0.000000000               0.000000000               0.000000000              -0.001878650               0.007437282               0.000948782              -0.001634150               0.003023786               0.001389636               0.000000000               0.000000000               0.000000000               0.000000000              -0.001681852               0.006795141               0.000878424              -0.001480083               0.002758385               0.001278302               0.000000000               0.000000000               0.000000000               0.000000000              -0.001454321               0.006191925               0.000806009              -0.001319358               0.002503740               0.001184382               0.000000000               0.000000000               0.000000000               0.000000000              -0.001219035               0.005635282               0.000733028              -0.001161546               0.002265591               0.001104045               0.000000000               0.000000000               0.000000000               0.000000000              -0.000989833               0.005133653               0.000652990              -0.001012892               0.002048831               0.001035939               0.000000000               0.000000000               0.000000000               0.000000000              -0.000764930               0.004689105               0.000557270              -0.000872985               0.001854014               0.000981029               0.000000000               0.000000000               0.000000000               0.000000000              -0.000554603               0.004300200               0.000454222              -0.000745499               0.001681885               0.000936386               0.000000000               0.000000000               0.000000000               0.000000000              -0.000361869               0.003978472               0.000344884              -0.000633008               0.001537147               0.000904138               0.000000000               0.000000000               0.000000000               0.000000000              -0.000197469               0.003739301               0.000228768              -0.000541462               0.001426909               0.000885446               0.000000000               0.000000000               0.000000000               0.000000000              -0.000080267               0.003597212               0.000113373              -0.000479751               0.001358975               0.000879225               0.000000000               0.000000000               0.000000000               0.000000000              -0.000035135               0.003555842               0.000057452              -0.000457655               0.001337820               0.000880166               0.000000000               0.000000000               0.000000000               0.000000000               0.001106152               0.010299147              -0.003300595              -0.000872587               0.003723876               0.002851289               0.000000000               0.000000000               0.000000000               0.000000000              -0.000930325               0.009823248              -0.001583441              -0.001576775               0.003799974               0.002223200               0.000000000               0.000000000               0.000000000               0.000000000              -0.002466035               0.009902492              -0.000011435              -0.002162569               0.004021654               0.001859085               0.000000000               0.000000000               0.000000000               0.000000000              -0.002857250               0.009343113               0.000440196              -0.002239352               0.003860791               0.001621438               0.000000000               0.000000000               0.000000000               0.000000000              -0.002803098               0.008659957               0.000558062              -0.002133651               0.003597841               0.001464190               0.000000000               0.000000000               0.000000000               0.000000000              -0.002566485               0.007979884               0.000560767              -0.001959912               0.003313239               0.001353327               0.000000000               0.000000000               0.000000000               0.000000000              -0.002250980               0.007320735               0.000527652              -0.001759205               0.003026622               0.001267417               0.000000000               0.000000000               0.000000000               0.000000000              -0.001904340               0.006701075               0.000491386              -0.001551758               0.002750922               0.001199164               0.000000000               0.000000000               0.000000000               0.000000000              -0.001560837               0.006123365               0.000453017              -0.001350731               0.002491345               0.001140614               0.000000000               0.000000000               0.000000000               0.000000000              -0.001232738               0.005601752               0.000415777              -0.001162493               0.002254729               0.001092237               0.000000000               0.000000000               0.000000000               0.000000000              -0.000930517               0.005142377               0.000370355              -0.000991739               0.002044688               0.001052950               0.000000000               0.000000000               0.000000000               0.000000000              -0.000658741               0.004748686               0.000305096              -0.000840611               0.001863083               0.001022472               0.000000000               0.000000000               0.000000000               0.000000000              -0.000424893               0.004426480               0.000230640              -0.000712643               0.001713026               0.001000383               0.000000000               0.000000000               0.000000000               0.000000000              -0.000235740               0.004188007               0.000156212              -0.000611902               0.001599956               0.000988054               0.000000000               0.000000000               0.000000000               0.000000000              -0.000097973               0.004041802               0.000085971              -0.000541964               0.001527908               0.000985945               0.000000000               0.000000000               0.000000000               0.000000000              -0.000024453               0.003986081               0.000033190              -0.000507429               0.001497823               0.000990394               0.000000000               0.000000000               0.000000000               0.000000000               0.000002831               0.003994421               0.000009427              -0.000498240               0.001497540               0.000999301               0.000000000               0.000000000               0.000000000               0.000000000              -0.000011834               0.007822163              -0.002558264              -0.000982207               0.002934763               0.001952556               0.000000000               0.000000000               0.000000000               0.000000000              -0.001956773               0.008408083              -0.001445565              -0.001784797               0.003397598               0.001612802               0.000000000               0.000000000               0.000000000               0.000000000              -0.003438068               0.009211081              -0.000405811              -0.002440655               0.003883881               0.001443226               0.000000000               0.000000000               0.000000000               0.000000000              -0.003563990               0.008893040              -0.000088046              -0.002448120               0.003780357               0.001332237               0.000000000               0.000000000               0.000000000               0.000000000              -0.003264714               0.008326750               0.000026982              -0.002265106               0.003530591               0.001265485               0.000000000               0.000000000               0.000000000               0.000000000              -0.002825875               0.007702596               0.000070722              -0.002022522               0.003241680               0.001219158               0.000000000               0.000000000               0.000000000               0.000000000              -0.002349922               0.007082797               0.000089542              -0.001766566               0.002949764               0.001183198               0.000000000               0.000000000               0.000000000               0.000000000              -0.001883193               0.006495275               0.000103528              -0.001518103               0.002671104               0.001153001               0.000000000               0.000000000               0.000000000               0.000000000              -0.001451540               0.005958614               0.000108164              -0.001289151               0.002415902               0.001126751               0.000000000               0.000000000               0.000000000               0.000000000              -0.001062952               0.005484437               0.000109495              -0.001084159               0.002189514               0.001105355               0.000000000               0.000000000               0.000000000               0.000000000              -0.000715316               0.005077967               0.000103866              -0.000902987               0.001993634               0.001090647               0.000000000               0.000000000               0.000000000               0.000000000              -0.000423366               0.004750428               0.000078200              -0.000752564               0.001834315               0.001081751               0.000000000               0.000000000               0.000000000               0.000000000              -0.000197024               0.004513999               0.000043558              -0.000638132               0.001717362               0.001079230               0.000000000               0.000000000               0.000000000               0.000000000              -0.000041465               0.004375801               0.000013086              -0.000562523               0.001646093               0.001083570               0.000000000               0.000000000               0.000000000               0.000000000               0.000039354               0.004330348              -0.000009680              -0.000526534               0.001618946               0.001092412               0.000000000               0.000000000               0.000000000               0.000000000               0.000045702               0.004357108              -0.000014967              -0.000527499               0.001628188               0.001100689               0.000000000               0.000000000               0.000000000               0.000000000               0.000037221               0.004401710              -0.000017198              -0.000536255               0.001645974               0.001109719               0.000000000               0.000000000               0.000000000               0.000000000              -0.001325404               0.005732148              -0.001670965              -0.001213543               0.002315211               0.001101668               0.000000000               0.000000000               0.000000000               0.000000000              -0.002960335               0.007133384              -0.001306843              -0.002001794               0.003045035               0.001043241               0.000000000               0.000000000               0.000000000               0.000000000              -0.004207190               0.008491035              -0.000883979              -0.002639069               0.003710006               0.001070937               0.000000000               0.000000000               0.000000000               0.000000000              -0.004052480               0.008428512              -0.000647147              -0.002573238               0.003667222               0.001093984               0.000000000               0.000000000               0.000000000               0.000000000              -0.003548755               0.008005853              -0.000503249              -0.002331509               0.003445761               0.001114252               0.000000000               0.000000000               0.000000000               0.000000000              -0.002949426               0.007468071              -0.000401065              -0.002039539               0.003169178               0.001129640               0.000000000               0.000000000               0.000000000               0.000000000              -0.002347925               0.006906447              -0.000321834              -0.001743773               0.002883384               0.001139610               0.000000000               0.000000000               0.000000000               0.000000000              -0.001794533               0.006365120              -0.000255706              -0.001468586               0.002611214               0.001142628               0.000000000               0.000000000               0.000000000               0.000000000              -0.001293706               0.005876696              -0.000205236              -0.001219724               0.002365454               0.001145730               0.000000000               0.000000000               0.000000000               0.000000000              -0.000854680               0.005449441              -0.000164121              -0.001001683               0.002150356               0.001148674               0.000000000               0.000000000               0.000000000               0.000000000              -0.000477027               0.005095028              -0.000128916              -0.000815762               0.001970246               0.001154485               0.000000000               0.000000000               0.000000000               0.000000000              -0.000173979               0.004824190              -0.000104058              -0.000668264               0.001830802               0.001162538               0.000000000               0.000000000               0.000000000               0.000000000               0.000041045               0.004650401              -0.000085860              -0.000565907               0.001738754               0.001172847               0.000000000               0.000000000               0.000000000               0.000000000               0.000166339               0.004578777              -0.000066792              -0.000509969               0.001696233               0.001186265               0.000000000               0.000000000               0.000000000               0.000000000               0.000209945               0.004604001              -0.000044172              -0.000496770               0.001700242               0.001203472               0.000000000               0.000000000               0.000000000               0.000000000               0.000186960               0.004693999              -0.000020666              -0.000516639               0.001736864               0.001220225               0.000000000               0.000000000               0.000000000               0.000000000               0.000151365               0.004754218              -0.000009128              -0.000537514               0.001763895               0.001226381               0.000000000               0.000000000               0.000000000               0.000000000              -0.002822785               0.003791701              -0.000751590              -0.001532504               0.001774722               0.000242218               0.000000000               0.000000000               0.000000000               0.000000000              -0.003798707               0.005639899              -0.001161446              -0.002129497               0.002589780               0.000460282               0.000000000               0.000000000               0.000000000               0.000000000              -0.004678676               0.007397231              -0.001381417              -0.002679151               0.003358769               0.000679618               0.000000000               0.000000000               0.000000000               0.000000000              -0.004373713               0.007719055              -0.001228862              -0.002605018               0.003441332               0.000836314               0.000000000               0.000000000               0.000000000               0.000000000              -0.003785726               0.007566072              -0.001054467              -0.002365401               0.003310465               0.000945065               0.000000000               0.000000000               0.000000000               0.000000000              -0.003139993               0.007228523              -0.000895804              -0.002081058               0.003103170               0.001022112               0.000000000               0.000000000               0.000000000               0.000000000              -0.002497432               0.006814772              -0.000757690              -0.001788379               0.002867694               0.001079315               0.000000000               0.000000000               0.000000000               0.000000000              -0.001902328               0.006386981              -0.000642467              -0.001511742               0.002632886               0.001121144               0.000000000               0.000000000               0.000000000               0.000000000              -0.001362090               0.005983537              -0.000548589              -0.001258723               0.002414067               0.001155344               0.000000000               0.000000000               0.000000000               0.000000000              -0.000885299               0.005619937              -0.000465061              -0.001034477               0.002218119               0.001183643               0.000000000               0.000000000               0.000000000               0.000000000              -0.000471202               0.005318308              -0.000386467              -0.000841487               0.002053247               0.001211760               0.000000000               0.000000000               0.000000000               0.000000000              -0.000130449               0.005079514              -0.000307709              -0.000683856               0.001921106               0.001237250               0.000000000               0.000000000               0.000000000               0.000000000               0.000125280               0.004904990              -0.000234337              -0.000566142               0.001823694               0.001257552               0.000000000               0.000000000               0.000000000               0.000000000               0.000291404               0.004807133              -0.000164173              -0.000491614               0.001766233               0.001274619               0.000000000               0.000000000               0.000000000               0.000000000               0.000371990               0.004801110              -0.000094838              -0.000460641               0.001753901               0.001293260               0.000000000               0.000000000               0.000000000               0.000000000               0.000382234               0.004875438              -0.000037703              -0.000466091               0.001780493               0.001314402               0.000000000               0.000000000               0.000000000               0.000000000               0.000352195               0.004918932              -0.000007378              -0.000482792               0.001800558               0.001317766               0.000000000               0.000000000               0.000000000               0.000000000              -0.004690163               0.002052059               0.000127745              -0.002015315               0.001355782              -0.000659533               0.000000000               0.000000000               0.000000000               0.000000000              -0.004737104               0.004130010              -0.000955457              -0.002292660               0.002140875              -0.000151785               0.000000000               0.000000000               0.000000000               0.000000000              -0.005068845               0.006089848              -0.001778546              -0.002662041               0.002917276               0.000255234               0.000000000               0.000000000               0.000000000               0.000000000              -0.004631153               0.006771566              -0.001777187              -0.002583122               0.003118206               0.000535084               0.000000000               0.000000000               0.000000000               0.000000000              -0.003994457               0.006927181              -0.001605047              -0.002363813               0.003096975               0.000733161               0.000000000               0.000000000               0.000000000               0.000000000              -0.003328410               0.006831414              -0.001410126              -0.002102076               0.002977807               0.000875731               0.000000000               0.000000000               0.000000000               0.000000000              -0.002675932               0.006605144              -0.001227645              -0.001829113               0.002811397               0.000982284               0.000000000               0.000000000               0.000000000               0.000000000              -0.002054885               0.006321519              -0.001072570              -0.001560768               0.002627408               0.001066640               0.000000000               0.000000000               0.000000000               0.000000000              -0.001482115               0.006026685              -0.000938268              -0.001309126               0.002445250               0.001136124               0.000000000               0.000000000               0.000000000               0.000000000              -0.000962314               0.005750189              -0.000814376              -0.001079639               0.002276590               0.001196951               0.000000000               0.000000000               0.000000000               0.000000000              -0.000501957               0.005505887              -0.000694692              -0.000876468               0.002127433               0.001250965               0.000000000               0.000000000               0.000000000               0.000000000              -0.000105168               0.005300955              -0.000573856              -0.000702056               0.002000986               0.001298930               0.000000000               0.000000000               0.000000000               0.000000000               0.000221259               0.005134271              -0.000453767              -0.000558811               0.001897677               0.001338866               0.000000000               0.000000000               0.000000000               0.000000000               0.000462089               0.005007965              -0.000330565              -0.000452711               0.001820209               0.001367497               0.000000000               0.000000000               0.000000000               0.000000000               0.000612617               0.004942070              -0.000204885              -0.000388027               0.001776682               0.001388656               0.000000000               0.000000000               0.000000000               0.000000000               0.000671072               0.004947647              -0.000090923              -0.000366803               0.001771467               0.001404664               0.000000000               0.000000000               0.000000000               0.000000000               0.000659208               0.004957093              -0.000033496              -0.000372433               0.001776492               0.001404059               0.000000000               0.000000000               0.000000000               0.000000000              -0.006802659               0.000663898               0.000879207              -0.002633982               0.001099286              -0.001534696               0.000000000               0.000000000               0.000000000               0.000000000              -0.005820045               0.002710694              -0.000679038              -0.002521350               0.001744003              -0.000777347               0.000000000               0.000000000               0.000000000               0.000000000              -0.005398834               0.004593718              -0.001973163              -0.002598772               0.002397480              -0.000201292               0.000000000               0.000000000               0.000000000               0.000000000              -0.004743701               0.005519759              -0.002163071              -0.002468852               0.002662851               0.000193999               0.000000000               0.000000000               0.000000000               0.000000000              -0.004041598               0.005955151              -0.002044005              -0.002259988               0.002738359               0.000478371               0.000000000               0.000000000               0.000000000               0.000000000              -0.003358427               0.006109596              -0.001846215              -0.002023105               0.002710880               0.000687774               0.000000000               0.000000000               0.000000000               0.000000000              -0.002708385               0.006095795              -0.001642095              -0.001777615               0.002624449               0.000846834               0.000000000               0.000000000               0.000000000               0.000000000              -0.002086258               0.005983992              -0.001461761              -0.001530342               0.002504758               0.000974415               0.000000000               0.000000000               0.000000000               0.000000000              -0.001500379               0.005824922              -0.001302595              -0.001290755               0.002371873               0.001081118               0.000000000               0.000000000               0.000000000               0.000000000              -0.000951984               0.005659161              -0.001153179              -0.001064387               0.002241163               0.001176777               0.000000000               0.000000000               0.000000000               0.000000000              -0.000447210               0.005506387              -0.001005435              -0.000856000               0.002120777               0.001264777               0.000000000               0.000000000               0.000000000               0.000000000               0.000008789               0.005367503              -0.000858675              -0.000667641               0.002011697               0.001344056               0.000000000               0.000000000               0.000000000               0.000000000               0.000404812               0.005239252              -0.000705914              -0.000503101               0.001914100               0.001410999               0.000000000               0.000000000               0.000000000               0.000000000               0.000725770               0.005128045              -0.000539673              -0.000368841               0.001832278               0.001463437               0.000000000               0.000000000               0.000000000               0.000000000               0.000958420               0.005043935              -0.000358580              -0.000271084               0.001771656               0.001500572               0.000000000               0.000000000               0.000000000               0.000000000               0.001091339               0.005005841              -0.000174980              -0.000216477               0.001740756               0.001524279               0.000000000               0.000000000               0.000000000               0.000000000               0.001119642               0.004994406              -0.000083410              -0.000204435               0.001732930               0.001528495               0.000000000               0.000000000               0.000000000               0.000000000              -0.009021192              -0.000304563               0.001381979              -0.003344874               0.001013430              -0.002331444               0.000000000               0.000000000               0.000000000               0.000000000              -0.006985465               0.001467426              -0.000390866              -0.002802974               0.001423457              -0.001379517               0.000000000               0.000000000               0.000000000               0.000000000              -0.005693057               0.003047863              -0.001941293              -0.002515875               0.001854566              -0.000661309               0.000000000               0.000000000               0.000000000               0.000000000              -0.004737488               0.004075077              -0.002296965              -0.002285938               0.002120323              -0.000165615               0.000000000               0.000000000               0.000000000               0.000000000              -0.003938507               0.004723894              -0.002258330              -0.002067423               0.002263755               0.000196333               0.000000000               0.000000000               0.000000000               0.000000000              -0.003230860               0.005104623              -0.002090960              -0.001849646               0.002318072               0.000468426               0.000000000               0.000000000               0.000000000               0.000000000              -0.002582491               0.005299289              -0.001897719              -0.001630842               0.002310025               0.000679184               0.000000000               0.000000000               0.000000000               0.000000000              -0.001969097               0.005376365              -0.001714874              -0.001410454               0.002262255               0.000851800               0.000000000               0.000000000               0.000000000               0.000000000              -0.001385692               0.005379792              -0.001547025              -0.001192106               0.002190614               0.000998508               0.000000000               0.000000000               0.000000000               0.000000000              -0.000827334               0.005344644              -0.001389805              -0.000978329               0.002107640               0.001129311               0.000000000               0.000000000               0.000000000               0.000000000              -0.000291307               0.005297875              -0.001237434              -0.000771473               0.002023098               0.001251625               0.000000000               0.000000000               0.000000000               0.000000000               0.000216604               0.005245011              -0.001083820              -0.000574399               0.001939786               0.001365387               0.000000000               0.000000000               0.000000000               0.000000000               0.000684081               0.005189772              -0.000917058              -0.000392191               0.001860637               0.001468446               0.000000000               0.000000000               0.000000000               0.000000000               0.001098252               0.005132635              -0.000726251              -0.000229735               0.001787439               0.001557705               0.000000000               0.000000000               0.000000000               0.000000000               0.001440523               0.005074333              -0.000508040              -0.000094096               0.001722793               0.001628697               0.000000000               0.000000000               0.000000000               0.000000000               0.001692832               0.005031964              -0.000263358               0.000005816               0.001675366               0.001681182               0.000000000               0.000000000               0.000000000               0.000000000               0.001806170               0.005022329              -0.000139879               0.000049522               0.001657586               0.001707108               0.000000000               0.000000000               0.000000000               0.000000000              -0.011142526              -0.000885084               0.001534219              -0.004067809               0.001060900              -0.003006909               0.000000000               0.000000000               0.000000000               0.000000000              -0.008127951               0.000470723              -0.000157866              -0.003106819               0.001192506              -0.001914313               0.000000000               0.000000000               0.000000000               0.000000000              -0.005963558               0.001606601              -0.001689749              -0.002437156               0.001347909              -0.001089247               0.000000000               0.000000000               0.000000000               0.000000000              -0.004659529               0.002609057              -0.002123912              -0.002073452               0.001560825              -0.000512627               0.000000000               0.000000000               0.000000000               0.000000000              -0.003736073               0.003382490              -0.002158446              -0.001823835               0.001735429              -0.000088406               0.000000000               0.000000000               0.000000000               0.000000000              -0.002985485               0.003942590              -0.002044201              -0.001612377               0.001851642               0.000239264               0.000000000               0.000000000               0.000000000               0.000000000              -0.002331279               0.004327419              -0.001887501              -0.001415154               0.001914176               0.000499022               0.000000000               0.000000000               0.000000000               0.000000000              -0.001730197               0.004583441              -0.001726684              -0.001221752               0.001935048               0.000713297               0.000000000               0.000000000               0.000000000               0.000000000              -0.001160914               0.004749079              -0.001572991              -0.001028976               0.001926002               0.000897026               0.000000000               0.000000000               0.000000000               0.000000000              -0.000602113               0.004856258              -0.001431311              -0.000832823               0.001896344               0.001063521               0.000000000               0.000000000               0.000000000               0.000000000              -0.000048485               0.004924968              -0.001294554              -0.000633802               0.001852907               0.001219105               0.000000000               0.000000000               0.000000000               0.000000000               0.000494643               0.004974271              -0.001153528              -0.000436293               0.001803504               0.001367212               0.000000000               0.000000000               0.000000000               0.000000000               0.001025247               0.005011814              -0.000999018              -0.000242009               0.001751258               0.001509248               0.000000000               0.000000000               0.000000000               0.000000000               0.001537741               0.005029429              -0.000817853              -0.000052026               0.001693802               0.001641776               0.000000000               0.000000000               0.000000000               0.000000000               0.002019446               0.005030380              -0.000596461               0.000128493               0.001633946               0.001762439               0.000000000               0.000000000               0.000000000               0.000000000               0.002447004               0.005022857              -0.000323816               0.000289767               0.001577680               0.001867447               0.000000000               0.000000000               0.000000000               0.000000000               0.002699739               0.005040045              -0.000186375               0.000382393               0.001552534               0.001934927               0.000000000               0.000000000               0.000000000               0.000000000              -0.012917820              -0.001178967               0.001301696              -0.004696809               0.001172606              -0.003524203               0.000000000               0.000000000               0.000000000               0.000000000              -0.009104102              -0.000248786              -0.000020943              -0.003382938               0.001044710              -0.002338228               0.000000000               0.000000000               0.000000000               0.000000000              -0.006194028               0.000431167              -0.001247135              -0.002376654               0.000935934              -0.001440721               0.000000000               0.000000000               0.000000000               0.000000000              -0.004556613               0.001333777              -0.001639202              -0.001875450               0.001069734              -0.000805715               0.000000000               0.000000000               0.000000000               0.000000000              -0.003490334               0.002160785              -0.001709334              -0.001578971               0.001246576              -0.000332395               0.000000000               0.000000000               0.000000000               0.000000000              -0.002690626               0.002843443              -0.001649271              -0.001364413               0.001402608               0.000038196               0.000000000               0.000000000               0.000000000               0.000000000              -0.002028556               0.003371613              -0.001543025              -0.001182158               0.001517912               0.000335754               0.000000000               0.000000000               0.000000000               0.000000000              -0.001440667               0.003771867              -0.001424852              -0.001011732               0.001594520               0.000582788               0.000000000               0.000000000               0.000000000               0.000000000              -0.000885248               0.004076201              -0.001309202              -0.000841492               0.001639217               0.000797725               0.000000000               0.000000000               0.000000000               0.000000000              -0.000335329               0.004307544              -0.001203860              -0.000664190               0.001657230               0.000993040               0.000000000               0.000000000               0.000000000               0.000000000               0.000223129               0.004490557              -0.001097680              -0.000477646               0.001656052               0.001178407               0.000000000               0.000000000               0.000000000               0.000000000               0.000794911               0.004646526              -0.000987977              -0.000282724               0.001643068               0.001360343               0.000000000               0.000000000               0.000000000               0.000000000               0.001383857               0.004776242              -0.000870888              -0.000078085               0.001618093               0.001540008               0.000000000               0.000000000               0.000000000               0.000000000               0.001989576               0.004878736              -0.000730972               0.000136248               0.001580813               0.001717061               0.000000000               0.000000000               0.000000000               0.000000000               0.002614279               0.004954391              -0.000551079               0.000361052               0.001531096               0.001892149               0.000000000               0.000000000               0.000000000               0.000000000               0.003254041               0.004995163              -0.000309738               0.000595864               0.001466416               0.002062280               0.000000000               0.000000000               0.000000000               0.000000000               0.003693301               0.005049222              -0.000187354               0.000753827               0.001431782               0.002185609               0.000000000               0.000000000               0.000000000               0.000000000              -0.014105187              -0.001294571               0.000742404              -0.005127620               0.001277674              -0.003849946               0.000000000               0.000000000               0.000000000               0.000000000              -0.009769530              -0.000680614               0.000018085              -0.003578495               0.000965954              -0.002612541               0.000000000               0.000000000               0.000000000               0.000000000              -0.006350397              -0.000341021              -0.000662809              -0.002338769               0.000665911              -0.001672858               0.000000000               0.000000000               0.000000000               0.000000000              -0.004472249               0.000457857              -0.000895078              -0.001734324               0.000730721              -0.001003602               0.000000000               0.000000000               0.000000000               0.000000000              -0.003289658               0.001296677              -0.000948821              -0.001395704               0.000897454              -0.000498250               0.000000000               0.000000000               0.000000000               0.000000000              -0.002449343               0.002047110              -0.000926758              -0.001174390               0.001073826              -0.000100564               0.000000000               0.000000000               0.000000000               0.000000000              -0.001777778               0.002670021              -0.000874092              -0.001000417               0.001223470               0.000223053               0.000000000               0.000000000               0.000000000               0.000000000              -0.001194296               0.003162085              -0.000812088              -0.000843120               0.001335058               0.000491938               0.000000000               0.000000000               0.000000000               0.000000000              -0.000645941               0.003547218              -0.000751060              -0.000685629               0.001410937               0.000725308               0.000000000               0.000000000               0.000000000               0.000000000              -0.000104104               0.003862156              -0.000695266              -0.000521808               0.001461308               0.000939501               0.000000000               0.000000000               0.000000000               0.000000000               0.000453561               0.004132649              -0.000636685              -0.000346495               0.001493034               0.001146539               0.000000000               0.000000000               0.000000000               0.000000000               0.001044810               0.004369687              -0.000576269              -0.000154407               0.001508017               0.001353610               0.000000000               0.000000000               0.000000000               0.000000000               0.001675075               0.004571000              -0.000511708               0.000056777               0.001504726               0.001561503               0.000000000               0.000000000               0.000000000               0.000000000               0.002353206               0.004739518              -0.000432733               0.000290009               0.001483154               0.001773163               0.000000000               0.000000000               0.000000000               0.000000000               0.003092248               0.004871206              -0.000332421               0.000550687               0.001440157               0.001990844               0.000000000               0.000000000               0.000000000               0.000000000               0.003908295               0.004953248              -0.000191520               0.000846446               0.001368917               0.002215363               0.000000000               0.000000000               0.000000000               0.000000000               0.004514495               0.005043134              -0.000119562               0.001062533               0.001326850               0.002389383               0.000000000               0.000000000               0.000000000               0.000000000               0.000000000               0.000000000               0.000000000               0.000000000               0.000000000               0.000000000               0.000000000               0.000000000               0.000000000               0.000000000               0.000000000               0.000000000               0.000000000               0.000000000               0.000000000               0.000000000               0.000000000               0.000000000               0.000000000               0.000000000               0.000000000               0.000000000               0.000000000               0.000000000               0.000000000               0.000000000               0.000000000               0.000000000               0.000000000               0.000000000               0.000000000               0.000000000               0.000000000               0.000000000               0.000000000               0.000000000               0.000000000               0.000000000               0.000000000               0.000000000               0.000000000               0.000000000               0.000000000               0.000000000               0.000000000               0.000000000               0.000000000               0.000000000               0.000000000               0.000000000               0.000000000               0.000000000               0.000000000               0.000000000               0.000000000               0.000000000               0.000000000               0.000000000               0.000000000               0.000000000               0.000000000               0.000000000               0.000000000               0.000000000               0.000000000               0.000000000               0.000000000               0.000000000               0.000000000               0.000000000               0.000000000               0.000000000               0.000000000               0.000000000               0.000000000               0.000000000               0.000000000               0.000000000               0.000000000               0.000000000               0.000000000               0.000000000               0.000000000               0.000000000               0.000000000               0.000000000               0.000000000               0.000000000               0.000000000               0.000000000               0.000000000               0.000000000               0.000000000               0.000000000               0.000000000               0.000000000               0.000000000               0.000000000               0.000000000               0.000000000               0.000000000               0.000000000               0.000000000               0.000000000               0.000000000               0.000000000               0.000000000               0.000000000               0.000000000               0.000000000               0.000000000               0.000000000               0.000000000               0.000000000               0.000000000               0.000000000               0.000000000               0.000000000               0.000000000               0.000000000               0.000000000               0.000000000               0.000000000               0.000000000               0.000000000               0.000000000               0.000000000               0.000000000               0.000000000               0.000000000               0.000000000               0.000000000               0.000000000               0.000000000               0.000000000               0.000000000               0.000000000               0.000000000               0.000000000               0.000000000               0.000000000               0.000000000               0.000000000               0.000000000               0.000000000               0.000000000               0.000000000               0.000000000               0.000000000               0.000000000               0.000000000               0.000000000               0.000000000               0.000000000               0.000000000               0.000000000               0.000000000               0.000000000               0.000000000               0.000000000               0.000000000               0.000000000               0.000000000               0.000000000               0.000000000               0.000000000               0.000000000               0.000000000               0.000000000               0.000000000               0.000000000               0.000000000               0.000000000               0.000000000               0.000000000               0.000000000               0.000000000               0.000000000               0.000000000               0.000000000               0.000000000               0.000000000               0.000000000               0.000000000               0.000000000               0.000000000               0.000000000               0.000000000               0.000000000               0.000000000               0.000000000               0.000000000               0.000000000               0.000000000               0.000000000               0.000000000               0.000000000               0.000000000               0.000000000               0.000000000               0.000000000               0.000000000               0.000000000               0.000000000               0.000000000               0.000000000               0.000000000               0.000000000               0.000000000               0.000000000               0.000000000               0.000000000               0.000000000               0.000000000               0.000000000               0.000000000               0.000000000               0.000000000               0.000000000               0.000000000               0.000000000               0.000000000               0.000000000               0.000000000               0.000000000               0.000000000               0.000000000               0.000000000               0.000000000               0.000000000               0.000000000               0.000000000               0.000000000               0.000000000               0.000000000               0.000000000               0.000000000               0.000000000               0.000000000               0.000000000               0.000000000               0.000000000               0.000000000               0.000000000               0.000000000               0.000000000               0.000000000               0.000000000               0.000000000               0.000000000               0.000000000               0.000000000               0.000000000               0.000000000               0.000000000               0.000000000               0.000000000               0.000000000               0.000000000               0.000000000               0.000000000               0.000000000               0.000000000               0.000000000               0.000000000               0.000000000               0.000000000               0.000000000               0.000000000               0.000000000               0.000000000               0.000000000               0.000000000               0.000000000               0.000000000               0.000000000               0.000000000               0.000000000               0.000000000               0.000000000               0.000000000               0.000000000               0.000000000               0.000000000               0.000000000               0.000000000               0.000000000               0.000000000               0.000000000               0.000000000               0.000000000               0.000000000               0.000000000               0.000000000               0.000000000               0.000000000               0.000000000               0.000000000               0.000000000               0.000000000               0.000000000               0.000000000               0.000000000               0.000000000               0.000000000               0.000000000               0.000000000               0.000000000               0.000000000               0.000000000               0.000000000               0.000000000               0.000000000               0.000000000               0.000000000               0.000000000               0.000000000               0.000000000               0.000000000               0.000000000               0.000000000               0.000000000               0.000000000               0.000000000               0.000000000               0.000000000               0.000000000               0.000000000               0.000000000               0.000000000               0.000000000               0.000000000               0.000000000               0.000000000               0.000000000               0.000000000               0.000000000               0.000000000               0.000000000               0.000000000               0.002166117               0.021664758               0.001455239              -0.001895797               0.007853446               0.005957649               0.000000000               0.000000000               0.000000000               0.000000000               0.001953414               0.016609389               0.000633844              -0.001343640               0.005984288               0.004640647               0.000000000               0.000000000               0.000000000               0.000000000               0.002392322               0.012541521              -0.000174823              -0.000670568               0.004403988               0.003733420               0.000000000               0.000000000               0.000000000               0.000000000               0.002142924               0.010236841              -0.000506405              -0.000476008               0.003570916               0.003094908               0.000000000               0.000000000               0.000000000               0.000000000               0.001730614               0.008763251              -0.000631734              -0.000446425               0.003069863               0.002623438               0.000000000               0.000000000               0.000000000               0.000000000               0.001321197               0.007710353              -0.000663858              -0.000468344               0.002726207               0.002257862               0.000000000               0.000000000               0.000000000               0.000000000               0.000959580               0.006883115              -0.000655648              -0.000500546               0.002461197               0.001960652               0.000000000               0.000000000               0.000000000               0.000000000               0.000655581               0.006182000              -0.000631431              -0.000526906               0.002236281               0.001709375               0.000000000               0.000000000               0.000000000               0.000000000               0.000409641               0.005553112              -0.000602216              -0.000540523               0.002031193               0.001490670               0.000000000               0.000000000               0.000000000               0.000000000               0.000208251               0.004956009              -0.000565557              -0.000541406               0.001832455               0.001291049               0.000000000               0.000000000               0.000000000               0.000000000               0.000051885               0.004363888              -0.000521948              -0.000526028               0.001629957               0.001103930               0.000000000               0.000000000               0.000000000               0.000000000              -0.000055486               0.003763756              -0.000477190              -0.000491276               0.001418331               0.000927056               0.000000000               0.000000000               0.000000000               0.000000000              -0.000120037               0.003146274              -0.000432026              -0.000438297               0.001194847               0.000756550               0.000000000               0.000000000               0.000000000               0.000000000              -0.000146251               0.002503622              -0.000378082              -0.000367796               0.000957131               0.000589335               0.000000000               0.000000000               0.000000000               0.000000000              -0.000134342               0.001822084              -0.000298545              -0.000278138               0.000700068               0.000421930               0.000000000               0.000000000               0.000000000               0.000000000              -0.000080991               0.001080656              -0.000173652              -0.000165453               0.000415366               0.000249913               0.000000000               0.000000000               0.000000000               0.000000000              -0.000103206               0.000526244              -0.000108704              -0.000104483               0.000210240               0.000105758               0.000000000               0.000000000               0.000000000               0.000000000               0.002297956               0.020299952               0.002687549              -0.001675757               0.007325168               0.005649411               0.000000000               0.000000000               0.000000000               0.000000000               0.001743874               0.015761109               0.001164194              -0.001316183               0.005692378               0.004376195               0.000000000               0.000000000               0.000000000               0.000000000               0.001822573               0.012225729              -0.000322654              -0.000844749               0.004356785               0.003512036               0.000000000               0.000000000               0.000000000               0.000000000               0.001451411               0.010189314              -0.000908722              -0.000729383               0.003639532               0.002910148               0.000000000               0.000000000               0.000000000               0.000000000               0.001026829               0.008844554              -0.001116548              -0.000720507               0.003188324               0.002467817               0.000000000               0.000000000               0.000000000               0.000000000               0.000656181               0.007850739              -0.001160791              -0.000735273               0.002861978               0.002126705               0.000000000               0.000000000               0.000000000               0.000000000               0.000355200               0.007049702              -0.001136777              -0.000748011               0.002599214               0.001851203               0.000000000               0.000000000               0.000000000               0.000000000               0.000122483               0.006362610              -0.001086787              -0.000749394               0.002370646               0.001621253               0.000000000               0.000000000               0.000000000               0.000000000              -0.000047655               0.005738512              -0.001027512              -0.000735183               0.002157879               0.001422696               0.000000000               0.000000000               0.000000000               0.000000000              -0.000171013               0.005143661              -0.000958206              -0.000707086               0.001950232               0.001243146               0.000000000               0.000000000               0.000000000               0.000000000              -0.000249844               0.004561226              -0.000879892              -0.000663844               0.001741675               0.001077831               0.000000000               0.000000000               0.000000000               0.000000000              -0.000285691               0.003985249              -0.000797661              -0.000605289               0.001530166               0.000924877               0.000000000               0.000000000               0.000000000               0.000000000              -0.000285964               0.003410619              -0.000711810              -0.000533563               0.001314716               0.000781153               0.000000000               0.000000000               0.000000000               0.000000000              -0.000252153               0.002836406              -0.000610589              -0.000449107               0.001095161               0.000646054               0.000000000               0.000000000               0.000000000               0.000000000              -0.000189441               0.002259970              -0.000468651              -0.000353536               0.000871161               0.000517625               0.000000000               0.000000000               0.000000000               0.000000000              -0.000103946               0.001681584              -0.000264557              -0.000249177               0.000643582               0.000394404               0.000000000               0.000000000               0.000000000               0.000000000              -0.000097533               0.001283833              -0.000160803              -0.000197054               0.000493624               0.000296571               0.000000000               0.000000000               0.000000000               0.000000000               0.002390149               0.018232369               0.003524121              -0.001382739               0.006538308               0.005155569               0.000000000               0.000000000               0.000000000               0.000000000               0.001361437               0.014493959               0.001516354              -0.001301203               0.005265006               0.003963802               0.000000000               0.000000000               0.000000000               0.000000000               0.000942674               0.011754781              -0.000411273              -0.001115842               0.004290169               0.003174326               0.000000000               0.000000000               0.000000000               0.000000000               0.000435994               0.010090962              -0.001120744              -0.001097870               0.003729577               0.002631707               0.000000000               0.000000000               0.000000000               0.000000000               0.000030320               0.008921567              -0.001347906              -0.001103824               0.003341767               0.002237943               0.000000000               0.000000000               0.000000000               0.000000000              -0.000257695               0.008010744              -0.001378509              -0.001097976               0.003036213               0.001938237               0.000000000               0.000000000               0.000000000               0.000000000              -0.000447626               0.007248815              -0.001334731              -0.001073960               0.002774234               0.001700274               0.000000000               0.000000000               0.000000000               0.000000000              -0.000561731               0.006577634              -0.001265136              -0.001032851               0.002536806               0.001503955               0.000000000               0.000000000               0.000000000               0.000000000              -0.000614018               0.005959751              -0.001185062              -0.000975224               0.002311638               0.001336414               0.000000000               0.000000000               0.000000000               0.000000000              -0.000623212               0.005372181              -0.001095272              -0.000905225               0.002092451               0.001187225               0.000000000               0.000000000               0.000000000               0.000000000              -0.000600530               0.004810325              -0.000994120              -0.000826488               0.001878921               0.001052434               0.000000000               0.000000000               0.000000000               0.000000000              -0.000545221               0.004271670              -0.000887483              -0.000738415               0.001670014               0.000931599               0.000000000               0.000000000               0.000000000               0.000000000              -0.000461493               0.003757338              -0.000775942              -0.000642726               0.001466675               0.000823950               0.000000000               0.000000000               0.000000000               0.000000000              -0.000357211               0.003268988              -0.000648280              -0.000542576               0.001270510               0.000727934               0.000000000               0.000000000               0.000000000               0.000000000              -0.000240340               0.002816705              -0.000480420              -0.000442215               0.001086297               0.000644082               0.000000000               0.000000000               0.000000000               0.000000000              -0.000121019               0.002421674              -0.000261185              -0.000348091               0.000923247               0.000575156               0.000000000               0.000000000               0.000000000               0.000000000              -0.000086315               0.002185468              -0.000152104              -0.000305551               0.000830332               0.000524781               0.000000000               0.000000000               0.000000000               0.000000000               0.002297839               0.015707891               0.003882165              -0.001101797               0.005603176               0.004501379               0.000000000               0.000000000               0.000000000               0.000000000               0.000781035               0.012975651               0.001674051              -0.001329066               0.004768195               0.003439129               0.000000000               0.000000000               0.000000000               0.000000000              -0.000151556               0.011182127              -0.000400999              -0.001454596               0.004212204               0.002757608               0.000000000               0.000000000               0.000000000               0.000000000              -0.000736749               0.009926828              -0.001100220              -0.001517131               0.003814620               0.002297489               0.000000000               0.000000000               0.000000000               0.000000000              -0.001060641               0.008938973              -0.001300497              -0.001515109               0.003484664               0.001969555               0.000000000               0.000000000               0.000000000               0.000000000              -0.001210602               0.008118786              -0.001308849              -0.001468821               0.003195842               0.001727021               0.000000000               0.000000000               0.000000000               0.000000000              -0.001246348               0.007402178              -0.001249865              -0.001392650               0.002931585               0.001538935               0.000000000               0.000000000               0.000000000               0.000000000              -0.001207698               0.006746768              -0.001170983              -0.001296230               0.002680977               0.001384747               0.000000000               0.000000000               0.000000000               0.000000000              -0.001119494               0.006134103              -0.001083639              -0.001186570               0.002440204               0.001253633               0.000000000               0.000000000               0.000000000               0.000000000              -0.001003596               0.005554954              -0.000991882              -0.001070715               0.002208538               0.001137822               0.000000000               0.000000000               0.000000000               0.000000000              -0.000870371               0.005018792              -0.000890345              -0.000953736               0.001990826               0.001037090               0.000000000               0.000000000               0.000000000               0.000000000              -0.000721420               0.004526137              -0.000779054              -0.000836298               0.001787463               0.000951165               0.000000000               0.000000000               0.000000000               0.000000000              -0.000563536               0.004075580              -0.000661320              -0.000720772               0.001598770               0.000877998               0.000000000               0.000000000               0.000000000               0.000000000              -0.000401708               0.003673632              -0.000530458              -0.000609843               0.001427813               0.000817969               0.000000000               0.000000000               0.000000000               0.000000000              -0.000247180               0.003335613              -0.000376734              -0.000509643               0.001281741               0.000772098               0.000000000               0.000000000               0.000000000               0.000000000              -0.000113119               0.003088564              -0.000197727              -0.000428489               0.001172341               0.000743852               0.000000000               0.000000000               0.000000000               0.000000000              -0.000063804               0.002971302              -0.000109729              -0.000395338               0.001122203               0.000726865               0.000000000               0.000000000               0.000000000               0.000000000               0.001889919               0.012986704               0.003778136              -0.000914619               0.004633730               0.003719111               0.000000000               0.000000000               0.000000000               0.000000000               0.000002364               0.011375120               0.001676949              -0.001421001               0.004265335               0.002844334               0.000000000               0.000000000               0.000000000               0.000000000              -0.001331822               0.010556103              -0.000261484              -0.001818942               0.004124980               0.002306038               0.000000000               0.000000000               0.000000000               0.000000000              -0.001882692               0.009682114              -0.000858689              -0.001916269               0.003866095               0.001949826               0.000000000               0.000000000               0.000000000               0.000000000              -0.002049831               0.008861269              -0.001013651              -0.001876341               0.003579174               0.001702833               0.000000000               0.000000000               0.000000000               0.000000000              -0.002017094               0.008122856              -0.001007980              -0.001771763               0.003298179               0.001526416               0.000000000               0.000000000               0.000000000               0.000000000              -0.001878650               0.007437282              -0.000948782              -0.001634150               0.003023786               0.001389636               0.000000000               0.000000000               0.000000000               0.000000000              -0.001681852               0.006795141              -0.000878424              -0.001480083               0.002758385               0.001278302               0.000000000               0.000000000               0.000000000               0.000000000              -0.001454321               0.006191925              -0.000806009              -0.001319358               0.002503740               0.001184382               0.000000000               0.000000000               0.000000000               0.000000000              -0.001219035               0.005635282              -0.000733028              -0.001161546               0.002265591               0.001104045               0.000000000               0.000000000               0.000000000               0.000000000              -0.000989833               0.005133653              -0.000652990              -0.001012892               0.002048831               0.001035939               0.000000000               0.000000000               0.000000000               0.000000000              -0.000764930               0.004689105              -0.000557270              -0.000872985               0.001854014               0.000981029               0.000000000               0.000000000               0.000000000               0.000000000              -0.000554603               0.004300200              -0.000454222              -0.000745499               0.001681885               0.000936386               0.000000000               0.000000000               0.000000000               0.000000000              -0.000361869               0.003978472              -0.000344884              -0.000633008               0.001537147               0.000904138               0.000000000               0.000000000               0.000000000               0.000000000              -0.000197469               0.003739301              -0.000228768              -0.000541462               0.001426909               0.000885446               0.000000000               0.000000000               0.000000000               0.000000000              -0.000080267               0.003597212              -0.000113373              -0.000479751               0.001358975               0.000879225               0.000000000               0.000000000               0.000000000               0.000000000              -0.000035135               0.003555842              -0.000057452              -0.000457655               0.001337820               0.000880166               0.000000000               0.000000000               0.000000000               0.000000000               0.001106152               0.010299147               0.003300595              -0.000872587               0.003723876               0.002851289               0.000000000               0.000000000               0.000000000               0.000000000              -0.000930325               0.009823248               0.001583441              -0.001576775               0.003799974               0.002223200               0.000000000               0.000000000               0.000000000               0.000000000              -0.002466035               0.009902492               0.000011435              -0.002162569               0.004021654               0.001859085               0.000000000               0.000000000               0.000000000               0.000000000              -0.002857250               0.009343113              -0.000440196              -0.002239352               0.003860791               0.001621438               0.000000000               0.000000000               0.000000000               0.000000000              -0.002803098               0.008659957              -0.000558062              -0.002133651               0.003597841               0.001464190               0.000000000               0.000000000               0.000000000               0.000000000              -0.002566485               0.007979884              -0.000560767              -0.001959912               0.003313239               0.001353327               0.000000000               0.000000000               0.000000000               0.000000000              -0.002250980               0.007320735              -0.000527652              -0.001759205               0.003026622               0.001267417               0.000000000               0.000000000               0.000000000               0.000000000              -0.001904340               0.006701075              -0.000491386              -0.001551758               0.002750922               0.001199164               0.000000000               0.000000000               0.000000000               0.000000000              -0.001560837               0.006123365              -0.000453017              -0.001350731               0.002491345               0.001140614               0.000000000               0.000000000               0.000000000               0.000000000              -0.001232738               0.005601752              -0.000415777              -0.001162493               0.002254729               0.001092237               0.000000000               0.000000000               0.000000000               0.000000000              -0.000930517               0.005142377              -0.000370355              -0.000991739               0.002044688               0.001052950               0.000000000               0.000000000               0.000000000               0.000000000              -0.000658741               0.004748686              -0.000305096              -0.000840611               0.001863083               0.001022472               0.000000000               0.000000000               0.000000000               0.000000000              -0.000424893               0.004426480              -0.000230640              -0.000712643               0.001713026               0.001000383               0.000000000               0.000000000               0.000000000               0.000000000              -0.000235740               0.004188007              -0.000156212              -0.000611902               0.001599956               0.000988054               0.000000000               0.000000000               0.000000000               0.000000000              -0.000097973               0.004041802              -0.000085971              -0.000541964               0.001527908               0.000985945               0.000000000               0.000000000               0.000000000               0.000000000              -0.000024453               0.003986081              -0.000033190              -0.000507429               0.001497823               0.000990394               0.000000000               0.000000000               0.000000000               0.000000000               0.000002831               0.003994421              -0.000009427              -0.000498240               0.001497540               0.000999301               0.000000000               0.000000000               0.000000000               0.000000000              -0.000011834               0.007822163               0.002558264              -0.000982207               0.002934763               0.001952556               0.000000000               0.000000000               0.000000000               0.000000000              -0.001956773               0.008408083               0.001445565              -0.001784797               0.003397598               0.001612802               0.000000000               0.000000000               0.000000000               0.000000000              -0.003438068               0.009211081               0.000405811              -0.002440655               0.003883881               0.001443226               0.000000000               0.000000000               0.000000000               0.000000000              -0.003563990               0.008893040               0.000088046              -0.002448120               0.003780357               0.001332237               0.000000000               0.000000000               0.000000000               0.000000000              -0.003264714               0.008326750              -0.000026982              -0.002265106               0.003530591               0.001265485               0.000000000               0.000000000               0.000000000               0.000000000              -0.002825875               0.007702596              -0.000070722              -0.002022522               0.003241680               0.001219158               0.000000000               0.000000000               0.000000000               0.000000000              -0.002349922               0.007082797              -0.000089542              -0.001766566               0.002949764               0.001183198               0.000000000               0.000000000               0.000000000               0.000000000              -0.001883193               0.006495275              -0.000103528              -0.001518103               0.002671104               0.001153001               0.000000000               0.000000000               0.000000000               0.000000000              -0.001451540               0.005958614              -0.000108164              -0.001289151               0.002415902               0.001126751               0.000000000               0.000000000               0.000000000               0.000000000              -0.001062952               0.005484437              -0.000109495              -0.001084159               0.002189514               0.001105355               0.000000000               0.000000000               0.000000000               0.000000000              -0.000715316               0.005077967              -0.000103866              -0.000902987               0.001993634               0.001090647               0.000000000               0.000000000               0.000000000               0.000000000              -0.000423366               0.004750428              -0.000078200              -0.000752564               0.001834315               0.001081751               0.000000000               0.000000000               0.000000000               0.000000000              -0.000197024               0.004513999              -0.000043558              -0.000638132               0.001717362               0.001079230               0.000000000               0.000000000               0.000000000               0.000000000              -0.000041465               0.004375801              -0.000013086              -0.000562523               0.001646093               0.001083570               0.000000000               0.000000000               0.000000000               0.000000000               0.000039354               0.004330348               0.000009680              -0.000526534               0.001618946               0.001092412               0.000000000               0.000000000               0.000000000               0.000000000               0.000045702               0.004357108               0.000014967              -0.000527499               0.001628188               0.001100689               0.000000000               0.000000000               0.000000000               0.000000000               0.000037221               0.004401710               0.000017198              -0.000536255               0.001645974               0.001109719               0.000000000               0.000000000               0.000000000               0.000000000              -0.001325404               0.005732148               0.001670965              -0.001213543               0.002315211               0.001101668               0.000000000               0.000000000               0.000000000               0.000000000              -0.002960335               0.007133384               0.001306843              -0.002001794               0.003045035               0.001043241               0.000000000               0.000000000               0.000000000               0.000000000              -0.004207190               0.008491035               0.000883979              -0.002639069               0.003710006               0.001070937               0.000000000               0.000000000               0.000000000               0.000000000              -0.004052480               0.008428512               0.000647147              -0.002573238               0.003667222               0.001093984               0.000000000               0.000000000               0.000000000               0.000000000              -0.003548755               0.008005853               0.000503249              -0.002331509               0.003445761               0.001114252               0.000000000               0.000000000               0.000000000               0.000000000              -0.002949426               0.007468071               0.000401065              -0.002039539               0.003169178               0.001129640               0.000000000               0.000000000               0.000000000               0.000000000              -0.002347925               0.006906447               0.000321834              -0.001743773               0.002883384               0.001139610               0.000000000               0.000000000               0.000000000               0.000000000              -0.001794533               0.006365120               0.000255706              -0.001468586               0.002611214               0.001142628               0.000000000               0.000000000               0.000000000               0.000000000              -0.001293706               0.005876696               0.000205236              -0.001219724               0.002365454               0.001145730               0.000000000               0.000000000               0.000000000               0.000000000              -0.000854680               0.005449441               0.000164121              -0.001001683               0.002150356               0.001148674               0.000000000               0.000000000               0.000000000               0.000000000              -0.000477027               0.005095028               0.000128916              -0.000815762               0.001970246               0.001154485               0.000000000               0.000000000               0.000000000               0.000000000              -0.000173979               0.004824190               0.000104058              -0.000668264               0.001830802               0.001162538               0.000000000               0.000000000               0.000000000               0.000000000               0.000041045               0.004650401               0.000085860              -0.000565907               0.001738754               0.001172847               0.000000000               0.000000000               0.000000000               0.000000000               0.000166339               0.004578777               0.000066792              -0.000509969               0.001696233               0.001186265               0.000000000               0.000000000               0.000000000               0.000000000               0.000209945               0.004604001               0.000044172              -0.000496770               0.001700242               0.001203472               0.000000000               0.000000000               0.000000000               0.000000000               0.000186960               0.004693999               0.000020666              -0.000516639               0.001736864               0.001220225               0.000000000               0.000000000               0.000000000               0.000000000               0.000151365               0.004754218               0.000009128              -0.000537514               0.001763895               0.001226381               0.000000000               0.000000000               0.000000000               0.000000000              -0.002822785               0.003791701               0.000751590              -0.001532504               0.001774722               0.000242218               0.000000000               0.000000000               0.000000000               0.000000000              -0.003798707               0.005639899               0.001161446              -0.002129497               0.002589780               0.000460282               0.000000000               0.000000000               0.000000000               0.000000000              -0.004678676               0.007397231               0.001381417              -0.002679151               0.003358769               0.000679618               0.000000000               0.000000000               0.000000000               0.000000000              -0.004373713               0.007719055               0.001228862              -0.002605018               0.003441332               0.000836314               0.000000000               0.000000000               0.000000000               0.000000000              -0.003785726               0.007566072               0.001054467              -0.002365401               0.003310465               0.000945065               0.000000000               0.000000000               0.000000000               0.000000000              -0.003139993               0.007228523               0.000895804              -0.002081058               0.003103170               0.001022112               0.000000000               0.000000000               0.000000000               0.000000000              -0.002497432               0.006814772               0.000757690              -0.001788379               0.002867694               0.001079315               0.000000000               0.000000000               0.000000000               0.000000000              -0.001902328               0.006386981               0.000642467              -0.001511742               0.002632886               0.001121144               0.000000000               0.000000000               0.000000000               0.000000000              -0.001362090               0.005983537               0.000548589              -0.001258723               0.002414067               0.001155344               0.000000000               0.000000000               0.000000000               0.000000000              -0.000885299               0.005619937               0.000465061              -0.001034477               0.002218119               0.001183643               0.000000000               0.000000000               0.000000000               0.000000000              -0.000471202               0.005318308               0.000386467              -0.000841487               0.002053247               0.001211760               0.000000000               0.000000000               0.000000000               0.000000000              -0.000130449               0.005079514               0.000307709              -0.000683856               0.001921106               0.001237250               0.000000000               0.000000000               0.000000000               0.000000000               0.000125280               0.004904990               0.000234337              -0.000566142               0.001823694               0.001257552               0.000000000               0.000000000               0.000000000               0.000000000               0.000291404               0.004807133               0.000164173              -0.000491614               0.001766233               0.001274619               0.000000000               0.000000000               0.000000000               0.000000000               0.000371990               0.004801110               0.000094838              -0.000460641               0.001753901               0.001293260               0.000000000               0.000000000               0.000000000               0.000000000               0.000382234               0.004875438               0.000037703              -0.000466091               0.001780493               0.001314402               0.000000000               0.000000000               0.000000000               0.000000000               0.000352195               0.004918932               0.000007378              -0.000482792               0.001800558               0.001317766               0.000000000               0.000000000               0.000000000               0.000000000              -0.004690163               0.002052059              -0.000127745              -0.002015315               0.001355782              -0.000659533               0.000000000               0.000000000               0.000000000               0.000000000              -0.004737104               0.004130010               0.000955457              -0.002292660               0.002140875              -0.000151785               0.000000000               0.000000000               0.000000000               0.000000000              -0.005068845               0.006089848               0.001778546              -0.002662041               0.002917276               0.000255234               0.000000000               0.000000000               0.000000000               0.000000000              -0.004631153               0.006771566               0.001777187              -0.002583122               0.003118206               0.000535084               0.000000000               0.000000000               0.000000000               0.000000000              -0.003994457               0.006927181               0.001605047              -0.002363813               0.003096975               0.000733161               0.000000000               0.000000000               0.000000000               0.000000000              -0.003328410               0.006831414               0.001410126              -0.002102076               0.002977807               0.000875731               0.000000000               0.000000000               0.000000000               0.000000000              -0.002675932               0.006605144               0.001227645              -0.001829113               0.002811397               0.000982284               0.000000000               0.000000000               0.000000000               0.000000000              -0.002054885               0.006321519               0.001072570              -0.001560768               0.002627408               0.001066640               0.000000000               0.000000000               0.000000000               0.000000000              -0.001482115               0.006026685               0.000938268              -0.001309126               0.002445250               0.001136124               0.000000000               0.000000000               0.000000000               0.000000000              -0.000962314               0.005750189               0.000814376              -0.001079639               0.002276590               0.001196951               0.000000000               0.000000000               0.000000000               0.000000000              -0.000501957               0.005505887               0.000694692              -0.000876468               0.002127433               0.001250965               0.000000000               0.000000000               0.000000000               0.000000000              -0.000105168               0.005300955               0.000573856              -0.000702056               0.002000986               0.001298930               0.000000000               0.000000000               0.000000000               0.000000000               0.000221259               0.005134271               0.000453767              -0.000558811               0.001897677               0.001338866               0.000000000               0.000000000               0.000000000               0.000000000               0.000462089               0.005007965               0.000330565              -0.000452711               0.001820209               0.001367497               0.000000000               0.000000000               0.000000000               0.000000000               0.000612617               0.004942070               0.000204885              -0.000388027               0.001776682               0.001388656               0.000000000               0.000000000               0.000000000               0.000000000               0.000671072               0.004947647               0.000090923              -0.000366803               0.001771467               0.001404664               0.000000000               0.000000000               0.000000000               0.000000000               0.000659208               0.004957093               0.000033496              -0.000372433               0.001776492               0.001404059               0.000000000               0.000000000               0.000000000               0.000000000              -0.006802659               0.000663898              -0.000879207              -0.002633982               0.001099286              -0.001534696               0.000000000               0.000000000               0.000000000               0.000000000              -0.005820045               0.002710694               0.000679038              -0.002521350               0.001744003              -0.000777347               0.000000000               0.000000000               0.000000000               0.000000000              -0.005398834               0.004593718               0.001973163              -0.002598772               0.002397480              -0.000201292               0.000000000               0.000000000               0.000000000               0.000000000              -0.004743701               0.005519759               0.002163071              -0.002468852               0.002662851               0.000193999               0.000000000               0.000000000               0.000000000               0.000000000              -0.004041598               0.005955151               0.002044005              -0.002259988               0.002738359               0.000478371               0.000000000               0.000000000               0.000000000               0.000000000              -0.003358427               0.006109596               0.001846215              -0.002023105               0.002710880               0.000687774               0.000000000               0.000000000               0.000000000               0.000000000              -0.002708385               0.006095795               0.001642095              -0.001777615               0.002624449               0.000846834               0.000000000               0.000000000               0.000000000               0.000000000              -0.002086258               0.005983992               0.001461761              -0.001530342               0.002504758               0.000974415               0.000000000               0.000000000               0.000000000               0.000000000              -0.001500379               0.005824922               0.001302595              -0.001290755               0.002371873               0.001081118               0.000000000               0.000000000               0.000000000               0.000000000              -0.000951984               0.005659161               0.001153179              -0.001064387               0.002241163               0.001176777               0.000000000               0.000000000               0.000000000               0.000000000              -0.000447210               0.005506387               0.001005435              -0.000856000               0.002120777               0.001264777               0.000000000               0.000000000               0.000000000               0.000000000               0.000008789               0.005367503               0.000858675              -0.000667641               0.002011697               0.001344056               0.000000000               0.000000000               0.000000000               0.000000000               0.000404812               0.005239252               0.000705914              -0.000503101               0.001914100               0.001410999               0.000000000               0.000000000               0.000000000               0.000000000               0.000725770               0.005128045               0.000539673              -0.000368841               0.001832278               0.001463437               0.000000000               0.000000000               0.000000000               0.000000000               0.000958420               0.005043935               0.000358580              -0.000271084               0.001771656               0.001500572               0.000000000               0.000000000               0.000000000               0.000000000               0.001091339               0.005005841               0.000174980              -0.000216477               0.001740756               0.001524279               0.000000000               0.000000000               0.000000000               0.000000000               0.001119642               0.004994406               0.000083410              -0.000204435               0.001732930               0.001528495               0.000000000               0.000000000               0.000000000               0.000000000              -0.009021192              -0.000304563              -0.001381979              -0.003344874               0.001013430              -0.002331444               0.000000000               0.000000000               0.000000000               0.000000000              -0.006985465               0.001467426               0.000390866              -0.002802974               0.001423457              -0.001379517               0.000000000               0.000000000               0.000000000               0.000000000              -0.005693057               0.003047863               0.001941293              -0.002515875               0.001854566              -0.000661309               0.000000000               0.000000000               0.000000000               0.000000000              -0.004737488               0.004075077               0.002296965              -0.002285938               0.002120323              -0.000165615               0.000000000               0.000000000               0.000000000               0.000000000              -0.003938507               0.004723894               0.002258330              -0.002067423               0.002263755               0.000196333               0.000000000               0.000000000               0.000000000               0.000000000              -0.003230860               0.005104623               0.002090960              -0.001849646               0.002318072               0.000468426               0.000000000               0.000000000               0.000000000               0.000000000              -0.002582491               0.005299289               0.001897719              -0.001630842               0.002310025               0.000679184               0.000000000               0.000000000               0.000000000               0.000000000              -0.001969097               0.005376365               0.001714874              -0.001410454               0.002262255               0.000851800               0.000000000               0.000000000               0.000000000               0.000000000              -0.001385692               0.005379792               0.001547025              -0.001192106               0.002190614               0.000998508               0.000000000               0.000000000               0.000000000               0.000000000              -0.000827334               0.005344644               0.001389805              -0.000978329               0.002107640               0.001129311               0.000000000               0.000000000               0.000000000               0.000000000              -0.000291307               0.005297875               0.001237434              -0.000771473               0.002023098               0.001251625               0.000000000               0.000000000               0.000000000               0.000000000               0.000216604               0.005245011               0.001083820              -0.000574399               0.001939786               0.001365387               0.000000000               0.000000000               0.000000000               0.000000000               0.000684081               0.005189772               0.000917058              -0.000392191               0.001860637               0.001468446               0.000000000               0.000000000               0.000000000               0.000000000               0.001098252               0.005132635               0.000726251              -0.000229735               0.001787439               0.001557705               0.000000000               0.000000000               0.000000000               0.000000000               0.001440523               0.005074333               0.000508040              -0.000094096               0.001722793               0.001628697               0.000000000               0.000000000               0.000000000               0.000000000               0.001692832               0.005031964               0.000263358               0.000005816               0.001675366               0.001681182               0.000000000               0.000000000               0.000000000               0.000000000               0.001806170               0.005022329               0.000139879               0.000049522               0.001657586               0.001707108               0.000000000               0.000000000               0.000000000               0.000000000              -0.011142526              -0.000885084              -0.001534219              -0.004067809               0.001060900              -0.003006909               0.000000000               0.000000000               0.000000000               0.000000000              -0.008127951               0.000470723               0.000157866              -0.003106819               0.001192506              -0.001914313               0.000000000               0.000000000               0.000000000               0.000000000              -0.005963558               0.001606601               0.001689749              -0.002437156               0.001347909              -0.001089247               0.000000000               0.000000000               0.000000000               0.000000000              -0.004659529               0.002609057               0.002123912              -0.002073452               0.001560825              -0.000512627               0.000000000               0.000000000               0.000000000               0.000000000              -0.003736073               0.003382490               0.002158446              -0.001823835               0.001735429              -0.000088406               0.000000000               0.000000000               0.000000000               0.000000000              -0.002985485               0.003942590               0.002044201              -0.001612377               0.001851642               0.000239264               0.000000000               0.000000000               0.000000000               0.000000000              -0.002331279               0.004327419               0.001887501              -0.001415154               0.001914176               0.000499022               0.000000000               0.000000000               0.000000000               0.000000000              -0.001730197               0.004583441               0.001726684              -0.001221752               0.001935048               0.000713297               0.000000000               0.000000000               0.000000000               0.000000000              -0.001160914               0.004749079               0.001572991              -0.001028976               0.001926002               0.000897026               0.000000000               0.000000000               0.000000000               0.000000000              -0.000602113               0.004856258               0.001431311              -0.000832823               0.001896344               0.001063521               0.000000000               0.000000000               0.000000000               0.000000000              -0.000048485               0.004924968               0.001294554              -0.000633802               0.001852907               0.001219105               0.000000000               0.000000000               0.000000000               0.000000000               0.000494643               0.004974271               0.001153528              -0.000436293               0.001803504               0.001367212               0.000000000               0.000000000               0.000000000               0.000000000               0.001025247               0.005011814               0.000999018              -0.000242009               0.001751258               0.001509248               0.000000000               0.000000000               0.000000000               0.000000000               0.001537741               0.005029429               0.000817853              -0.000052026               0.001693802               0.001641776               0.000000000               0.000000000               0.000000000               0.000000000               0.002019446               0.005030380               0.000596461               0.000128493               0.001633946               0.001762439               0.000000000               0.000000000               0.000000000               0.000000000               0.002447004               0.005022857               0.000323816               0.000289767               0.001577680               0.001867447               0.000000000               0.000000000               0.000000000               0.000000000               0.002699739               0.005040045               0.000186375               0.000382393               0.001552534               0.001934927               0.000000000               0.000000000               0.000000000               0.000000000              -0.012917820              -0.001178967              -0.001301696              -0.004696809               0.001172606              -0.003524203               0.000000000               0.000000000               0.000000000               0.000000000              -0.009104102              -0.000248786               0.000020943              -0.003382938               0.001044710              -0.002338228               0.000000000               0.000000000               0.000000000               0.000000000              -0.006194028               0.000431167               0.001247135              -0.002376654               0.000935934              -0.001440721               0.000000000               0.000000000               0.000000000               0.000000000              -0.004556613               0.001333777               0.001639202              -0.001875450               0.001069734              -0.000805715               0.000000000               0.000000000               0.000000000               0.000000000              -0.003490334               0.002160785               0.001709334              -0.001578971               0.001246576              -0.000332395               0.000000000               0.000000000               0.000000000               0.000000000              -0.002690626               0.002843443               0.001649271              -0.001364413               0.001402608               0.000038196               0.000000000               0.000000000               0.000000000               0.000000000              -0.002028556               0.003371613               0.001543025              -0.001182158               0.001517912               0.000335754               0.000000000               0.000000000               0.000000000               0.000000000              -0.001440667               0.003771867               0.001424852              -0.001011732               0.001594520               0.000582788               0.000000000               0.000000000               0.000000000               0.000000000              -0.000885248               0.004076201               0.001309202              -0.000841492               0.001639217               0.000797725               0.000000000               0.000000000               0.000000000               0.000000000              -0.000335329               0.004307544               0.001203860              -0.000664190               0.001657230               0.000993040               0.000000000               0.000000000               0.000000000               0.000000000               0.000223129               0.004490557               0.001097680              -0.000477646               0.001656052               0.001178407               0.000000000               0.000000000               0.000000000               0.000000000               0.000794911               0.004646526               0.000987977              -0.000282724               0.001643068               0.001360343               0.000000000               0.000000000               0.000000000               0.000000000               0.001383857               0.004776242               0.000870888              -0.000078085               0.001618093               0.001540008               0.000000000               0.000000000               0.000000000               0.000000000               0.001989576               0.004878736               0.000730972               0.000136248               0.001580813               0.001717061               0.000000000               0.000000000               0.000000000               0.000000000               0.002614279               0.004954391               0.000551079               0.000361052               0.001531096               0.001892149               0.000000000               0.000000000               0.000000000               0.000000000               0.003254041               0.004995163               0.000309738               0.000595864               0.001466416               0.002062280               0.000000000               0.000000000               0.000000000               0.000000000               0.003693301               0.005049222               0.000187354               0.000753827               0.001431782               0.002185609               0.000000000               0.000000000               0.000000000               0.000000000              -0.014105187              -0.001294571              -0.000742404              -0.005127620               0.001277674              -0.003849946               0.000000000               0.000000000               0.000000000               0.000000000              -0.009769530              -0.000680614              -0.000018085              -0.003578495               0.000965954              -0.002612541               0.000000000               0.000000000               0.000000000               0.000000000              -0.006350397              -0.000341021               0.000662809              -0.002338769               0.000665911              -0.001672858               0.000000000               0.000000000               0.000000000               0.000000000              -0.004472249               0.000457857               0.000895078              -0.001734324               0.000730721              -0.001003602               0.000000000               0.000000000               0.000000000               0.000000000              -0.003289658               0.001296677               0.000948821              -0.001395704               0.000897454              -0.000498250               0.000000000               0.000000000               0.000000000               0.000000000              -0.002449343               0.002047110               0.000926758              -0.001174390               0.001073826              -0.000100564               0.000000000               0.000000000               0.000000000               0.000000000              -0.001777778               0.002670021               0.000874092              -0.001000417               0.001223470               0.000223053               0.000000000               0.000000000               0.000000000               0.000000000              -0.001194296               0.003162085               0.000812088              -0.000843120               0.001335058               0.000491938               0.000000000               0.000000000               0.000000000               0.000000000              -0.000645941               0.003547218               0.000751060              -0.000685629               0.001410937               0.000725308               0.000000000               0.000000000               0.000000000               0.000000000              -0.000104104               0.003862156               0.000695266              -0.000521808               0.001461308               0.000939501               0.000000000               0.000000000               0.000000000               0.000000000               0.000453561               0.004132649               0.000636685              -0.000346495               0.001493034               0.001146539               0.000000000               0.000000000               0.000000000               0.000000000               0.001044810               0.004369687               0.000576269              -0.000154407               0.001508017               0.001353610               0.000000000               0.000000000               0.000000000               0.000000000               0.001675075               0.004571000               0.000511708               0.000056777               0.001504726               0.001561503               0.000000000               0.000000000               0.000000000               0.000000000               0.002353206               0.004739518               0.000432733               0.000290009               0.001483154               0.001773163               0.000000000               0.000000000               0.000000000               0.000000000               0.003092248               0.004871206               0.000332421               0.000550687               0.001440157               0.001990844               0.000000000               0.000000000               0.000000000               0.000000000               0.003908295               0.004953248               0.000191520               0.000846446               0.001368917               0.002215363               0.000000000               0.000000000               0.000000000               0.000000000               0.004514495               0.005043134               0.000119562               0.001062533               0.001326850               0.002389383               0.000000000               0.000000000               0.000000000               0.000000000               0.000000000               0.000000000               0.000000000               0.000000000               0.000000000               0.000000000               0.000000000               0.000000000               0.000000000               0.000000000               0.000000000               0.000000000               0.000000000               0.000000000               0.000000000               0.000000000               0.000000000               0.000000000               0.000000000               0.000000000               0.000000000               0.000000000               0.000000000               0.000000000               0.000000000               0.000000000               0.000000000               0.000000000               0.000000000               0.000000000               0.000000000               0.000000000               0.000000000               0.000000000               0.000000000               0.000000000               0.000000000               0.000000000               0.000000000               0.000000000               0.000000000               0.000000000               0.000000000               0.000000000               0.000000000               0.000000000               0.000000000               0.000000000               0.000000000               0.000000000               0.000000000               0.000000000               0.000000000               0.000000000               0.000000000               0.000000000               0.000000000               0.000000000               0.000000000               0.000000000               0.000000000               0.000000000               0.000000000               0.000000000               0.000000000               0.000000000               0.000000000               0.000000000               0.000000000               0.000000000               0.000000000               0.000000000               0.000000000               0.000000000               0.000000000               0.000000000               0.000000000               0.000000000               0.000000000               0.000000000               0.000000000               0.000000000               0.000000000               0.000000000               0.000000000               0.000000000               0.000000000               0.000000000               0.000000000               0.000000000               0.000000000               0.000000000               0.000000000               0.000000000               0.000000000               0.000000000               0.000000000               0.000000000               0.000000000               0.000000000               0.000000000               0.000000000               0.000000000               0.000000000               0.000000000               0.000000000               0.000000000               0.000000000               0.000000000               0.000000000               0.000000000               0.000000000               0.000000000               0.000000000               0.000000000               0.000000000               0.000000000               0.000000000               0.000000000               0.000000000               0.000000000               0.000000000               0.000000000               0.000000000               0.000000000               0.000000000               0.000000000               0.000000000               0.000000000               0.000000000               0.000000000               0.000000000               0.000000000               0.000000000               0.000000000               0.000000000               0.000000000               0.000000000               0.000000000               0.000000000               0.000000000               0.000000000               0.000000000               0.000000000               0.000000000               0.000000000               0.000000000               0.000000000               0.000000000               0.000000000               0.000000000               0.000000000               0.000000000               0.000000000               0.000000000               0.000000000               0.000000000               0.000000000               0.000000000               0.000000000               0.000000000               0.000000000               0.000000000               0.000000000               0.000000000               0.000000000               0.000000000               0.000000000               0.000000000               0.000000000 </DataArray>
</PointData>
</Piece>
</UnstructuredGrid> </VTKFile>
