<?xml version="1.0"?>
<VTKFile type="UnstructuredGrid" version="0.1">
<UnstructuredGrid>
<Piece NumberOfPoints="      1156" NumberOfCells="      1024">
<Points>
<DataArray type="Float64"                                    Name="coordinates"                                                      NumberOfComponents=" 3" format="ascii">
              0.133000000               0.000000000               0.000000000               0.155937500               0.000000000               0.000000000               0.178875000               0.000000000               0.000000000               0.201812500               0.000000000               0.000000000               0.224750000               0.000000000               0.000000000               0.247687500               0.000000000               0.000000000               0.270625000               0.000000000               0.000000000               0.293562500               0.000000000               0.000000000               0.316500000               0.000000000               0.000000000               0.339437500               0.000000000               0.000000000               0.362375000               0.000000000               0.000000000               0.385312500               0.000000000               0.000000000               0.408250000               0.000000000               0.000000000               0.431187500               0.000000000               0.000000000               0.454125000               0.000000000               0.000000000               0.477062500               0.000000000               0.000000000               0.500000000               0.000000000               0.000000000               0.132359569               0.013036280               0.000000000               0.155337096               0.016127762               0.000000000               0.178314623               0.019219245               0.000000000               0.201292150               0.022310727               0.000000000               0.224269676               0.025402210               0.000000000               0.247247203               0.028493692               0.000000000               0.270224730               0.031585175               0.000000000               0.293202257               0.034676657               0.000000000               0.316179784               0.037768140               0.000000000               0.339157311               0.040859622               0.000000000               0.362134838               0.043951105               0.000000000               0.385112365               0.047042587               0.000000000               0.408089892               0.050134070               0.000000000               0.431067419               0.053225552               0.000000000               0.454044946               0.056317035               0.000000000               0.477022473               0.059408517               0.000000000               0.500000000               0.062500000               0.000000000               0.130444442               0.025947013               0.000000000               0.153541665               0.032137825               0.000000000               0.176638887               0.038328636               0.000000000               0.199736109               0.044519448               0.000000000               0.222833332               0.050710260               0.000000000               0.245930554               0.056901071               0.000000000               0.269027776               0.063091883               0.000000000               0.292124999               0.069282695               0.000000000               0.315222221               0.075473506               0.000000000               0.338319444               0.081664318               0.000000000               0.361416666               0.087855130               0.000000000               0.384513888               0.094045942               0.000000000               0.407611111               0.100236753               0.000000000               0.430708333               0.106427565               0.000000000               0.453805555               0.112618377               0.000000000               0.476902778               0.118809188               0.000000000               0.500000000               0.125000000               0.000000000               0.127273065               0.038607862               0.000000000               0.150568498               0.047913621               0.000000000               0.173863932               0.057219379               0.000000000               0.197159365               0.066525138               0.000000000               0.220454798               0.075830897               0.000000000               0.243750232               0.085136655               0.000000000               0.267045665               0.094442414               0.000000000               0.290341099               0.103748172               0.000000000               0.313636532               0.113053931               0.000000000               0.336931966               0.122359690               0.000000000               0.360227399               0.131665448               0.000000000               0.383522833               0.140971207               0.000000000               0.406818266               0.150276966               0.000000000               0.430113700               0.159582724               0.000000000               0.453409133               0.168888483               0.000000000               0.476704567               0.178194241               0.000000000               0.500000000               0.187500000               0.000000000               0.122875978               0.050896897               0.000000000               0.146446229               0.063340840               0.000000000               0.170016481               0.075784784               0.000000000               0.193586732               0.088228728               0.000000000               0.217156983               0.100672672               0.000000000               0.240727235               0.113116616               0.000000000               0.264297486               0.125560560               0.000000000               0.287867738               0.138004504               0.000000000               0.311437989               0.150448448               0.000000000               0.335008240               0.162892392               0.000000000               0.358578492               0.175336336               0.000000000               0.382148743               0.187780280               0.000000000               0.405718994               0.200224224               0.000000000               0.429289246               0.212668168               0.000000000               0.452859497               0.225112112               0.000000000               0.476429749               0.237556056               0.000000000               0.500000000               0.250000000               0.000000000               0.117295528               0.062695766               0.000000000               0.141214558               0.078308531               0.000000000               0.165133587               0.093921295               0.000000000               0.189052617               0.109534060               0.000000000               0.212971646               0.125146824               0.000000000               0.236890676               0.140759589               0.000000000               0.260809705               0.156372354               0.000000000               0.284728735               0.171985118               0.000000000               0.308647764               0.187597883               0.000000000               0.332566794               0.203210648               0.000000000               0.356485823               0.218823412               0.000000000               0.380404853               0.234436177               0.000000000               0.404323882               0.250048941               0.000000000               0.428242912               0.265661706               0.000000000               0.452161941               0.281274471               0.000000000               0.476080971               0.296887235               0.000000000               0.500000000               0.312500000               0.000000000               0.110585458               0.073890841               0.000000000               0.134923867               0.092710163               0.000000000               0.159262276               0.111529486               0.000000000               0.183600685               0.130348808               0.000000000               0.207939094               0.149168131               0.000000000               0.232277503               0.167987453               0.000000000               0.256615912               0.186806776               0.000000000               0.280954320               0.205626098               0.000000000               0.305292729               0.224445420               0.000000000               0.329631138               0.243264743               0.000000000               0.353969547               0.262084065               0.000000000               0.378307956               0.280903388               0.000000000               0.402646365               0.299722710               0.000000000               0.426984773               0.318542033               0.000000000               0.451323182               0.337361355               0.000000000               0.475661591               0.356180678               0.000000000               0.500000000               0.375000000               0.000000000               0.102810390               0.084374307               0.000000000               0.127634741               0.106444663               0.000000000               0.152459092               0.128515018               0.000000000               0.177283442               0.150585374               0.000000000               0.202107793               0.172655730               0.000000000               0.226932143               0.194726086               0.000000000               0.251756494               0.216796442               0.000000000               0.276580845               0.238866798               0.000000000               0.301405195               0.260937153               0.000000000               0.326229546               0.283007509               0.000000000               0.351053896               0.305077865               0.000000000               0.375878247               0.327148221               0.000000000               0.400702598               0.349218577               0.000000000               0.425526948               0.371288933               0.000000000               0.450351299               0.393359288               0.000000000               0.475175649               0.415429644               0.000000000               0.500000000               0.437500000               0.000000000               0.094045202               0.094045202               0.000000000               0.119417377               0.119417377               0.000000000               0.144789552               0.144789552               0.000000000               0.170161727               0.170161727               0.000000000               0.195533901               0.195533901               0.000000000               0.220906076               0.220906076               0.000000000               0.246278251               0.246278251               0.000000000               0.271650426               0.271650426               0.000000000               0.297022601               0.297022601               0.000000000               0.322394776               0.322394776               0.000000000               0.347766951               0.347766951               0.000000000               0.373139126               0.373139126               0.000000000               0.398511300               0.398511300               0.000000000               0.423883475               0.423883475               0.000000000               0.449255650               0.449255650               0.000000000               0.474627825               0.474627825               0.000000000               0.500000000               0.500000000               0.000000000               0.084374307               0.102810390               0.000000000               0.106444663               0.127634741               0.000000000               0.128515018               0.152459092               0.000000000               0.150585374               0.177283442               0.000000000               0.172655730               0.202107793               0.000000000               0.194726086               0.226932143               0.000000000               0.216796442               0.251756494               0.000000000               0.238866798               0.276580845               0.000000000               0.260937153               0.301405195               0.000000000               0.283007509               0.326229546               0.000000000               0.305077865               0.351053896               0.000000000               0.327148221               0.375878247               0.000000000               0.349218577               0.400702598               0.000000000               0.371288933               0.425526948               0.000000000               0.393359288               0.450351299               0.000000000               0.415429644               0.475175649               0.000000000               0.437500000               0.500000000               0.000000000               0.073890841               0.110585458               0.000000000               0.092710163               0.134923867               0.000000000               0.111529486               0.159262276               0.000000000               0.130348808               0.183600685               0.000000000               0.149168131               0.207939094               0.000000000               0.167987453               0.232277503               0.000000000               0.186806776               0.256615912               0.000000000               0.205626098               0.280954320               0.000000000               0.224445420               0.305292729               0.000000000               0.243264743               0.329631138               0.000000000               0.262084065               0.353969547               0.000000000               0.280903388               0.378307956               0.000000000               0.299722710               0.402646365               0.000000000               0.318542033               0.426984773               0.000000000               0.337361355               0.451323182               0.000000000               0.356180678               0.475661591               0.000000000               0.375000000               0.500000000               0.000000000               0.062695766               0.117295528               0.000000000               0.078308531               0.141214558               0.000000000               0.093921295               0.165133587               0.000000000               0.109534060               0.189052617               0.000000000               0.125146824               0.212971646               0.000000000               0.140759589               0.236890676               0.000000000               0.156372354               0.260809705               0.000000000               0.171985118               0.284728735               0.000000000               0.187597883               0.308647764               0.000000000               0.203210648               0.332566794               0.000000000               0.218823412               0.356485823               0.000000000               0.234436177               0.380404853               0.000000000               0.250048941               0.404323882               0.000000000               0.265661706               0.428242912               0.000000000               0.281274471               0.452161941               0.000000000               0.296887235               0.476080971               0.000000000               0.312500000               0.500000000               0.000000000               0.050896897               0.122875978               0.000000000               0.063340840               0.146446229               0.000000000               0.075784784               0.170016481               0.000000000               0.088228728               0.193586732               0.000000000               0.100672672               0.217156983               0.000000000               0.113116616               0.240727235               0.000000000               0.125560560               0.264297486               0.000000000               0.138004504               0.287867738               0.000000000               0.150448448               0.311437989               0.000000000               0.162892392               0.335008240               0.000000000               0.175336336               0.358578492               0.000000000               0.187780280               0.382148743               0.000000000               0.200224224               0.405718994               0.000000000               0.212668168               0.429289246               0.000000000               0.225112112               0.452859497               0.000000000               0.237556056               0.476429749               0.000000000               0.250000000               0.500000000               0.000000000               0.038607862               0.127273065               0.000000000               0.047913621               0.150568498               0.000000000               0.057219379               0.173863932               0.000000000               0.066525138               0.197159365               0.000000000               0.075830897               0.220454798               0.000000000               0.085136655               0.243750232               0.000000000               0.094442414               0.267045665               0.000000000               0.103748172               0.290341099               0.000000000               0.113053931               0.313636532               0.000000000               0.122359690               0.336931966               0.000000000               0.131665448               0.360227399               0.000000000               0.140971207               0.383522833               0.000000000               0.150276966               0.406818266               0.000000000               0.159582724               0.430113700               0.000000000               0.168888483               0.453409133               0.000000000               0.178194241               0.476704567               0.000000000               0.187500000               0.500000000               0.000000000               0.025947013               0.130444442               0.000000000               0.032137825               0.153541665               0.000000000               0.038328636               0.176638887               0.000000000               0.044519448               0.199736109               0.000000000               0.050710260               0.222833332               0.000000000               0.056901071               0.245930554               0.000000000               0.063091883               0.269027776               0.000000000               0.069282695               0.292124999               0.000000000               0.075473506               0.315222221               0.000000000               0.081664318               0.338319444               0.000000000               0.087855130               0.361416666               0.000000000               0.094045942               0.384513888               0.000000000               0.100236753               0.407611111               0.000000000               0.106427565               0.430708333               0.000000000               0.112618377               0.453805555               0.000000000               0.118809188               0.476902778               0.000000000               0.125000000               0.500000000               0.000000000               0.013036280               0.132359569               0.000000000               0.016127762               0.155337096               0.000000000               0.019219245               0.178314623               0.000000000               0.022310727               0.201292150               0.000000000               0.025402210               0.224269676               0.000000000               0.028493692               0.247247203               0.000000000               0.031585175               0.270224730               0.000000000               0.034676657               0.293202257               0.000000000               0.037768140               0.316179784               0.000000000               0.040859622               0.339157311               0.000000000               0.043951105               0.362134838               0.000000000               0.047042587               0.385112365               0.000000000               0.050134070               0.408089892               0.000000000               0.053225552               0.431067419               0.000000000               0.056317035               0.454044946               0.000000000               0.059408517               0.477022473               0.000000000               0.062500000               0.500000000               0.000000000               0.000000000               0.133000000               0.000000000               0.000000000               0.155937500               0.000000000               0.000000000               0.178875000               0.000000000               0.000000000               0.201812500               0.000000000               0.000000000               0.224750000               0.000000000               0.000000000               0.247687500               0.000000000               0.000000000               0.270625000               0.000000000               0.000000000               0.293562500               0.000000000               0.000000000               0.316500000               0.000000000               0.000000000               0.339437500               0.000000000               0.000000000               0.362375000               0.000000000               0.000000000               0.385312500               0.000000000               0.000000000               0.408250000               0.000000000               0.000000000               0.431187500               0.000000000               0.000000000               0.454125000               0.000000000               0.000000000               0.477062500               0.000000000               0.000000000               0.500000000               0.000000000               0.133000000               0.000000000               0.000000000               0.155937500               0.000000000               0.000000000               0.178875000               0.000000000               0.000000000               0.201812500               0.000000000               0.000000000               0.224750000               0.000000000               0.000000000               0.247687500               0.000000000               0.000000000               0.270625000               0.000000000               0.000000000               0.293562500               0.000000000               0.000000000               0.316500000               0.000000000               0.000000000               0.339437500               0.000000000               0.000000000               0.362375000               0.000000000               0.000000000               0.385312500               0.000000000               0.000000000               0.408250000               0.000000000               0.000000000               0.431187500               0.000000000               0.000000000               0.454125000               0.000000000               0.000000000               0.477062500               0.000000000               0.000000000               0.500000000               0.000000000               0.000000000               0.132359569              -0.013036280               0.000000000               0.155337096              -0.016127762               0.000000000               0.178314623              -0.019219245               0.000000000               0.201292150              -0.022310727               0.000000000               0.224269676              -0.025402210               0.000000000               0.247247203              -0.028493692               0.000000000               0.270224730              -0.031585175               0.000000000               0.293202257              -0.034676657               0.000000000               0.316179784              -0.037768140               0.000000000               0.339157311              -0.040859622               0.000000000               0.362134838              -0.043951105               0.000000000               0.385112365              -0.047042587               0.000000000               0.408089892              -0.050134070               0.000000000               0.431067419              -0.053225552               0.000000000               0.454044946              -0.056317035               0.000000000               0.477022473              -0.059408517               0.000000000               0.500000000              -0.062500000               0.000000000               0.130444442              -0.025947013               0.000000000               0.153541665              -0.032137825               0.000000000               0.176638887              -0.038328636               0.000000000               0.199736109              -0.044519448               0.000000000               0.222833332              -0.050710260               0.000000000               0.245930554              -0.056901071               0.000000000               0.269027776              -0.063091883               0.000000000               0.292124999              -0.069282695               0.000000000               0.315222221              -0.075473506               0.000000000               0.338319444              -0.081664318               0.000000000               0.361416666              -0.087855130               0.000000000               0.384513888              -0.094045942               0.000000000               0.407611111              -0.100236753               0.000000000               0.430708333              -0.106427565               0.000000000               0.453805555              -0.112618377               0.000000000               0.476902778              -0.118809188               0.000000000               0.500000000              -0.125000000               0.000000000               0.127273065              -0.038607862               0.000000000               0.150568498              -0.047913621               0.000000000               0.173863932              -0.057219379               0.000000000               0.197159365              -0.066525138               0.000000000               0.220454798              -0.075830897               0.000000000               0.243750232              -0.085136655               0.000000000               0.267045665              -0.094442414               0.000000000               0.290341099              -0.103748172               0.000000000               0.313636532              -0.113053931               0.000000000               0.336931966              -0.122359690               0.000000000               0.360227399              -0.131665448               0.000000000               0.383522833              -0.140971207               0.000000000               0.406818266              -0.150276966               0.000000000               0.430113700              -0.159582724               0.000000000               0.453409133              -0.168888483               0.000000000               0.476704567              -0.178194241               0.000000000               0.500000000              -0.187500000               0.000000000               0.122875978              -0.050896897               0.000000000               0.146446229              -0.063340840               0.000000000               0.170016481              -0.075784784               0.000000000               0.193586732              -0.088228728               0.000000000               0.217156983              -0.100672672               0.000000000               0.240727235              -0.113116616               0.000000000               0.264297486              -0.125560560               0.000000000               0.287867738              -0.138004504               0.000000000               0.311437989              -0.150448448               0.000000000               0.335008240              -0.162892392               0.000000000               0.358578492              -0.175336336               0.000000000               0.382148743              -0.187780280               0.000000000               0.405718994              -0.200224224               0.000000000               0.429289246              -0.212668168               0.000000000               0.452859497              -0.225112112               0.000000000               0.476429749              -0.237556056               0.000000000               0.500000000              -0.250000000               0.000000000               0.117295528              -0.062695766               0.000000000               0.141214558              -0.078308531               0.000000000               0.165133587              -0.093921295               0.000000000               0.189052617              -0.109534060               0.000000000               0.212971646              -0.125146824               0.000000000               0.236890676              -0.140759589               0.000000000               0.260809705              -0.156372354               0.000000000               0.284728735              -0.171985118               0.000000000               0.308647764              -0.187597883               0.000000000               0.332566794              -0.203210648               0.000000000               0.356485823              -0.218823412               0.000000000               0.380404853              -0.234436177               0.000000000               0.404323882              -0.250048941               0.000000000               0.428242912              -0.265661706               0.000000000               0.452161941              -0.281274471               0.000000000               0.476080971              -0.296887235               0.000000000               0.500000000              -0.312500000               0.000000000               0.110585458              -0.073890841               0.000000000               0.134923867              -0.092710163               0.000000000               0.159262276              -0.111529486               0.000000000               0.183600685              -0.130348808               0.000000000               0.207939094              -0.149168131               0.000000000               0.232277503              -0.167987453               0.000000000               0.256615912              -0.186806776               0.000000000               0.280954320              -0.205626098               0.000000000               0.305292729              -0.224445420               0.000000000               0.329631138              -0.243264743               0.000000000               0.353969547              -0.262084065               0.000000000               0.378307956              -0.280903388               0.000000000               0.402646365              -0.299722710               0.000000000               0.426984773              -0.318542033               0.000000000               0.451323182              -0.337361355               0.000000000               0.475661591              -0.356180678               0.000000000               0.500000000              -0.375000000               0.000000000               0.102810390              -0.084374307               0.000000000               0.127634741              -0.106444663               0.000000000               0.152459092              -0.128515018               0.000000000               0.177283442              -0.150585374               0.000000000               0.202107793              -0.172655730               0.000000000               0.226932143              -0.194726086               0.000000000               0.251756494              -0.216796442               0.000000000               0.276580845              -0.238866798               0.000000000               0.301405195              -0.260937153               0.000000000               0.326229546              -0.283007509               0.000000000               0.351053896              -0.305077865               0.000000000               0.375878247              -0.327148221               0.000000000               0.400702598              -0.349218577               0.000000000               0.425526948              -0.371288933               0.000000000               0.450351299              -0.393359288               0.000000000               0.475175649              -0.415429644               0.000000000               0.500000000              -0.437500000               0.000000000               0.094045202              -0.094045202               0.000000000               0.119417377              -0.119417377               0.000000000               0.144789552              -0.144789552               0.000000000               0.170161727              -0.170161727               0.000000000               0.195533901              -0.195533901               0.000000000               0.220906076              -0.220906076               0.000000000               0.246278251              -0.246278251               0.000000000               0.271650426              -0.271650426               0.000000000               0.297022601              -0.297022601               0.000000000               0.322394776              -0.322394776               0.000000000               0.347766951              -0.347766951               0.000000000               0.373139126              -0.373139126               0.000000000               0.398511300              -0.398511300               0.000000000               0.423883475              -0.423883475               0.000000000               0.449255650              -0.449255650               0.000000000               0.474627825              -0.474627825               0.000000000               0.500000000              -0.500000000               0.000000000               0.084374307              -0.102810390               0.000000000               0.106444663              -0.127634741               0.000000000               0.128515018              -0.152459092               0.000000000               0.150585374              -0.177283442               0.000000000               0.172655730              -0.202107793               0.000000000               0.194726086              -0.226932143               0.000000000               0.216796442              -0.251756494               0.000000000               0.238866798              -0.276580845               0.000000000               0.260937153              -0.301405195               0.000000000               0.283007509              -0.326229546               0.000000000               0.305077865              -0.351053896               0.000000000               0.327148221              -0.375878247               0.000000000               0.349218577              -0.400702598               0.000000000               0.371288933              -0.425526948               0.000000000               0.393359288              -0.450351299               0.000000000               0.415429644              -0.475175649               0.000000000               0.437500000              -0.500000000               0.000000000               0.073890841              -0.110585458               0.000000000               0.092710163              -0.134923867               0.000000000               0.111529486              -0.159262276               0.000000000               0.130348808              -0.183600685               0.000000000               0.149168131              -0.207939094               0.000000000               0.167987453              -0.232277503               0.000000000               0.186806776              -0.256615912               0.000000000               0.205626098              -0.280954320               0.000000000               0.224445420              -0.305292729               0.000000000               0.243264743              -0.329631138               0.000000000               0.262084065              -0.353969547               0.000000000               0.280903388              -0.378307956               0.000000000               0.299722710              -0.402646365               0.000000000               0.318542033              -0.426984773               0.000000000               0.337361355              -0.451323182               0.000000000               0.356180678              -0.475661591               0.000000000               0.375000000              -0.500000000               0.000000000               0.062695766              -0.117295528               0.000000000               0.078308531              -0.141214558               0.000000000               0.093921295              -0.165133587               0.000000000               0.109534060              -0.189052617               0.000000000               0.125146824              -0.212971646               0.000000000               0.140759589              -0.236890676               0.000000000               0.156372354              -0.260809705               0.000000000               0.171985118              -0.284728735               0.000000000               0.187597883              -0.308647764               0.000000000               0.203210648              -0.332566794               0.000000000               0.218823412              -0.356485823               0.000000000               0.234436177              -0.380404853               0.000000000               0.250048941              -0.404323882               0.000000000               0.265661706              -0.428242912               0.000000000               0.281274471              -0.452161941               0.000000000               0.296887235              -0.476080971               0.000000000               0.312500000              -0.500000000               0.000000000               0.050896897              -0.122875978               0.000000000               0.063340840              -0.146446229               0.000000000               0.075784784              -0.170016481               0.000000000               0.088228728              -0.193586732               0.000000000               0.100672672              -0.217156983               0.000000000               0.113116616              -0.240727235               0.000000000               0.125560560              -0.264297486               0.000000000               0.138004504              -0.287867738               0.000000000               0.150448448              -0.311437989               0.000000000               0.162892392              -0.335008240               0.000000000               0.175336336              -0.358578492               0.000000000               0.187780280              -0.382148743               0.000000000               0.200224224              -0.405718994               0.000000000               0.212668168              -0.429289246               0.000000000               0.225112112              -0.452859497               0.000000000               0.237556056              -0.476429749               0.000000000               0.250000000              -0.500000000               0.000000000               0.038607862              -0.127273065               0.000000000               0.047913621              -0.150568498               0.000000000               0.057219379              -0.173863932               0.000000000               0.066525138              -0.197159365               0.000000000               0.075830897              -0.220454798               0.000000000               0.085136655              -0.243750232               0.000000000               0.094442414              -0.267045665               0.000000000               0.103748172              -0.290341099               0.000000000               0.113053931              -0.313636532               0.000000000               0.122359690              -0.336931966               0.000000000               0.131665448              -0.360227399               0.000000000               0.140971207              -0.383522833               0.000000000               0.150276966              -0.406818266               0.000000000               0.159582724              -0.430113700               0.000000000               0.168888483              -0.453409133               0.000000000               0.178194241              -0.476704567               0.000000000               0.187500000              -0.500000000               0.000000000               0.025947013              -0.130444442               0.000000000               0.032137825              -0.153541665               0.000000000               0.038328636              -0.176638887               0.000000000               0.044519448              -0.199736109               0.000000000               0.050710260              -0.222833332               0.000000000               0.056901071              -0.245930554               0.000000000               0.063091883              -0.269027776               0.000000000               0.069282695              -0.292124999               0.000000000               0.075473506              -0.315222221               0.000000000               0.081664318              -0.338319444               0.000000000               0.087855130              -0.361416666               0.000000000               0.094045942              -0.384513888               0.000000000               0.100236753              -0.407611111               0.000000000               0.106427565              -0.430708333               0.000000000               0.112618377              -0.453805555               0.000000000               0.118809188              -0.476902778               0.000000000               0.125000000              -0.500000000               0.000000000               0.013036280              -0.132359569               0.000000000               0.016127762              -0.155337096               0.000000000               0.019219245              -0.178314623               0.000000000               0.022310727              -0.201292150               0.000000000               0.025402210              -0.224269676               0.000000000               0.028493692              -0.247247203               0.000000000               0.031585175              -0.270224730               0.000000000               0.034676657              -0.293202257               0.000000000               0.037768140              -0.316179784               0.000000000               0.040859622              -0.339157311               0.000000000               0.043951105              -0.362134838               0.000000000               0.047042587              -0.385112365               0.000000000               0.050134070              -0.408089892               0.000000000               0.053225552              -0.431067419               0.000000000               0.056317035              -0.454044946               0.000000000               0.059408517              -0.477022473               0.000000000               0.062500000              -0.500000000               0.000000000               0.000000000              -0.133000000               0.000000000               0.000000000              -0.155937500               0.000000000               0.000000000              -0.178875000               0.000000000               0.000000000              -0.201812500               0.000000000               0.000000000              -0.224750000               0.000000000               0.000000000              -0.247687500               0.000000000               0.000000000              -0.270625000               0.000000000               0.000000000              -0.293562500               0.000000000               0.000000000              -0.316500000               0.000000000               0.000000000              -0.339437500               0.000000000               0.000000000              -0.362375000               0.000000000               0.000000000              -0.385312500               0.000000000               0.000000000              -0.408250000               0.000000000               0.000000000              -0.431187500               0.000000000               0.000000000              -0.454125000               0.000000000               0.000000000              -0.477062500               0.000000000               0.000000000              -0.500000000               0.000000000              -0.133000000               0.000000000               0.000000000              -0.155937500               0.000000000               0.000000000              -0.178875000               0.000000000               0.000000000              -0.201812500               0.000000000               0.000000000              -0.224750000               0.000000000               0.000000000              -0.247687500               0.000000000               0.000000000              -0.270625000               0.000000000               0.000000000              -0.293562500               0.000000000               0.000000000              -0.316500000               0.000000000               0.000000000              -0.339437500               0.000000000               0.000000000              -0.362375000               0.000000000               0.000000000              -0.385312500               0.000000000               0.000000000              -0.408250000               0.000000000               0.000000000              -0.431187500               0.000000000               0.000000000              -0.454125000               0.000000000               0.000000000              -0.477062500               0.000000000               0.000000000              -0.500000000               0.000000000               0.000000000              -0.132359569              -0.013036280               0.000000000              -0.155337096              -0.016127762               0.000000000              -0.178314623              -0.019219245               0.000000000              -0.201292150              -0.022310727               0.000000000              -0.224269676              -0.025402210               0.000000000              -0.247247203              -0.028493692               0.000000000              -0.270224730              -0.031585175               0.000000000              -0.293202257              -0.034676657               0.000000000              -0.316179784              -0.037768140               0.000000000              -0.339157311              -0.040859622               0.000000000              -0.362134838              -0.043951105               0.000000000              -0.385112365              -0.047042587               0.000000000              -0.408089892              -0.050134070               0.000000000              -0.431067419              -0.053225552               0.000000000              -0.454044946              -0.056317035               0.000000000              -0.477022473              -0.059408517               0.000000000              -0.500000000              -0.062500000               0.000000000              -0.130444442              -0.025947013               0.000000000              -0.153541665              -0.032137825               0.000000000              -0.176638887              -0.038328636               0.000000000              -0.199736109              -0.044519448               0.000000000              -0.222833332              -0.050710260               0.000000000              -0.245930554              -0.056901071               0.000000000              -0.269027776              -0.063091883               0.000000000              -0.292124999              -0.069282695               0.000000000              -0.315222221              -0.075473506               0.000000000              -0.338319444              -0.081664318               0.000000000              -0.361416666              -0.087855130               0.000000000              -0.384513888              -0.094045942               0.000000000              -0.407611111              -0.100236753               0.000000000              -0.430708333              -0.106427565               0.000000000              -0.453805555              -0.112618377               0.000000000              -0.476902778              -0.118809188               0.000000000              -0.500000000              -0.125000000               0.000000000              -0.127273065              -0.038607862               0.000000000              -0.150568498              -0.047913621               0.000000000              -0.173863932              -0.057219379               0.000000000              -0.197159365              -0.066525138               0.000000000              -0.220454798              -0.075830897               0.000000000              -0.243750232              -0.085136655               0.000000000              -0.267045665              -0.094442414               0.000000000              -0.290341099              -0.103748172               0.000000000              -0.313636532              -0.113053931               0.000000000              -0.336931966              -0.122359690               0.000000000              -0.360227399              -0.131665448               0.000000000              -0.383522833              -0.140971207               0.000000000              -0.406818266              -0.150276966               0.000000000              -0.430113700              -0.159582724               0.000000000              -0.453409133              -0.168888483               0.000000000              -0.476704567              -0.178194241               0.000000000              -0.500000000              -0.187500000               0.000000000              -0.122875978              -0.050896897               0.000000000              -0.146446229              -0.063340840               0.000000000              -0.170016481              -0.075784784               0.000000000              -0.193586732              -0.088228728               0.000000000              -0.217156983              -0.100672672               0.000000000              -0.240727235              -0.113116616               0.000000000              -0.264297486              -0.125560560               0.000000000              -0.287867738              -0.138004504               0.000000000              -0.311437989              -0.150448448               0.000000000              -0.335008240              -0.162892392               0.000000000              -0.358578492              -0.175336336               0.000000000              -0.382148743              -0.187780280               0.000000000              -0.405718994              -0.200224224               0.000000000              -0.429289246              -0.212668168               0.000000000              -0.452859497              -0.225112112               0.000000000              -0.476429749              -0.237556056               0.000000000              -0.500000000              -0.250000000               0.000000000              -0.117295528              -0.062695766               0.000000000              -0.141214558              -0.078308531               0.000000000              -0.165133587              -0.093921295               0.000000000              -0.189052617              -0.109534060               0.000000000              -0.212971646              -0.125146824               0.000000000              -0.236890676              -0.140759589               0.000000000              -0.260809705              -0.156372354               0.000000000              -0.284728735              -0.171985118               0.000000000              -0.308647764              -0.187597883               0.000000000              -0.332566794              -0.203210648               0.000000000              -0.356485823              -0.218823412               0.000000000              -0.380404853              -0.234436177               0.000000000              -0.404323882              -0.250048941               0.000000000              -0.428242912              -0.265661706               0.000000000              -0.452161941              -0.281274471               0.000000000              -0.476080971              -0.296887235               0.000000000              -0.500000000              -0.312500000               0.000000000              -0.110585458              -0.073890841               0.000000000              -0.134923867              -0.092710163               0.000000000              -0.159262276              -0.111529486               0.000000000              -0.183600685              -0.130348808               0.000000000              -0.207939094              -0.149168131               0.000000000              -0.232277503              -0.167987453               0.000000000              -0.256615912              -0.186806776               0.000000000              -0.280954320              -0.205626098               0.000000000              -0.305292729              -0.224445420               0.000000000              -0.329631138              -0.243264743               0.000000000              -0.353969547              -0.262084065               0.000000000              -0.378307956              -0.280903388               0.000000000              -0.402646365              -0.299722710               0.000000000              -0.426984773              -0.318542033               0.000000000              -0.451323182              -0.337361355               0.000000000              -0.475661591              -0.356180678               0.000000000              -0.500000000              -0.375000000               0.000000000              -0.102810390              -0.084374307               0.000000000              -0.127634741              -0.106444663               0.000000000              -0.152459092              -0.128515018               0.000000000              -0.177283442              -0.150585374               0.000000000              -0.202107793              -0.172655730               0.000000000              -0.226932143              -0.194726086               0.000000000              -0.251756494              -0.216796442               0.000000000              -0.276580845              -0.238866798               0.000000000              -0.301405195              -0.260937153               0.000000000              -0.326229546              -0.283007509               0.000000000              -0.351053896              -0.305077865               0.000000000              -0.375878247              -0.327148221               0.000000000              -0.400702598              -0.349218577               0.000000000              -0.425526948              -0.371288933               0.000000000              -0.450351299              -0.393359288               0.000000000              -0.475175649              -0.415429644               0.000000000              -0.500000000              -0.437500000               0.000000000              -0.094045202              -0.094045202               0.000000000              -0.119417377              -0.119417377               0.000000000              -0.144789552              -0.144789552               0.000000000              -0.170161727              -0.170161727               0.000000000              -0.195533901              -0.195533901               0.000000000              -0.220906076              -0.220906076               0.000000000              -0.246278251              -0.246278251               0.000000000              -0.271650426              -0.271650426               0.000000000              -0.297022601              -0.297022601               0.000000000              -0.322394776              -0.322394776               0.000000000              -0.347766951              -0.347766951               0.000000000              -0.373139126              -0.373139126               0.000000000              -0.398511300              -0.398511300               0.000000000              -0.423883475              -0.423883475               0.000000000              -0.449255650              -0.449255650               0.000000000              -0.474627825              -0.474627825               0.000000000              -0.500000000              -0.500000000               0.000000000              -0.084374307              -0.102810390               0.000000000              -0.106444663              -0.127634741               0.000000000              -0.128515018              -0.152459092               0.000000000              -0.150585374              -0.177283442               0.000000000              -0.172655730              -0.202107793               0.000000000              -0.194726086              -0.226932143               0.000000000              -0.216796442              -0.251756494               0.000000000              -0.238866798              -0.276580845               0.000000000              -0.260937153              -0.301405195               0.000000000              -0.283007509              -0.326229546               0.000000000              -0.305077865              -0.351053896               0.000000000              -0.327148221              -0.375878247               0.000000000              -0.349218577              -0.400702598               0.000000000              -0.371288933              -0.425526948               0.000000000              -0.393359288              -0.450351299               0.000000000              -0.415429644              -0.475175649               0.000000000              -0.437500000              -0.500000000               0.000000000              -0.073890841              -0.110585458               0.000000000              -0.092710163              -0.134923867               0.000000000              -0.111529486              -0.159262276               0.000000000              -0.130348808              -0.183600685               0.000000000              -0.149168131              -0.207939094               0.000000000              -0.167987453              -0.232277503               0.000000000              -0.186806776              -0.256615912               0.000000000              -0.205626098              -0.280954320               0.000000000              -0.224445420              -0.305292729               0.000000000              -0.243264743              -0.329631138               0.000000000              -0.262084065              -0.353969547               0.000000000              -0.280903388              -0.378307956               0.000000000              -0.299722710              -0.402646365               0.000000000              -0.318542033              -0.426984773               0.000000000              -0.337361355              -0.451323182               0.000000000              -0.356180678              -0.475661591               0.000000000              -0.375000000              -0.500000000               0.000000000              -0.062695766              -0.117295528               0.000000000              -0.078308531              -0.141214558               0.000000000              -0.093921295              -0.165133587               0.000000000              -0.109534060              -0.189052617               0.000000000              -0.125146824              -0.212971646               0.000000000              -0.140759589              -0.236890676               0.000000000              -0.156372354              -0.260809705               0.000000000              -0.171985118              -0.284728735               0.000000000              -0.187597883              -0.308647764               0.000000000              -0.203210648              -0.332566794               0.000000000              -0.218823412              -0.356485823               0.000000000              -0.234436177              -0.380404853               0.000000000              -0.250048941              -0.404323882               0.000000000              -0.265661706              -0.428242912               0.000000000              -0.281274471              -0.452161941               0.000000000              -0.296887235              -0.476080971               0.000000000              -0.312500000              -0.500000000               0.000000000              -0.050896897              -0.122875978               0.000000000              -0.063340840              -0.146446229               0.000000000              -0.075784784              -0.170016481               0.000000000              -0.088228728              -0.193586732               0.000000000              -0.100672672              -0.217156983               0.000000000              -0.113116616              -0.240727235               0.000000000              -0.125560560              -0.264297486               0.000000000              -0.138004504              -0.287867738               0.000000000              -0.150448448              -0.311437989               0.000000000              -0.162892392              -0.335008240               0.000000000              -0.175336336              -0.358578492               0.000000000              -0.187780280              -0.382148743               0.000000000              -0.200224224              -0.405718994               0.000000000              -0.212668168              -0.429289246               0.000000000              -0.225112112              -0.452859497               0.000000000              -0.237556056              -0.476429749               0.000000000              -0.250000000              -0.500000000               0.000000000              -0.038607862              -0.127273065               0.000000000              -0.047913621              -0.150568498               0.000000000              -0.057219379              -0.173863932               0.000000000              -0.066525138              -0.197159365               0.000000000              -0.075830897              -0.220454798               0.000000000              -0.085136655              -0.243750232               0.000000000              -0.094442414              -0.267045665               0.000000000              -0.103748172              -0.290341099               0.000000000              -0.113053931              -0.313636532               0.000000000              -0.122359690              -0.336931966               0.000000000              -0.131665448              -0.360227399               0.000000000              -0.140971207              -0.383522833               0.000000000              -0.150276966              -0.406818266               0.000000000              -0.159582724              -0.430113700               0.000000000              -0.168888483              -0.453409133               0.000000000              -0.178194241              -0.476704567               0.000000000              -0.187500000              -0.500000000               0.000000000              -0.025947013              -0.130444442               0.000000000              -0.032137825              -0.153541665               0.000000000              -0.038328636              -0.176638887               0.000000000              -0.044519448              -0.199736109               0.000000000              -0.050710260              -0.222833332               0.000000000              -0.056901071              -0.245930554               0.000000000              -0.063091883              -0.269027776               0.000000000              -0.069282695              -0.292124999               0.000000000              -0.075473506              -0.315222221               0.000000000              -0.081664318              -0.338319444               0.000000000              -0.087855130              -0.361416666               0.000000000              -0.094045942              -0.384513888               0.000000000              -0.100236753              -0.407611111               0.000000000              -0.106427565              -0.430708333               0.000000000              -0.112618377              -0.453805555               0.000000000              -0.118809188              -0.476902778               0.000000000              -0.125000000              -0.500000000               0.000000000              -0.013036280              -0.132359569               0.000000000              -0.016127762              -0.155337096               0.000000000              -0.019219245              -0.178314623               0.000000000              -0.022310727              -0.201292150               0.000000000              -0.025402210              -0.224269676               0.000000000              -0.028493692              -0.247247203               0.000000000              -0.031585175              -0.270224730               0.000000000              -0.034676657              -0.293202257               0.000000000              -0.037768140              -0.316179784               0.000000000              -0.040859622              -0.339157311               0.000000000              -0.043951105              -0.362134838               0.000000000              -0.047042587              -0.385112365               0.000000000              -0.050134070              -0.408089892               0.000000000              -0.053225552              -0.431067419               0.000000000              -0.056317035              -0.454044946               0.000000000              -0.059408517              -0.477022473               0.000000000              -0.062500000              -0.500000000               0.000000000               0.000000000              -0.133000000               0.000000000               0.000000000              -0.155937500               0.000000000               0.000000000              -0.178875000               0.000000000               0.000000000              -0.201812500               0.000000000               0.000000000              -0.224750000               0.000000000               0.000000000              -0.247687500               0.000000000               0.000000000              -0.270625000               0.000000000               0.000000000              -0.293562500               0.000000000               0.000000000              -0.316500000               0.000000000               0.000000000              -0.339437500               0.000000000               0.000000000              -0.362375000               0.000000000               0.000000000              -0.385312500               0.000000000               0.000000000              -0.408250000               0.000000000               0.000000000              -0.431187500               0.000000000               0.000000000              -0.454125000               0.000000000               0.000000000              -0.477062500               0.000000000               0.000000000              -0.500000000               0.000000000              -0.133000000               0.000000000               0.000000000              -0.155937500               0.000000000               0.000000000              -0.178875000               0.000000000               0.000000000              -0.201812500               0.000000000               0.000000000              -0.224750000               0.000000000               0.000000000              -0.247687500               0.000000000               0.000000000              -0.270625000               0.000000000               0.000000000              -0.293562500               0.000000000               0.000000000              -0.316500000               0.000000000               0.000000000              -0.339437500               0.000000000               0.000000000              -0.362375000               0.000000000               0.000000000              -0.385312500               0.000000000               0.000000000              -0.408250000               0.000000000               0.000000000              -0.431187500               0.000000000               0.000000000              -0.454125000               0.000000000               0.000000000              -0.477062500               0.000000000               0.000000000              -0.500000000               0.000000000               0.000000000              -0.132359569               0.013036280               0.000000000              -0.155337096               0.016127762               0.000000000              -0.178314623               0.019219245               0.000000000              -0.201292150               0.022310727               0.000000000              -0.224269676               0.025402210               0.000000000              -0.247247203               0.028493692               0.000000000              -0.270224730               0.031585175               0.000000000              -0.293202257               0.034676657               0.000000000              -0.316179784               0.037768140               0.000000000              -0.339157311               0.040859622               0.000000000              -0.362134838               0.043951105               0.000000000              -0.385112365               0.047042587               0.000000000              -0.408089892               0.050134070               0.000000000              -0.431067419               0.053225552               0.000000000              -0.454044946               0.056317035               0.000000000              -0.477022473               0.059408517               0.000000000              -0.500000000               0.062500000               0.000000000              -0.130444442               0.025947013               0.000000000              -0.153541665               0.032137825               0.000000000              -0.176638887               0.038328636               0.000000000              -0.199736109               0.044519448               0.000000000              -0.222833332               0.050710260               0.000000000              -0.245930554               0.056901071               0.000000000              -0.269027776               0.063091883               0.000000000              -0.292124999               0.069282695               0.000000000              -0.315222221               0.075473506               0.000000000              -0.338319444               0.081664318               0.000000000              -0.361416666               0.087855130               0.000000000              -0.384513888               0.094045942               0.000000000              -0.407611111               0.100236753               0.000000000              -0.430708333               0.106427565               0.000000000              -0.453805555               0.112618377               0.000000000              -0.476902778               0.118809188               0.000000000              -0.500000000               0.125000000               0.000000000              -0.127273065               0.038607862               0.000000000              -0.150568498               0.047913621               0.000000000              -0.173863932               0.057219379               0.000000000              -0.197159365               0.066525138               0.000000000              -0.220454798               0.075830897               0.000000000              -0.243750232               0.085136655               0.000000000              -0.267045665               0.094442414               0.000000000              -0.290341099               0.103748172               0.000000000              -0.313636532               0.113053931               0.000000000              -0.336931966               0.122359690               0.000000000              -0.360227399               0.131665448               0.000000000              -0.383522833               0.140971207               0.000000000              -0.406818266               0.150276966               0.000000000              -0.430113700               0.159582724               0.000000000              -0.453409133               0.168888483               0.000000000              -0.476704567               0.178194241               0.000000000              -0.500000000               0.187500000               0.000000000              -0.122875978               0.050896897               0.000000000              -0.146446229               0.063340840               0.000000000              -0.170016481               0.075784784               0.000000000              -0.193586732               0.088228728               0.000000000              -0.217156983               0.100672672               0.000000000              -0.240727235               0.113116616               0.000000000              -0.264297486               0.125560560               0.000000000              -0.287867738               0.138004504               0.000000000              -0.311437989               0.150448448               0.000000000              -0.335008240               0.162892392               0.000000000              -0.358578492               0.175336336               0.000000000              -0.382148743               0.187780280               0.000000000              -0.405718994               0.200224224               0.000000000              -0.429289246               0.212668168               0.000000000              -0.452859497               0.225112112               0.000000000              -0.476429749               0.237556056               0.000000000              -0.500000000               0.250000000               0.000000000              -0.117295528               0.062695766               0.000000000              -0.141214558               0.078308531               0.000000000              -0.165133587               0.093921295               0.000000000              -0.189052617               0.109534060               0.000000000              -0.212971646               0.125146824               0.000000000              -0.236890676               0.140759589               0.000000000              -0.260809705               0.156372354               0.000000000              -0.284728735               0.171985118               0.000000000              -0.308647764               0.187597883               0.000000000              -0.332566794               0.203210648               0.000000000              -0.356485823               0.218823412               0.000000000              -0.380404853               0.234436177               0.000000000              -0.404323882               0.250048941               0.000000000              -0.428242912               0.265661706               0.000000000              -0.452161941               0.281274471               0.000000000              -0.476080971               0.296887235               0.000000000              -0.500000000               0.312500000               0.000000000              -0.110585458               0.073890841               0.000000000              -0.134923867               0.092710163               0.000000000              -0.159262276               0.111529486               0.000000000              -0.183600685               0.130348808               0.000000000              -0.207939094               0.149168131               0.000000000              -0.232277503               0.167987453               0.000000000              -0.256615912               0.186806776               0.000000000              -0.280954320               0.205626098               0.000000000              -0.305292729               0.224445420               0.000000000              -0.329631138               0.243264743               0.000000000              -0.353969547               0.262084065               0.000000000              -0.378307956               0.280903388               0.000000000              -0.402646365               0.299722710               0.000000000              -0.426984773               0.318542033               0.000000000              -0.451323182               0.337361355               0.000000000              -0.475661591               0.356180678               0.000000000              -0.500000000               0.375000000               0.000000000              -0.102810390               0.084374307               0.000000000              -0.127634741               0.106444663               0.000000000              -0.152459092               0.128515018               0.000000000              -0.177283442               0.150585374               0.000000000              -0.202107793               0.172655730               0.000000000              -0.226932143               0.194726086               0.000000000              -0.251756494               0.216796442               0.000000000              -0.276580845               0.238866798               0.000000000              -0.301405195               0.260937153               0.000000000              -0.326229546               0.283007509               0.000000000              -0.351053896               0.305077865               0.000000000              -0.375878247               0.327148221               0.000000000              -0.400702598               0.349218577               0.000000000              -0.425526948               0.371288933               0.000000000              -0.450351299               0.393359288               0.000000000              -0.475175649               0.415429644               0.000000000              -0.500000000               0.437500000               0.000000000              -0.094045202               0.094045202               0.000000000              -0.119417377               0.119417377               0.000000000              -0.144789552               0.144789552               0.000000000              -0.170161727               0.170161727               0.000000000              -0.195533901               0.195533901               0.000000000              -0.220906076               0.220906076               0.000000000              -0.246278251               0.246278251               0.000000000              -0.271650426               0.271650426               0.000000000              -0.297022601               0.297022601               0.000000000              -0.322394776               0.322394776               0.000000000              -0.347766951               0.347766951               0.000000000              -0.373139126               0.373139126               0.000000000              -0.398511300               0.398511300               0.000000000              -0.423883475               0.423883475               0.000000000              -0.449255650               0.449255650               0.000000000              -0.474627825               0.474627825               0.000000000              -0.500000000               0.500000000               0.000000000              -0.084374307               0.102810390               0.000000000              -0.106444663               0.127634741               0.000000000              -0.128515018               0.152459092               0.000000000              -0.150585374               0.177283442               0.000000000              -0.172655730               0.202107793               0.000000000              -0.194726086               0.226932143               0.000000000              -0.216796442               0.251756494               0.000000000              -0.238866798               0.276580845               0.000000000              -0.260937153               0.301405195               0.000000000              -0.283007509               0.326229546               0.000000000              -0.305077865               0.351053896               0.000000000              -0.327148221               0.375878247               0.000000000              -0.349218577               0.400702598               0.000000000              -0.371288933               0.425526948               0.000000000              -0.393359288               0.450351299               0.000000000              -0.415429644               0.475175649               0.000000000              -0.437500000               0.500000000               0.000000000              -0.073890841               0.110585458               0.000000000              -0.092710163               0.134923867               0.000000000              -0.111529486               0.159262276               0.000000000              -0.130348808               0.183600685               0.000000000              -0.149168131               0.207939094               0.000000000              -0.167987453               0.232277503               0.000000000              -0.186806776               0.256615912               0.000000000              -0.205626098               0.280954320               0.000000000              -0.224445420               0.305292729               0.000000000              -0.243264743               0.329631138               0.000000000              -0.262084065               0.353969547               0.000000000              -0.280903388               0.378307956               0.000000000              -0.299722710               0.402646365               0.000000000              -0.318542033               0.426984773               0.000000000              -0.337361355               0.451323182               0.000000000              -0.356180678               0.475661591               0.000000000              -0.375000000               0.500000000               0.000000000              -0.062695766               0.117295528               0.000000000              -0.078308531               0.141214558               0.000000000              -0.093921295               0.165133587               0.000000000              -0.109534060               0.189052617               0.000000000              -0.125146824               0.212971646               0.000000000              -0.140759589               0.236890676               0.000000000              -0.156372354               0.260809705               0.000000000              -0.171985118               0.284728735               0.000000000              -0.187597883               0.308647764               0.000000000              -0.203210648               0.332566794               0.000000000              -0.218823412               0.356485823               0.000000000              -0.234436177               0.380404853               0.000000000              -0.250048941               0.404323882               0.000000000              -0.265661706               0.428242912               0.000000000              -0.281274471               0.452161941               0.000000000              -0.296887235               0.476080971               0.000000000              -0.312500000               0.500000000               0.000000000              -0.050896897               0.122875978               0.000000000              -0.063340840               0.146446229               0.000000000              -0.075784784               0.170016481               0.000000000              -0.088228728               0.193586732               0.000000000              -0.100672672               0.217156983               0.000000000              -0.113116616               0.240727235               0.000000000              -0.125560560               0.264297486               0.000000000              -0.138004504               0.287867738               0.000000000              -0.150448448               0.311437989               0.000000000              -0.162892392               0.335008240               0.000000000              -0.175336336               0.358578492               0.000000000              -0.187780280               0.382148743               0.000000000              -0.200224224               0.405718994               0.000000000              -0.212668168               0.429289246               0.000000000              -0.225112112               0.452859497               0.000000000              -0.237556056               0.476429749               0.000000000              -0.250000000               0.500000000               0.000000000              -0.038607862               0.127273065               0.000000000              -0.047913621               0.150568498               0.000000000              -0.057219379               0.173863932               0.000000000              -0.066525138               0.197159365               0.000000000              -0.075830897               0.220454798               0.000000000              -0.085136655               0.243750232               0.000000000              -0.094442414               0.267045665               0.000000000              -0.103748172               0.290341099               0.000000000              -0.113053931               0.313636532               0.000000000              -0.122359690               0.336931966               0.000000000              -0.131665448               0.360227399               0.000000000              -0.140971207               0.383522833               0.000000000              -0.150276966               0.406818266               0.000000000              -0.159582724               0.430113700               0.000000000              -0.168888483               0.453409133               0.000000000              -0.178194241               0.476704567               0.000000000              -0.187500000               0.500000000               0.000000000              -0.025947013               0.130444442               0.000000000              -0.032137825               0.153541665               0.000000000              -0.038328636               0.176638887               0.000000000              -0.044519448               0.199736109               0.000000000              -0.050710260               0.222833332               0.000000000              -0.056901071               0.245930554               0.000000000              -0.063091883               0.269027776               0.000000000              -0.069282695               0.292124999               0.000000000              -0.075473506               0.315222221               0.000000000              -0.081664318               0.338319444               0.000000000              -0.087855130               0.361416666               0.000000000              -0.094045942               0.384513888               0.000000000              -0.100236753               0.407611111               0.000000000              -0.106427565               0.430708333               0.000000000              -0.112618377               0.453805555               0.000000000              -0.118809188               0.476902778               0.000000000              -0.125000000               0.500000000               0.000000000              -0.013036280               0.132359569               0.000000000              -0.016127762               0.155337096               0.000000000              -0.019219245               0.178314623               0.000000000              -0.022310727               0.201292150               0.000000000              -0.025402210               0.224269676               0.000000000              -0.028493692               0.247247203               0.000000000              -0.031585175               0.270224730               0.000000000              -0.034676657               0.293202257               0.000000000              -0.037768140               0.316179784               0.000000000              -0.040859622               0.339157311               0.000000000              -0.043951105               0.362134838               0.000000000              -0.047042587               0.385112365               0.000000000              -0.050134070               0.408089892               0.000000000              -0.053225552               0.431067419               0.000000000              -0.056317035               0.454044946               0.000000000              -0.059408517               0.477022473               0.000000000              -0.062500000               0.500000000               0.000000000               0.000000000               0.133000000               0.000000000               0.000000000               0.155937500               0.000000000               0.000000000               0.178875000               0.000000000               0.000000000               0.201812500               0.000000000               0.000000000               0.224750000               0.000000000               0.000000000               0.247687500               0.000000000               0.000000000               0.270625000               0.000000000               0.000000000               0.293562500               0.000000000               0.000000000               0.316500000               0.000000000               0.000000000               0.339437500               0.000000000               0.000000000               0.362375000               0.000000000               0.000000000               0.385312500               0.000000000               0.000000000               0.408250000               0.000000000               0.000000000               0.431187500               0.000000000               0.000000000               0.454125000               0.000000000               0.000000000               0.477062500               0.000000000               0.000000000               0.500000000               0.000000000 </DataArray>
</Points>
<Cells>
<DataArray type="Int32"                                    Name="connectivity"                                                      NumberOfComponents=" 1" format="ascii">
         0          1         18         17          1          2         19         18          2          3         20         19          3          4         21         20          4          5         22         21          5          6         23         22          6          7         24         23          7          8         25         24          8          9         26         25          9         10         27         26         10         11         28         27         11         12         29         28         12         13         30         29         13         14         31         30         14         15         32         31         15         16         33         32         17         18         35         34         18         19         36         35         19         20         37         36         20         21         38         37         21         22         39         38         22         23         40         39         23         24         41         40         24         25         42         41         25         26         43         42         26         27         44         43         27         28         45         44         28         29         46         45         29         30         47         46         30         31         48         47         31         32         49         48         32         33         50         49         34         35         52         51         35         36         53         52         36         37         54         53         37         38         55         54         38         39         56         55         39         40         57         56         40         41         58         57         41         42         59         58         42         43         60         59         43         44         61         60         44         45         62         61         45         46         63         62         46         47         64         63         47         48         65         64         48         49         66         65         49         50         67         66         51         52         69         68         52         53         70         69         53         54         71         70         54         55         72         71         55         56         73         72         56         57         74         73         57         58         75         74         58         59         76         75         59         60         77         76         60         61         78         77         61         62         79         78         62         63         80         79         63         64         81         80         64         65         82         81         65         66         83         82         66         67         84         83         68         69         86         85         69         70         87         86         70         71         88         87         71         72         89         88         72         73         90         89         73         74         91         90         74         75         92         91         75         76         93         92         76         77         94         93         77         78         95         94         78         79         96         95         79         80         97         96         80         81         98         97         81         82         99         98         82         83        100         99         83         84        101        100         85         86        103        102         86         87        104        103         87         88        105        104         88         89        106        105         89         90        107        106         90         91        108        107         91         92        109        108         92         93        110        109         93         94        111        110         94         95        112        111         95         96        113        112         96         97        114        113         97         98        115        114         98         99        116        115         99        100        117        116        100        101        118        117        102        103        120        119        103        104        121        120        104        105        122        121        105        106        123        122        106        107        124        123        107        108        125        124        108        109        126        125        109        110        127        126        110        111        128        127        111        112        129        128        112        113        130        129        113        114        131        130        114        115        132        131        115        116        133        132        116        117        134        133        117        118        135        134        119        120        137        136        120        121        138        137        121        122        139        138        122        123        140        139        123        124        141        140        124        125        142        141        125        126        143        142        126        127        144        143        127        128        145        144        128        129        146        145        129        130        147        146        130        131        148        147        131        132        149        148        132        133        150        149        133        134        151        150        134        135        152        151        136        137        154        153        137        138        155        154        138        139        156        155        139        140        157        156        140        141        158        157        141        142        159        158        142        143        160        159        143        144        161        160        144        145        162        161        145        146        163        162        146        147        164        163        147        148        165        164        148        149        166        165        149        150        167        166        150        151        168        167        151        152        169        168        153        154        171        170        154        155        172        171        155        156        173        172        156        157        174        173        157        158        175        174        158        159        176        175        159        160        177        176        160        161        178        177        161        162        179        178        162        163        180        179        163        164        181        180        164        165        182        181        165        166        183        182        166        167        184        183        167        168        185        184        168        169        186        185        170        171        188        187        171        172        189        188        172        173        190        189        173        174        191        190        174        175        192        191        175        176        193        192        176        177        194        193        177        178        195        194        178        179        196        195        179        180        197        196        180        181        198        197        181        182        199        198        182        183        200        199        183        184        201        200        184        185        202        201        185        186        203        202        187        188        205        204        188        189        206        205        189        190        207        206        190        191        208        207        191        192        209        208        192        193        210        209        193        194        211        210        194        195        212        211        195        196        213        212        196        197        214        213        197        198        215        214        198        199        216        215        199        200        217        216        200        201        218        217        201        202        219        218        202        203        220        219        204        205        222        221        205        206        223        222        206        207        224        223        207        208        225        224        208        209        226        225        209        210        227        226        210        211        228        227        211        212        229        228        212        213        230        229        213        214        231        230        214        215        232        231        215        216        233        232        216        217        234        233        217        218        235        234        218        219        236        235        219        220        237        236        221        222        239        238        222        223        240        239        223        224        241        240        224        225        242        241        225        226        243        242        226        227        244        243        227        228        245        244        228        229        246        245        229        230        247        246        230        231        248        247        231        232        249        248        232        233        250        249        233        234        251        250        234        235        252        251        235        236        253        252        236        237        254        253        238        239        256        255        239        240        257        256        240        241        258        257        241        242        259        258        242        243        260        259        243        244        261        260        244        245        262        261        245        246        263        262        246        247        264        263        247        248        265        264        248        249        266        265        249        250        267        266        250        251        268        267        251        252        269        268        252        253        270        269        253        254        271        270        255        256        273        272        256        257        274        273        257        258        275        274        258        259        276        275        259        260        277        276        260        261        278        277        261        262        279        278        262        263        280        279        263        264        281        280        264        265        282        281        265        266        283        282        266        267        284        283        267        268        285        284        268        269        286        285        269        270        287        286        270        271        288        287        306        307          1          0        307        308          2          1        308        309          3          2        309        310          4          3        310        311          5          4        311        312          6          5        312        313          7          6        313        314          8          7        314        315          9          8        315        316         10          9        316        317         11         10        317        318         12         11        318        319         13         12        319        320         14         13        320        321         15         14        321        322         16         15        323        324        307        306        324        325        308        307        325        326        309        308        326        327        310        309        327        328        311        310        328        329        312        311        329        330        313        312        330        331        314        313        331        332        315        314        332        333        316        315        333        334        317        316        334        335        318        317        335        336        319        318        336        337        320        319        337        338        321        320        338        339        322        321        340        341        324        323        341        342        325        324        342        343        326        325        343        344        327        326        344        345        328        327        345        346        329        328        346        347        330        329        347        348        331        330        348        349        332        331        349        350        333        332        350        351        334        333        351        352        335        334        352        353        336        335        353        354        337        336        354        355        338        337        355        356        339        338        357        358        341        340        358        359        342        341        359        360        343        342        360        361        344        343        361        362        345        344        362        363        346        345        363        364        347        346        364        365        348        347        365        366        349        348        366        367        350        349        367        368        351        350        368        369        352        351        369        370        353        352        370        371        354        353        371        372        355        354        372        373        356        355        374        375        358        357        375        376        359        358        376        377        360        359        377        378        361        360        378        379        362        361        379        380        363        362        380        381        364        363        381        382        365        364        382        383        366        365        383        384        367        366        384        385        368        367        385        386        369        368        386        387        370        369        387        388        371        370        388        389        372        371        389        390        373        372        391        392        375        374        392        393        376        375        393        394        377        376        394        395        378        377        395        396        379        378        396        397        380        379        397        398        381        380        398        399        382        381        399        400        383        382        400        401        384        383        401        402        385        384        402        403        386        385        403        404        387        386        404        405        388        387        405        406        389        388        406        407        390        389        408        409        392        391        409        410        393        392        410        411        394        393        411        412        395        394        412        413        396        395        413        414        397        396        414        415        398        397        415        416        399        398        416        417        400        399        417        418        401        400        418        419        402        401        419        420        403        402        420        421        404        403        421        422        405        404        422        423        406        405        423        424        407        406        425        426        409        408        426        427        410        409        427        428        411        410        428        429        412        411        429        430        413        412        430        431        414        413        431        432        415        414        432        433        416        415        433        434        417        416        434        435        418        417        435        436        419        418        436        437        420        419        437        438        421        420        438        439        422        421        439        440        423        422        440        441        424        423        442        443        426        425        443        444        427        426        444        445        428        427        445        446        429        428        446        447        430        429        447        448        431        430        448        449        432        431        449        450        433        432        450        451        434        433        451        452        435        434        452        453        436        435        453        454        437        436        454        455        438        437        455        456        439        438        456        457        440        439        457        458        441        440        459        460        443        442        460        461        444        443        461        462        445        444        462        463        446        445        463        464        447        446        464        465        448        447        465        466        449        448        466        467        450        449        467        468        451        450        468        469        452        451        469        470        453        452        470        471        454        453        471        472        455        454        472        473        456        455        473        474        457        456        474        475        458        457        476        477        460        459        477        478        461        460        478        479        462        461        479        480        463        462        480        481        464        463        481        482        465        464        482        483        466        465        483        484        467        466        484        485        468        467        485        486        469        468        486        487        470        469        487        488        471        470        488        489        472        471        489        490        473        472        490        491        474        473        491        492        475        474        493        494        477        476        494        495        478        477        495        496        479        478        496        497        480        479        497        498        481        480        498        499        482        481        499        500        483        482        500        501        484        483        501        502        485        484        502        503        486        485        503        504        487        486        504        505        488        487        505        506        489        488        506        507        490        489        507        508        491        490        508        509        492        491        510        511        494        493        511        512        495        494        512        513        496        495        513        514        497        496        514        515        498        497        515        516        499        498        516        517        500        499        517        518        501        500        518        519        502        501        519        520        503        502        520        521        504        503        521        522        505        504        522        523        506        505        523        524        507        506        524        525        508        507        525        526        509        508        527        528        511        510        528        529        512        511        529        530        513        512        530        531        514        513        531        532        515        514        532        533        516        515        533        534        517        516        534        535        518        517        535        536        519        518        536        537        520        519        537        538        521        520        538        539        522        521        539        540        523        522        540        541        524        523        541        542        525        524        542        543        526        525        544        545        528        527        545        546        529        528        546        547        530        529        547        548        531        530        548        549        532        531        549        550        533        532        550        551        534        533        551        552        535        534        552        553        536        535        553        554        537        536        554        555        538        537        555        556        539        538        556        557        540        539        557        558        541        540        558        559        542        541        559        560        543        542        561        562        545        544        562        563        546        545        563        564        547        546        564        565        548        547        565        566        549        548        566        567        550        549        567        568        551        550        568        569        552        551        569        570        553        552        570        571        554        553        571        572        555        554        572        573        556        555        573        574        557        556        574        575        558        557        575        576        559        558        576        577        560        559        578        579        596        595        579        580        597        596        580        581        598        597        581        582        599        598        582        583        600        599        583        584        601        600        584        585        602        601        585        586        603        602        586        587        604        603        587        588        605        604        588        589        606        605        589        590        607        606        590        591        608        607        591        592        609        608        592        593        610        609        593        594        611        610        595        596        613        612        596        597        614        613        597        598        615        614        598        599        616        615        599        600        617        616        600        601        618        617        601        602        619        618        602        603        620        619        603        604        621        620        604        605        622        621        605        606        623        622        606        607        624        623        607        608        625        624        608        609        626        625        609        610        627        626        610        611        628        627        612        613        630        629        613        614        631        630        614        615        632        631        615        616        633        632        616        617        634        633        617        618        635        634        618        619        636        635        619        620        637        636        620        621        638        637        621        622        639        638        622        623        640        639        623        624        641        640        624        625        642        641        625        626        643        642        626        627        644        643        627        628        645        644        629        630        647        646        630        631        648        647        631        632        649        648        632        633        650        649        633        634        651        650        634        635        652        651        635        636        653        652        636        637        654        653        637        638        655        654        638        639        656        655        639        640        657        656        640        641        658        657        641        642        659        658        642        643        660        659        643        644        661        660        644        645        662        661        646        647        664        663        647        648        665        664        648        649        666        665        649        650        667        666        650        651        668        667        651        652        669        668        652        653        670        669        653        654        671        670        654        655        672        671        655        656        673        672        656        657        674        673        657        658        675        674        658        659        676        675        659        660        677        676        660        661        678        677        661        662        679        678        663        664        681        680        664        665        682        681        665        666        683        682        666        667        684        683        667        668        685        684        668        669        686        685        669        670        687        686        670        671        688        687        671        672        689        688        672        673        690        689        673        674        691        690        674        675        692        691        675        676        693        692        676        677        694        693        677        678        695        694        678        679        696        695        680        681        698        697        681        682        699        698        682        683        700        699        683        684        701        700        684        685        702        701        685        686        703        702        686        687        704        703        687        688        705        704        688        689        706        705        689        690        707        706        690        691        708        707        691        692        709        708        692        693        710        709        693        694        711        710        694        695        712        711        695        696        713        712        697        698        715        714        698        699        716        715        699        700        717        716        700        701        718        717        701        702        719        718        702        703        720        719        703        704        721        720        704        705        722        721        705        706        723        722        706        707        724        723        707        708        725        724        708        709        726        725        709        710        727        726        710        711        728        727        711        712        729        728        712        713        730        729        714        715        732        731        715        716        733        732        716        717        734        733        717        718        735        734        718        719        736        735        719        720        737        736        720        721        738        737        721        722        739        738        722        723        740        739        723        724        741        740        724        725        742        741        725        726        743        742        726        727        744        743        727        728        745        744        728        729        746        745        729        730        747        746        731        732        749        748        732        733        750        749        733        734        751        750        734        735        752        751        735        736        753        752        736        737        754        753        737        738        755        754        738        739        756        755        739        740        757        756        740        741        758        757        741        742        759        758        742        743        760        759        743        744        761        760        744        745        762        761        745        746        763        762        746        747        764        763        748        749        766        765        749        750        767        766        750        751        768        767        751        752        769        768        752        753        770        769        753        754        771        770        754        755        772        771        755        756        773        772        756        757        774        773        757        758        775        774        758        759        776        775        759        760        777        776        760        761        778        777        761        762        779        778        762        763        780        779        763        764        781        780        765        766        783        782        766        767        784        783        767        768        785        784        768        769        786        785        769        770        787        786        770        771        788        787        771        772        789        788        772        773        790        789        773        774        791        790        774        775        792        791        775        776        793        792        776        777        794        793        777        778        795        794        778        779        796        795        779        780        797        796        780        781        798        797        782        783        800        799        783        784        801        800        784        785        802        801        785        786        803        802        786        787        804        803        787        788        805        804        788        789        806        805        789        790        807        806        790        791        808        807        791        792        809        808        792        793        810        809        793        794        811        810        794        795        812        811        795        796        813        812        796        797        814        813        797        798        815        814        799        800        817        816        800        801        818        817        801        802        819        818        802        803        820        819        803        804        821        820        804        805        822        821        805        806        823        822        806        807        824        823        807        808        825        824        808        809        826        825        809        810        827        826        810        811        828        827        811        812        829        828        812        813        830        829        813        814        831        830        814        815        832        831        816        817        834        833        817        818        835        834        818        819        836        835        819        820        837        836        820        821        838        837        821        822        839        838        822        823        840        839        823        824        841        840        824        825        842        841        825        826        843        842        826        827        844        843        827        828        845        844        828        829        846        845        829        830        847        846        830        831        848        847        831        832        849        848        833        834        562        561        834        835        563        562        835        836        564        563        836        837        565        564        837        838        566        565        838        839        567        566        839        840        568        567        840        841        569        568        841        842        570        569        842        843        571        570        843        844        572        571        844        845        573        572        845        846        574        573        846        847        575        574        847        848        576        575        848        849        577        576        884        885        579        578        885        886        580        579        886        887        581        580        887        888        582        581        888        889        583        582        889        890        584        583        890        891        585        584        891        892        586        585        892        893        587        586        893        894        588        587        894        895        589        588        895        896        590        589        896        897        591        590        897        898        592        591        898        899        593        592        899        900        594        593        901        902        885        884        902        903        886        885        903        904        887        886        904        905        888        887        905        906        889        888        906        907        890        889        907        908        891        890        908        909        892        891        909        910        893        892        910        911        894        893        911        912        895        894        912        913        896        895        913        914        897        896        914        915        898        897        915        916        899        898        916        917        900        899        918        919        902        901        919        920        903        902        920        921        904        903        921        922        905        904        922        923        906        905        923        924        907        906        924        925        908        907        925        926        909        908        926        927        910        909        927        928        911        910        928        929        912        911        929        930        913        912        930        931        914        913        931        932        915        914        932        933        916        915        933        934        917        916        935        936        919        918        936        937        920        919        937        938        921        920        938        939        922        921        939        940        923        922        940        941        924        923        941        942        925        924        942        943        926        925        943        944        927        926        944        945        928        927        945        946        929        928        946        947        930        929        947        948        931        930        948        949        932        931        949        950        933        932        950        951        934        933        952        953        936        935        953        954        937        936        954        955        938        937        955        956        939        938        956        957        940        939        957        958        941        940        958        959        942        941        959        960        943        942        960        961        944        943        961        962        945        944        962        963        946        945        963        964        947        946        964        965        948        947        965        966        949        948        966        967        950        949        967        968        951        950        969        970        953        952        970        971        954        953        971        972        955        954        972        973        956        955        973        974        957        956        974        975        958        957        975        976        959        958        976        977        960        959        977        978        961        960        978        979        962        961        979        980        963        962        980        981        964        963        981        982        965        964        982        983        966        965        983        984        967        966        984        985        968        967        986        987        970        969        987        988        971        970        988        989        972        971        989        990        973        972        990        991        974        973        991        992        975        974        992        993        976        975        993        994        977        976        994        995        978        977        995        996        979        978        996        997        980        979        997        998        981        980        998        999        982        981        999       1000        983        982       1000       1001        984        983       1001       1002        985        984       1003       1004        987        986       1004       1005        988        987       1005       1006        989        988       1006       1007        990        989       1007       1008        991        990       1008       1009        992        991       1009       1010        993        992       1010       1011        994        993       1011       1012        995        994       1012       1013        996        995       1013       1014        997        996       1014       1015        998        997       1015       1016        999        998       1016       1017       1000        999       1017       1018       1001       1000       1018       1019       1002       1001       1020       1021       1004       1003       1021       1022       1005       1004       1022       1023       1006       1005       1023       1024       1007       1006       1024       1025       1008       1007       1025       1026       1009       1008       1026       1027       1010       1009       1027       1028       1011       1010       1028       1029       1012       1011       1029       1030       1013       1012       1030       1031       1014       1013       1031       1032       1015       1014       1032       1033       1016       1015       1033       1034       1017       1016       1034       1035       1018       1017       1035       1036       1019       1018       1037       1038       1021       1020       1038       1039       1022       1021       1039       1040       1023       1022       1040       1041       1024       1023       1041       1042       1025       1024       1042       1043       1026       1025       1043       1044       1027       1026       1044       1045       1028       1027       1045       1046       1029       1028       1046       1047       1030       1029       1047       1048       1031       1030       1048       1049       1032       1031       1049       1050       1033       1032       1050       1051       1034       1033       1051       1052       1035       1034       1052       1053       1036       1035       1054       1055       1038       1037       1055       1056       1039       1038       1056       1057       1040       1039       1057       1058       1041       1040       1058       1059       1042       1041       1059       1060       1043       1042       1060       1061       1044       1043       1061       1062       1045       1044       1062       1063       1046       1045       1063       1064       1047       1046       1064       1065       1048       1047       1065       1066       1049       1048       1066       1067       1050       1049       1067       1068       1051       1050       1068       1069       1052       1051       1069       1070       1053       1052       1071       1072       1055       1054       1072       1073       1056       1055       1073       1074       1057       1056       1074       1075       1058       1057       1075       1076       1059       1058       1076       1077       1060       1059       1077       1078       1061       1060       1078       1079       1062       1061       1079       1080       1063       1062       1080       1081       1064       1063       1081       1082       1065       1064       1082       1083       1066       1065       1083       1084       1067       1066       1084       1085       1068       1067       1085       1086       1069       1068       1086       1087       1070       1069       1088       1089       1072       1071       1089       1090       1073       1072       1090       1091       1074       1073       1091       1092       1075       1074       1092       1093       1076       1075       1093       1094       1077       1076       1094       1095       1078       1077       1095       1096       1079       1078       1096       1097       1080       1079       1097       1098       1081       1080       1098       1099       1082       1081       1099       1100       1083       1082       1100       1101       1084       1083       1101       1102       1085       1084       1102       1103       1086       1085       1103       1104       1087       1086       1105       1106       1089       1088       1106       1107       1090       1089       1107       1108       1091       1090       1108       1109       1092       1091       1109       1110       1093       1092       1110       1111       1094       1093       1111       1112       1095       1094       1112       1113       1096       1095       1113       1114       1097       1096       1114       1115       1098       1097       1115       1116       1099       1098       1116       1117       1100       1099       1117       1118       1101       1100       1118       1119       1102       1101       1119       1120       1103       1102       1120       1121       1104       1103       1122       1123       1106       1105       1123       1124       1107       1106       1124       1125       1108       1107       1125       1126       1109       1108       1126       1127       1110       1109       1127       1128       1111       1110       1128       1129       1112       1111       1129       1130       1113       1112       1130       1131       1114       1113       1131       1132       1115       1114       1132       1133       1116       1115       1133       1134       1117       1116       1134       1135       1118       1117       1135       1136       1119       1118       1136       1137       1120       1119       1137       1138       1121       1120        272        273       1123       1122        273        274       1124       1123        274        275       1125       1124        275        276       1126       1125        276        277       1127       1126        277        278       1128       1127        278        279       1129       1128        279        280       1130       1129        280        281       1131       1130        281        282       1132       1131        282        283       1133       1132        283        284       1134       1133        284        285       1135       1134        285        286       1136       1135        286        287       1137       1136        287        288       1138       1137 </DataArray>
<DataArray type="Int32"                                    Name="offsets"                                                      NumberOfComponents=" 1" format="ascii">
         4          8         12         16         20         24         28         32         36         40         44         48         52         56         60         64         68         72         76         80         84         88         92         96        100        104        108        112        116        120        124        128        132        136        140        144        148        152        156        160        164        168        172        176        180        184        188        192        196        200        204        208        212        216        220        224        228        232        236        240        244        248        252        256        260        264        268        272        276        280        284        288        292        296        300        304        308        312        316        320        324        328        332        336        340        344        348        352        356        360        364        368        372        376        380        384        388        392        396        400        404        408        412        416        420        424        428        432        436        440        444        448        452        456        460        464        468        472        476        480        484        488        492        496        500        504        508        512        516        520        524        528        532        536        540        544        548        552        556        560        564        568        572        576        580        584        588        592        596        600        604        608        612        616        620        624        628        632        636        640        644        648        652        656        660        664        668        672        676        680        684        688        692        696        700        704        708        712        716        720        724        728        732        736        740        744        748        752        756        760        764        768        772        776        780        784        788        792        796        800        804        808        812        816        820        824        828        832        836        840        844        848        852        856        860        864        868        872        876        880        884        888        892        896        900        904        908        912        916        920        924        928        932        936        940        944        948        952        956        960        964        968        972        976        980        984        988        992        996       1000       1004       1008       1012       1016       1020       1024       1028       1032       1036       1040       1044       1048       1052       1056       1060       1064       1068       1072       1076       1080       1084       1088       1092       1096       1100       1104       1108       1112       1116       1120       1124       1128       1132       1136       1140       1144       1148       1152       1156       1160       1164       1168       1172       1176       1180       1184       1188       1192       1196       1200       1204       1208       1212       1216       1220       1224       1228       1232       1236       1240       1244       1248       1252       1256       1260       1264       1268       1272       1276       1280       1284       1288       1292       1296       1300       1304       1308       1312       1316       1320       1324       1328       1332       1336       1340       1344       1348       1352       1356       1360       1364       1368       1372       1376       1380       1384       1388       1392       1396       1400       1404       1408       1412       1416       1420       1424       1428       1432       1436       1440       1444       1448       1452       1456       1460       1464       1468       1472       1476       1480       1484       1488       1492       1496       1500       1504       1508       1512       1516       1520       1524       1528       1532       1536       1540       1544       1548       1552       1556       1560       1564       1568       1572       1576       1580       1584       1588       1592       1596       1600       1604       1608       1612       1616       1620       1624       1628       1632       1636       1640       1644       1648       1652       1656       1660       1664       1668       1672       1676       1680       1684       1688       1692       1696       1700       1704       1708       1712       1716       1720       1724       1728       1732       1736       1740       1744       1748       1752       1756       1760       1764       1768       1772       1776       1780       1784       1788       1792       1796       1800       1804       1808       1812       1816       1820       1824       1828       1832       1836       1840       1844       1848       1852       1856       1860       1864       1868       1872       1876       1880       1884       1888       1892       1896       1900       1904       1908       1912       1916       1920       1924       1928       1932       1936       1940       1944       1948       1952       1956       1960       1964       1968       1972       1976       1980       1984       1988       1992       1996       2000       2004       2008       2012       2016       2020       2024       2028       2032       2036       2040       2044       2048       2052       2056       2060       2064       2068       2072       2076       2080       2084       2088       2092       2096       2100       2104       2108       2112       2116       2120       2124       2128       2132       2136       2140       2144       2148       2152       2156       2160       2164       2168       2172       2176       2180       2184       2188       2192       2196       2200       2204       2208       2212       2216       2220       2224       2228       2232       2236       2240       2244       2248       2252       2256       2260       2264       2268       2272       2276       2280       2284       2288       2292       2296       2300       2304       2308       2312       2316       2320       2324       2328       2332       2336       2340       2344       2348       2352       2356       2360       2364       2368       2372       2376       2380       2384       2388       2392       2396       2400       2404       2408       2412       2416       2420       2424       2428       2432       2436       2440       2444       2448       2452       2456       2460       2464       2468       2472       2476       2480       2484       2488       2492       2496       2500       2504       2508       2512       2516       2520       2524       2528       2532       2536       2540       2544       2548       2552       2556       2560       2564       2568       2572       2576       2580       2584       2588       2592       2596       2600       2604       2608       2612       2616       2620       2624       2628       2632       2636       2640       2644       2648       2652       2656       2660       2664       2668       2672       2676       2680       2684       2688       2692       2696       2700       2704       2708       2712       2716       2720       2724       2728       2732       2736       2740       2744       2748       2752       2756       2760       2764       2768       2772       2776       2780       2784       2788       2792       2796       2800       2804       2808       2812       2816       2820       2824       2828       2832       2836       2840       2844       2848       2852       2856       2860       2864       2868       2872       2876       2880       2884       2888       2892       2896       2900       2904       2908       2912       2916       2920       2924       2928       2932       2936       2940       2944       2948       2952       2956       2960       2964       2968       2972       2976       2980       2984       2988       2992       2996       3000       3004       3008       3012       3016       3020       3024       3028       3032       3036       3040       3044       3048       3052       3056       3060       3064       3068       3072       3076       3080       3084       3088       3092       3096       3100       3104       3108       3112       3116       3120       3124       3128       3132       3136       3140       3144       3148       3152       3156       3160       3164       3168       3172       3176       3180       3184       3188       3192       3196       3200       3204       3208       3212       3216       3220       3224       3228       3232       3236       3240       3244       3248       3252       3256       3260       3264       3268       3272       3276       3280       3284       3288       3292       3296       3300       3304       3308       3312       3316       3320       3324       3328       3332       3336       3340       3344       3348       3352       3356       3360       3364       3368       3372       3376       3380       3384       3388       3392       3396       3400       3404       3408       3412       3416       3420       3424       3428       3432       3436       3440       3444       3448       3452       3456       3460       3464       3468       3472       3476       3480       3484       3488       3492       3496       3500       3504       3508       3512       3516       3520       3524       3528       3532       3536       3540       3544       3548       3552       3556       3560       3564       3568       3572       3576       3580       3584       3588       3592       3596       3600       3604       3608       3612       3616       3620       3624       3628       3632       3636       3640       3644       3648       3652       3656       3660       3664       3668       3672       3676       3680       3684       3688       3692       3696       3700       3704       3708       3712       3716       3720       3724       3728       3732       3736       3740       3744       3748       3752       3756       3760       3764       3768       3772       3776       3780       3784       3788       3792       3796       3800       3804       3808       3812       3816       3820       3824       3828       3832       3836       3840       3844       3848       3852       3856       3860       3864       3868       3872       3876       3880       3884       3888       3892       3896       3900       3904       3908       3912       3916       3920       3924       3928       3932       3936       3940       3944       3948       3952       3956       3960       3964       3968       3972       3976       3980       3984       3988       3992       3996       4000       4004       4008       4012       4016       4020       4024       4028       4032       4036       4040       4044       4048       4052       4056       4060       4064       4068       4072       4076       4080       4084       4088       4092       4096 </DataArray>
<DataArray type="UInt8"                                    Name="types"                                                      NumberOfComponents=" 1" format="ascii">
         9          9          9          9          9          9          9          9          9          9          9          9          9          9          9          9          9          9          9          9          9          9          9          9          9          9          9          9          9          9          9          9          9          9          9          9          9          9          9          9          9          9          9          9          9          9          9          9          9          9          9          9          9          9          9          9          9          9          9          9          9          9          9          9          9          9          9          9          9          9          9          9          9          9          9          9          9          9          9          9          9          9          9          9          9          9          9          9          9          9          9          9          9          9          9          9          9          9          9          9          9          9          9          9          9          9          9          9          9          9          9          9          9          9          9          9          9          9          9          9          9          9          9          9          9          9          9          9          9          9          9          9          9          9          9          9          9          9          9          9          9          9          9          9          9          9          9          9          9          9          9          9          9          9          9          9          9          9          9          9          9          9          9          9          9          9          9          9          9          9          9          9          9          9          9          9          9          9          9          9          9          9          9          9          9          9          9          9          9          9          9          9          9          9          9          9          9          9          9          9          9          9          9          9          9          9          9          9          9          9          9          9          9          9          9          9          9          9          9          9          9          9          9          9          9          9          9          9          9          9          9          9          9          9          9          9          9          9          9          9          9          9          9          9          9          9          9          9          9          9          9          9          9          9          9          9          9          9          9          9          9          9          9          9          9          9          9          9          9          9          9          9          9          9          9          9          9          9          9          9          9          9          9          9          9          9          9          9          9          9          9          9          9          9          9          9          9          9          9          9          9          9          9          9          9          9          9          9          9          9          9          9          9          9          9          9          9          9          9          9          9          9          9          9          9          9          9          9          9          9          9          9          9          9          9          9          9          9          9          9          9          9          9          9          9          9          9          9          9          9          9          9          9          9          9          9          9          9          9          9          9          9          9          9          9          9          9          9          9          9          9          9          9          9          9          9          9          9          9          9          9          9          9          9          9          9          9          9          9          9          9          9          9          9          9          9          9          9          9          9          9          9          9          9          9          9          9          9          9          9          9          9          9          9          9          9          9          9          9          9          9          9          9          9          9          9          9          9          9          9          9          9          9          9          9          9          9          9          9          9          9          9          9          9          9          9          9          9          9          9          9          9          9          9          9          9          9          9          9          9          9          9          9          9          9          9          9          9          9          9          9          9          9          9          9          9          9          9          9          9          9          9          9          9          9          9          9          9          9          9          9          9          9          9          9          9          9          9          9          9          9          9          9          9          9          9          9          9          9          9          9          9          9          9          9          9          9          9          9          9          9          9          9          9          9          9          9          9          9          9          9          9          9          9          9          9          9          9          9          9          9          9          9          9          9          9          9          9          9          9          9          9          9          9          9          9          9          9          9          9          9          9          9          9          9          9          9          9          9          9          9          9          9          9          9          9          9          9          9          9          9          9          9          9          9          9          9          9          9          9          9          9          9          9          9          9          9          9          9          9          9          9          9          9          9          9          9          9          9          9          9          9          9          9          9          9          9          9          9          9          9          9          9          9          9          9          9          9          9          9          9          9          9          9          9          9          9          9          9          9          9          9          9          9          9          9          9          9          9          9          9          9          9          9          9          9          9          9          9          9          9          9          9          9          9          9          9          9          9          9          9          9          9          9          9          9          9          9          9          9          9          9          9          9          9          9          9          9          9          9          9          9          9          9          9          9          9          9          9          9          9          9          9          9          9          9          9          9          9          9          9          9          9          9          9          9          9          9          9          9          9          9          9          9          9          9          9          9          9          9          9          9          9          9          9          9          9          9          9          9          9          9          9          9          9          9          9          9          9          9          9          9          9          9          9          9          9          9          9          9          9          9          9          9          9          9          9          9          9          9          9          9          9          9          9          9          9          9          9          9          9          9          9          9          9          9          9          9          9          9          9          9          9          9          9          9          9          9          9          9          9          9          9          9          9          9          9          9          9          9          9          9          9          9          9          9          9          9          9          9          9          9          9          9          9          9          9          9          9          9          9          9          9          9          9          9          9          9          9          9          9          9          9          9          9          9          9          9          9          9          9          9          9          9          9          9          9          9          9          9          9          9          9          9          9          9          9          9          9          9          9          9          9          9          9          9          9          9          9          9          9          9          9          9          9          9          9          9          9          9          9          9          9          9          9          9          9          9          9          9          9          9          9          9          9          9          9          9          9          9          9          9          9          9          9          9          9          9          9          9          9          9          9          9          9          9          9          9          9          9          9          9          9          9          9          9          9          9          9          9          9          9          9          9          9          9          9          9          9          9          9          9          9          9          9          9          9          9          9          9          9          9          9          9          9          9          9          9          9          9          9          9          9          9          9          9          9          9          9          9          9          9          9          9          9          9          9          9          9          9          9          9          9          9          9          9          9          9          9          9          9          9          9          9          9          9          9          9          9          9          9          9          9          9          9          9          9          9          9          9          9          9          9          9 </DataArray>
</Cells>
<CellData>
<DataArray type="Int32"                                    Name="material"                                                      NumberOfComponents=" 1" format="ascii">
         1          1          1          1          1          1          1          1          1          1          1          1          1          1          1          1          1          1          1          1          1          1          1          1          1          1          1          1          1          1          1          1          1          1          1          1          1          1          1          1          1          1          1          1          1          1          1          1          1          1          1          1          1          1          1          1          1          1          1          1          1          1          1          1          1          1          1          1          1          1          1          1          1          1          1          1          1          1          1          1          1          1          1          1          1          1          1          1          1          1          1          1          1          1          1          1          1          1          1          1          1          1          1          1          1          1          1          1          1          1          1          1          1          1          1          1          1          1          1          1          1          1          1          1          1          1          1          1          1          1          1          1          1          1          1          1          1          1          1          1          1          1          1          1          1          1          1          1          1          1          1          1          1          1          1          1          1          1          1          1          1          1          1          1          1          1          1          1          1          1          1          1          1          1          1          1          1          1          1          1          1          1          1          1          1          1          1          1          1          1          1          1          1          1          1          1          1          1          1          1          1          1          1          1          1          1          1          1          1          1          1          1          1          1          1          1          1          1          1          1          1          1          1          1          1          1          1          1          1          1          1          1          1          1          1          1          1          1          1          1          1          1          1          1          1          1          1          1          1          1          1          1          1          1          1          1          1          1          1          1          1          1          1          1          1          1          1          1          1          1          1          1          1          1          1          1          1          1          1          1          1          1          1          1          1          1          1          1          1          1          1          1          1          1          1          1          1          1          1          1          1          1          1          1          1          1          1          1          1          1          1          1          1          1          1          1          1          1          1          1          1          1          1          1          1          1          1          1          1          1          1          1          1          1          1          1          1          1          1          1          1          1          1          1          1          1          1          1          1          1          1          1          1          1          1          1          1          1          1          1          1          1          1          1          1          1          1          1          1          1          1          1          1          1          1          1          1          1          1          1          1          1          1          1          1          1          1          1          1          1          1          1          1          1          1          1          1          1          1          1          1          1          1          1          1          1          1          1          1          1          1          1          1          1          1          1          1          1          1          1          1          1          1          1          1          1          1          1          1          1          1          1          1          1          1          1          1          1          1          1          1          1          1          1          1          1          1          1          1          1          1          1          1          1          1          1          1          1          1          1          1          1          1          1          1          1          1          1          1          1          1          1          1          1          1          1          1          1          1          1          1          1          1          1          1          1          1          1          1          1          1          1          1          1          1          1          1          1          1          1          1          1          1          1          1          1          1          1          1          1          1          1          1          1          1          1          1          1          1          1          1          1          1          1          1          1          1          1          1          1          1          1          1          1          1          1          1          1          1          1          1          1          1          1          1          1          1          1          1          1          1          1          1          1          1          1          1          1          1          1          1          1          1          1          1          1          1          1          1          1          1          1          1          1          1          1          1          1          1          1          1          1          1          1          1          1          1          1          1          1          1          1          1          1          1          1          1          1          1          1          1          1          1          1          1          1          1          1          1          1          1          1          1          1          1          1          1          1          1          1          1          1          1          1          1          1          1          1          1          1          1          1          1          1          1          1          1          1          1          1          1          1          1          1          1          1          1          1          1          1          1          1          1          1          1          1          1          1          1          1          1          1          1          1          1          1          1          1          1          1          1          1          1          1          1          1          1          1          1          1          1          1          1          1          1          1          1          1          1          1          1          1          1          1          1          1          1          1          1          1          1          1          1          1          1          1          1          1          1          1          1          1          1          1          1          1          1          1          1          1          1          1          1          1          1          1          1          1          1          1          1          1          1          1          1          1          1          1          1          1          1          1          1          1          1          1          1          1          1          1          1          1          1          1          1          1          1          1          1          1          1          1          1          1          1          1          1          1          1          1          1          1          1          1          1          1          1          1          1          1          1          1          1          1          1          1          1          1          1          1          1          1          1          1          1          1          1          1          1          1          1          1          1          1          1          1          1          1          1          1          1          1          1          1          1          1          1          1          1          1          1          1          1          1          1          1          1          1          1          1          1          1          1          1          1          1          1          1          1          1          1          1          1          1          1          1          1          1          1          1          1          1          1          1          1          1          1          1          1          1          1          1          1          1          1          1          1          1          1          1          1          1          1          1          1          1          1          1          1          1          1          1          1          1          1          1          1          1          1          1          1          1          1          1          1          1          1          1          1          1          1          1          1          1          1          1          1          1          1          1          1          1          1          1          1          1          1          1          1          1          1          1          1          1          1          1          1          1          1          1          1          1          1          1          1          1          1          1          1          1          1          1          1          1          1          1          1          1          1          1          1          1          1          1          1          1          1          1          1          1          1          1          1          1          1          1          1          1          1          1          1          1          1          1          1          1          1          1          1          1          1          1          1          1          1          1          1          1          1          1          1          1          1          1          1          1          1          1          1          1          1          1          1          1          1          1          1          1          1          1          1          1          1          1          1          1          1          1          1          1          1          1          1          1 </DataArray>
</CellData>
<PointData>
<DataArray type="Float64"                                    Name="u"                                                      NumberOfComponents=" 3" format="ascii">
             -0.000096866               0.000000000               0.999999993              -0.000119960               0.000000000               0.999999993              -0.000130828               0.000000000               0.999999993              -0.000137060               0.000000000               0.999999993              -0.000141755               0.000000000               0.999999993              -0.000146268               0.000000000               0.999999993              -0.000151220               0.000000000               0.999999993              -0.000156897              -0.000000000               0.999999993              -0.000163449               0.000000000               0.999999993              -0.000170883               0.000000000               0.999999993              -0.000179215              -0.000000000               0.999999993              -0.000188425               0.000000000               0.999999993              -0.000198456               0.000000000               0.999999993              -0.000209268               0.000000000               0.999999993              -0.000220781               0.000000000               0.999999993              -0.000232954               0.000000000               0.999999993              -0.000245697               0.000000000               0.999999993              -0.000096291               0.000057868               0.999999993              -0.000118263               0.000050445               0.999999993              -0.000128470               0.000048129               0.999999993              -0.000134323               0.000048596               0.999999993              -0.000138790               0.000050712               0.999999993              -0.000143220               0.000054017               0.999999993              -0.000148234               0.000058111               0.999999993              -0.000154038               0.000062688               0.999999993              -0.000160688               0.000067514               0.999999993              -0.000168171               0.000072546               0.999999993              -0.000176488               0.000077753               0.999999993              -0.000185672               0.000083001               0.999999993              -0.000195672               0.000088190               0.999999993              -0.000206422               0.000093303               0.999999993              -0.000217931               0.000098209               0.999999993              -0.000230122               0.000102754               0.999999993              -0.000242879               0.000106532               0.999999993              -0.000094631               0.000115180               0.999999993              -0.000113301               0.000100366               0.999999993              -0.000121575               0.000096128               0.999999993              -0.000126427               0.000097431               0.999999993              -0.000130467               0.000101987               0.999999993              -0.000134854               0.000108800               0.999999993              -0.000140029               0.000117046               0.999999993              -0.000146066               0.000126127               0.999999993              -0.000152953               0.000135752               0.999999993              -0.000160617               0.000145827               0.999999993              -0.000169039               0.000156240               0.999999993              -0.000178262               0.000166808               0.999999993              -0.000188295               0.000177460               0.999999993              -0.000199065               0.000188079               0.999999993              -0.000210597               0.000198438               0.999999993              -0.000222827               0.000208298               0.999999993              -0.000235651               0.000217203               0.999999993              -0.000091810               0.000171377               0.999999993              -0.000105204               0.000149366               0.999999993              -0.000110719               0.000143838               0.999999993              -0.000114340               0.000146546               0.999999993              -0.000118083               0.000153958               0.999999993              -0.000122726               0.000164467               0.999999993              -0.000128395               0.000176968               0.999999993              -0.000135011               0.000190623               0.999999993              -0.000142460               0.000204982               0.999999993              -0.000150718               0.000220025               0.999999993              -0.000159732               0.000235579               0.999999993              -0.000169466               0.000251483               0.999999993              -0.000179948               0.000267647               0.999999993              -0.000191164               0.000284010               0.999999993              -0.000203059               0.000300235               0.999999993              -0.000215498               0.000316015               0.999999993              -0.000228444               0.000331022               0.999999993              -0.000087851               0.000225793               0.999999993              -0.000094363               0.000197160               0.999999993              -0.000096924               0.000191061               0.999999993              -0.000099608               0.000195701               0.999999993              -0.000103541               0.000206337               0.999999993              -0.000108902               0.000220730               0.999999993              -0.000115488               0.000237495               0.999999993              -0.000123105               0.000255624               0.999999993              -0.000131556               0.000274652               0.999999993              -0.000140796               0.000294593               0.999999993              -0.000150772               0.000315202               0.999999993              -0.000161425               0.000336345               0.999999993              -0.000172712               0.000357995               0.999999993              -0.000184593               0.000379962               0.999999993              -0.000196959               0.000401925               0.999999993              -0.000209701               0.000423510               0.999999993              -0.000222753               0.000444504               0.999999993              -0.000082915               0.000277777               0.999999993              -0.000081573               0.000243441               0.999999993              -0.000081531               0.000237544               0.999999993              -0.000083957               0.000244585               0.999999993              -0.000088741               0.000258624               0.999999993              -0.000095277               0.000276896               0.999999993              -0.000103171               0.000297846               0.999999993              -0.000112099               0.000320372               0.999999993              -0.000121827               0.000344052               0.999999993              -0.000132293               0.000368717               0.999999993              -0.000143385               0.000394221               0.999999993              -0.000155072               0.000420331               0.999999993              -0.000167268               0.000447220               0.999999993              -0.000179855               0.000474495               0.999999993              -0.000192779               0.000501757               0.999999993              -0.000205885               0.000528727               0.999999993              -0.000219088               0.000555191               0.999999993              -0.000077012               0.000326851               0.999999993              -0.000067651               0.000288091               0.999999993              -0.000065942               0.000282958               0.999999993              -0.000068982               0.000292664               0.999999993              -0.000075112               0.000310137               0.999999993              -0.000083207               0.000332202               0.999999993              -0.000092621               0.000357235               0.999999993              -0.000102977               0.000384138               0.999999993              -0.000114097               0.000412294               0.999999993              -0.000125823               0.000441469               0.999999993              -0.000138115               0.000471512               0.999999993              -0.000150873               0.000502399               0.999999993              -0.000164073               0.000534080               0.999999993              -0.000177569               0.000566129               0.999999993              -0.000191132               0.000598133               0.999999993              -0.000204652               0.000629715               0.999999993              -0.000218044               0.000660838               0.999999993              -0.000070487               0.000372359               0.999999993              -0.000053549               0.000330910               0.999999993              -0.000051145               0.000327009               0.999999993              -0.000055450               0.000339450               0.999999993              -0.000063239               0.000360321               0.999999993              -0.000073145               0.000386108               0.999999993              -0.000084293               0.000415055               0.999999993              -0.000096261               0.000446037               0.999999993              -0.000108706               0.000478460               0.999999993              -0.000121639               0.000511901               0.999999993              -0.000135100               0.000546392               0.999999993              -0.000149020               0.000581726               0.999999993              -0.000163227               0.000617809               0.999999993              -0.000177495               0.000654132               0.999999993              -0.000191535               0.000690081               0.999999993              -0.000205181               0.000725542               0.999999993              -0.000218408               0.000760326               0.999999993              -0.000063770               0.000413536               0.999999993              -0.000039760               0.000371818               0.999999993              -0.000037841               0.000369346               0.999999993              -0.000043839               0.000384354               0.999999993              -0.000053709               0.000408483               0.999999993              -0.000065549               0.000437829               0.999999993              -0.000078366               0.000470525               0.999999993              -0.000091598               0.000505495               0.999999993              -0.000105171               0.000542001               0.999999993              -0.000119313               0.000579728               0.999999993              -0.000133865               0.000618547               0.999999993              -0.000148739               0.000658127               0.999999993              -0.000163696               0.000698097               0.999999993              -0.000178268               0.000737929               0.999999993              -0.000192380               0.000777286               0.999999993              -0.000206093               0.000816034               0.999999993              -0.000219443               0.000854196               0.999999993              -0.000057369               0.000451927               0.999999993              -0.000029297               0.000414755               0.999999993              -0.000025369               0.000408856               0.999999993              -0.000030132               0.000419557               0.999999993              -0.000038919               0.000439766               0.999999993              -0.000049712               0.000465508               0.999999993              -0.000061376               0.000494777               0.999999993              -0.000073353               0.000526418               0.999999993              -0.000085546               0.000559829               0.999999993              -0.000098048               0.000594573               0.999999993              -0.000110744               0.000630339               0.999999993              -0.000123731               0.000667034               0.999999993              -0.000136888               0.000704274               0.999999993              -0.000149907               0.000741769               0.999999993              -0.000162510               0.000779156               0.999999993              -0.000174733               0.000816192               0.999999993              -0.000186880               0.000852797               0.999999993              -0.000050236               0.000486332               0.999999993              -0.000020738               0.000455497               0.999999993              -0.000014862               0.000448523               0.999999993              -0.000017961               0.000455937               0.999999993              -0.000025236               0.000472612               0.999999993              -0.000034684               0.000495139               0.999999993              -0.000045105               0.000521358               0.999999993              -0.000055849               0.000550002               0.999999993              -0.000066660               0.000580488               0.999999993              -0.000077479               0.000612388               0.999999993              -0.000088272               0.000645472               0.999999993              -0.000099161               0.000679386               0.999999993              -0.000110126               0.000713998               0.999999993              -0.000121136               0.000748987               0.999999993              -0.000131703               0.000784220               0.999999993              -0.000141713               0.000819405               0.999999993              -0.000151364               0.000854460               0.999999993              -0.000042624               0.000516149               0.999999993              -0.000014010               0.000492939               0.999999993              -0.000006778               0.000486644               0.999999993              -0.000008093               0.000492189               0.999999993              -0.000013448               0.000506108               0.999999993              -0.000021365               0.000525803               0.999999993              -0.000030420               0.000549349               0.999999993              -0.000039768               0.000575515               0.999999993              -0.000049055               0.000603595               0.999999993              -0.000058146               0.000633149               0.999999993              -0.000066998               0.000663876               0.999999993              -0.000075740               0.000695485               0.999999993              -0.000084473               0.000727747               0.999999993              -0.000093138               0.000760500               0.999999993              -0.000101365               0.000793534               0.999999993              -0.000108624               0.000826716               0.999999993              -0.000115021               0.000860021               0.999999993              -0.000034595               0.000541027               0.999999993              -0.000009005               0.000525787               0.999999993              -0.000001220               0.000521506               0.999999993              -0.000001011               0.000526468               0.999999993              -0.000004552               0.000538515               0.999999993              -0.000010687               0.000556002               0.999999993              -0.000018115               0.000577404               0.999999993              -0.000025855               0.000601588               0.999999993              -0.000033548               0.000627790               0.999999993              -0.000040938               0.000655586               0.999999993              -0.000047925               0.000684523               0.999999993              -0.000054662               0.000714290               0.999999993              -0.000061207               0.000744706               0.999999993              -0.000067422               0.000775677               0.999999993              -0.000072990               0.000807073               0.999999993              -0.000077357               0.000838720               0.999999993              -0.000080048               0.000870511               0.999999993              -0.000026257               0.000560613               0.999999993              -0.000005468               0.000552816               0.999999993               0.000001784               0.000551170               0.999999993               0.000002943               0.000556456               0.999999993               0.000000909               0.000567670               0.999999993              -0.000003348               0.000583691               0.999999993              -0.000008972               0.000603496               0.999999993              -0.000014946               0.000626074               0.999999993              -0.000020918               0.000650848               0.999999993              -0.000026571               0.000677299               0.999999993              -0.000031868               0.000704994               0.999999993              -0.000036825               0.000733636               0.999999993              -0.000041441               0.000762911               0.999999993              -0.000045379               0.000792754               0.999999993              -0.000048331               0.000823151               0.999999993              -0.000049939               0.000853872               0.999999993              -0.000049490               0.000884819               0.999999993              -0.000017659               0.000574727               0.999999993              -0.000003063               0.000572947               0.999999993               0.000002566               0.000573956               0.999999993               0.000003985               0.000580016               0.999999993               0.000003030               0.000590963               0.999999993               0.000000379               0.000606116               0.999999993              -0.000003374               0.000624795               0.999999993              -0.000007416               0.000646281               0.999999993              -0.000011481               0.000670040               0.999999993              -0.000015367               0.000695648               0.999999993              -0.000018980               0.000722697               0.999999993              -0.000022245               0.000750755               0.999999993              -0.000025155               0.000779642               0.999999993              -0.000027397               0.000809128               0.999999993              -0.000028562               0.000839070               0.999999993              -0.000028281               0.000869361               0.999999993              -0.000026024               0.000899914               0.999999993              -0.000008876               0.000583223               0.999999993              -0.000001375               0.000585372               0.999999993               0.000001731               0.000588376               0.999999993               0.000002664               0.000595192               0.999999993               0.000002351               0.000606099               0.999999993               0.000001065               0.000620842               0.999999993              -0.000000820               0.000638916               0.999999993              -0.000002838               0.000659765               0.999999993              -0.000004876               0.000682969               0.999999993              -0.000006824               0.000708063               0.999999993              -0.000008637               0.000734794               0.999999993              -0.000010327               0.000762789               0.999999993              -0.000011775               0.000791705               0.999999993              -0.000012817               0.000821352               0.999999993              -0.000013160               0.000851569               0.999999993              -0.000012431               0.000882110               0.999999993              -0.000010205               0.000912720               0.999999993               0.000000000               0.000586035               0.999999993               0.000000000               0.000589561               0.999999993               0.000000000               0.000593280               0.999999993              -0.000000000               0.000600397               0.999999993               0.000000000               0.000611357               0.999999993               0.000000000               0.000625917               0.999999993              -0.000000000               0.000643833               0.999999993               0.000000000               0.000664525               0.999999993              -0.000000000               0.000687509               0.999999993               0.000000000               0.000712525               0.999999993               0.000000000               0.000739169               0.999999993              -0.000000000               0.000767155               0.999999993              -0.000000000               0.000796220               0.999999993              -0.000000000               0.000826132               0.999999993               0.000000000               0.000856735               0.999999993               0.000000000               0.000887638               0.999999993               0.000000000               0.000918446               0.999999993              -0.000096866               0.000000000               0.999999993              -0.000119960               0.000000000               0.999999993              -0.000130828               0.000000000               0.999999993              -0.000137060               0.000000000               0.999999993              -0.000141755               0.000000000               0.999999993              -0.000146268               0.000000000               0.999999993              -0.000151220               0.000000000               0.999999993              -0.000156897              -0.000000000               0.999999993              -0.000163449               0.000000000               0.999999993              -0.000170883               0.000000000               0.999999993              -0.000179215              -0.000000000               0.999999993              -0.000188425               0.000000000               0.999999993              -0.000198456               0.000000000               0.999999993              -0.000209268               0.000000000               0.999999993              -0.000220781               0.000000000               0.999999993              -0.000232954               0.000000000               0.999999993              -0.000245697               0.000000000               0.999999993              -0.000096291              -0.000057868               0.999999993              -0.000118263              -0.000050445               0.999999993              -0.000128470              -0.000048129               0.999999993              -0.000134323              -0.000048596               0.999999993              -0.000138790              -0.000050712               0.999999993              -0.000143220              -0.000054017               0.999999993              -0.000148234              -0.000058111               0.999999993              -0.000154038              -0.000062688               0.999999993              -0.000160688              -0.000067514               0.999999993              -0.000168171              -0.000072546               0.999999993              -0.000176488              -0.000077753               0.999999993              -0.000185672              -0.000083001               0.999999993              -0.000195672              -0.000088190               0.999999993              -0.000206422              -0.000093303               0.999999993              -0.000217931              -0.000098209               0.999999993              -0.000230122              -0.000102754               0.999999993              -0.000242879              -0.000106532               0.999999993              -0.000094631              -0.000115180               0.999999993              -0.000113301              -0.000100366               0.999999993              -0.000121575              -0.000096128               0.999999993              -0.000126427              -0.000097431               0.999999993              -0.000130467              -0.000101987               0.999999993              -0.000134854              -0.000108800               0.999999993              -0.000140029              -0.000117046               0.999999993              -0.000146066              -0.000126127               0.999999993              -0.000152953              -0.000135752               0.999999993              -0.000160617              -0.000145827               0.999999993              -0.000169039              -0.000156240               0.999999993              -0.000178262              -0.000166808               0.999999993              -0.000188295              -0.000177460               0.999999993              -0.000199065              -0.000188079               0.999999993              -0.000210597              -0.000198438               0.999999993              -0.000222827              -0.000208298               0.999999993              -0.000235651              -0.000217203               0.999999993              -0.000091810              -0.000171377               0.999999993              -0.000105204              -0.000149366               0.999999993              -0.000110719              -0.000143838               0.999999993              -0.000114340              -0.000146546               0.999999993              -0.000118083              -0.000153958               0.999999993              -0.000122726              -0.000164467               0.999999993              -0.000128395              -0.000176968               0.999999993              -0.000135011              -0.000190623               0.999999993              -0.000142460              -0.000204982               0.999999993              -0.000150718              -0.000220025               0.999999993              -0.000159732              -0.000235579               0.999999993              -0.000169466              -0.000251483               0.999999993              -0.000179948              -0.000267647               0.999999993              -0.000191164              -0.000284010               0.999999993              -0.000203059              -0.000300235               0.999999993              -0.000215498              -0.000316015               0.999999993              -0.000228444              -0.000331022               0.999999993              -0.000087851              -0.000225793               0.999999993              -0.000094363              -0.000197160               0.999999993              -0.000096924              -0.000191061               0.999999993              -0.000099608              -0.000195701               0.999999993              -0.000103541              -0.000206337               0.999999993              -0.000108902              -0.000220730               0.999999993              -0.000115488              -0.000237495               0.999999993              -0.000123105              -0.000255624               0.999999993              -0.000131556              -0.000274652               0.999999993              -0.000140796              -0.000294593               0.999999993              -0.000150772              -0.000315202               0.999999993              -0.000161425              -0.000336345               0.999999993              -0.000172712              -0.000357995               0.999999993              -0.000184593              -0.000379962               0.999999993              -0.000196959              -0.000401925               0.999999993              -0.000209701              -0.000423510               0.999999993              -0.000222753              -0.000444504               0.999999993              -0.000082915              -0.000277777               0.999999993              -0.000081573              -0.000243441               0.999999993              -0.000081531              -0.000237544               0.999999993              -0.000083957              -0.000244585               0.999999993              -0.000088741              -0.000258624               0.999999993              -0.000095277              -0.000276896               0.999999993              -0.000103171              -0.000297846               0.999999993              -0.000112099              -0.000320372               0.999999993              -0.000121827              -0.000344052               0.999999993              -0.000132293              -0.000368717               0.999999993              -0.000143385              -0.000394221               0.999999993              -0.000155072              -0.000420331               0.999999993              -0.000167268              -0.000447220               0.999999993              -0.000179855              -0.000474495               0.999999993              -0.000192779              -0.000501757               0.999999993              -0.000205885              -0.000528727               0.999999993              -0.000219088              -0.000555191               0.999999993              -0.000077012              -0.000326851               0.999999993              -0.000067651              -0.000288091               0.999999993              -0.000065942              -0.000282958               0.999999993              -0.000068982              -0.000292664               0.999999993              -0.000075112              -0.000310137               0.999999993              -0.000083207              -0.000332202               0.999999993              -0.000092621              -0.000357235               0.999999993              -0.000102977              -0.000384138               0.999999993              -0.000114097              -0.000412294               0.999999993              -0.000125823              -0.000441469               0.999999993              -0.000138115              -0.000471512               0.999999993              -0.000150873              -0.000502399               0.999999993              -0.000164073              -0.000534080               0.999999993              -0.000177569              -0.000566129               0.999999993              -0.000191132              -0.000598133               0.999999993              -0.000204652              -0.000629715               0.999999993              -0.000218044              -0.000660838               0.999999993              -0.000070487              -0.000372359               0.999999993              -0.000053549              -0.000330910               0.999999993              -0.000051145              -0.000327009               0.999999993              -0.000055450              -0.000339450               0.999999993              -0.000063239              -0.000360321               0.999999993              -0.000073145              -0.000386108               0.999999993              -0.000084293              -0.000415055               0.999999993              -0.000096261              -0.000446037               0.999999993              -0.000108706              -0.000478460               0.999999993              -0.000121639              -0.000511901               0.999999993              -0.000135100              -0.000546392               0.999999993              -0.000149020              -0.000581726               0.999999993              -0.000163227              -0.000617809               0.999999993              -0.000177495              -0.000654132               0.999999993              -0.000191535              -0.000690081               0.999999993              -0.000205181              -0.000725542               0.999999993              -0.000218408              -0.000760326               0.999999993              -0.000063770              -0.000413536               0.999999993              -0.000039760              -0.000371818               0.999999993              -0.000037841              -0.000369346               0.999999993              -0.000043839              -0.000384354               0.999999993              -0.000053709              -0.000408483               0.999999993              -0.000065549              -0.000437829               0.999999993              -0.000078366              -0.000470525               0.999999993              -0.000091598              -0.000505495               0.999999993              -0.000105171              -0.000542001               0.999999993              -0.000119313              -0.000579728               0.999999993              -0.000133865              -0.000618547               0.999999993              -0.000148739              -0.000658127               0.999999993              -0.000163696              -0.000698097               0.999999993              -0.000178268              -0.000737929               0.999999993              -0.000192380              -0.000777286               0.999999993              -0.000206093              -0.000816034               0.999999993              -0.000219443              -0.000854196               0.999999993              -0.000057369              -0.000451927               0.999999993              -0.000029297              -0.000414755               0.999999993              -0.000025369              -0.000408856               0.999999993              -0.000030132              -0.000419557               0.999999993              -0.000038919              -0.000439766               0.999999993              -0.000049712              -0.000465508               0.999999993              -0.000061376              -0.000494777               0.999999993              -0.000073353              -0.000526418               0.999999993              -0.000085546              -0.000559829               0.999999993              -0.000098048              -0.000594573               0.999999993              -0.000110744              -0.000630339               0.999999993              -0.000123731              -0.000667034               0.999999993              -0.000136888              -0.000704274               0.999999993              -0.000149907              -0.000741769               0.999999993              -0.000162510              -0.000779156               0.999999993              -0.000174733              -0.000816192               0.999999993              -0.000186880              -0.000852797               0.999999993              -0.000050236              -0.000486332               0.999999993              -0.000020738              -0.000455497               0.999999993              -0.000014862              -0.000448523               0.999999993              -0.000017961              -0.000455937               0.999999993              -0.000025236              -0.000472612               0.999999993              -0.000034684              -0.000495139               0.999999993              -0.000045105              -0.000521358               0.999999993              -0.000055849              -0.000550002               0.999999993              -0.000066660              -0.000580488               0.999999993              -0.000077479              -0.000612388               0.999999993              -0.000088272              -0.000645472               0.999999993              -0.000099161              -0.000679386               0.999999993              -0.000110126              -0.000713998               0.999999993              -0.000121136              -0.000748987               0.999999993              -0.000131703              -0.000784220               0.999999993              -0.000141713              -0.000819405               0.999999993              -0.000151364              -0.000854460               0.999999993              -0.000042624              -0.000516149               0.999999993              -0.000014010              -0.000492939               0.999999993              -0.000006778              -0.000486644               0.999999993              -0.000008093              -0.000492189               0.999999993              -0.000013448              -0.000506108               0.999999993              -0.000021365              -0.000525803               0.999999993              -0.000030420              -0.000549349               0.999999993              -0.000039768              -0.000575515               0.999999993              -0.000049055              -0.000603595               0.999999993              -0.000058146              -0.000633149               0.999999993              -0.000066998              -0.000663876               0.999999993              -0.000075740              -0.000695485               0.999999993              -0.000084473              -0.000727747               0.999999993              -0.000093138              -0.000760500               0.999999993              -0.000101365              -0.000793534               0.999999993              -0.000108624              -0.000826716               0.999999993              -0.000115021              -0.000860021               0.999999993              -0.000034595              -0.000541027               0.999999993              -0.000009005              -0.000525787               0.999999993              -0.000001220              -0.000521506               0.999999993              -0.000001011              -0.000526468               0.999999993              -0.000004552              -0.000538515               0.999999993              -0.000010687              -0.000556002               0.999999993              -0.000018115              -0.000577404               0.999999993              -0.000025855              -0.000601588               0.999999993              -0.000033548              -0.000627790               0.999999993              -0.000040938              -0.000655586               0.999999993              -0.000047925              -0.000684523               0.999999993              -0.000054662              -0.000714290               0.999999993              -0.000061207              -0.000744706               0.999999993              -0.000067422              -0.000775677               0.999999993              -0.000072990              -0.000807073               0.999999993              -0.000077357              -0.000838720               0.999999993              -0.000080048              -0.000870511               0.999999993              -0.000026257              -0.000560613               0.999999993              -0.000005468              -0.000552816               0.999999993               0.000001784              -0.000551170               0.999999993               0.000002943              -0.000556456               0.999999993               0.000000909              -0.000567670               0.999999993              -0.000003348              -0.000583691               0.999999993              -0.000008972              -0.000603496               0.999999993              -0.000014946              -0.000626074               0.999999993              -0.000020918              -0.000650848               0.999999993              -0.000026571              -0.000677299               0.999999993              -0.000031868              -0.000704994               0.999999993              -0.000036825              -0.000733636               0.999999993              -0.000041441              -0.000762911               0.999999993              -0.000045379              -0.000792754               0.999999993              -0.000048331              -0.000823151               0.999999993              -0.000049939              -0.000853872               0.999999993              -0.000049490              -0.000884819               0.999999993              -0.000017659              -0.000574727               0.999999993              -0.000003063              -0.000572947               0.999999993               0.000002566              -0.000573956               0.999999993               0.000003985              -0.000580016               0.999999993               0.000003030              -0.000590963               0.999999993               0.000000379              -0.000606116               0.999999993              -0.000003374              -0.000624795               0.999999993              -0.000007416              -0.000646281               0.999999993              -0.000011481              -0.000670040               0.999999993              -0.000015367              -0.000695648               0.999999993              -0.000018980              -0.000722697               0.999999993              -0.000022245              -0.000750755               0.999999993              -0.000025155              -0.000779642               0.999999993              -0.000027397              -0.000809128               0.999999993              -0.000028562              -0.000839070               0.999999993              -0.000028281              -0.000869361               0.999999993              -0.000026024              -0.000899914               0.999999993              -0.000008876              -0.000583223               0.999999993              -0.000001375              -0.000585372               0.999999993               0.000001731              -0.000588376               0.999999993               0.000002664              -0.000595192               0.999999993               0.000002351              -0.000606099               0.999999993               0.000001065              -0.000620842               0.999999993              -0.000000820              -0.000638916               0.999999993              -0.000002838              -0.000659765               0.999999993              -0.000004876              -0.000682969               0.999999993              -0.000006824              -0.000708063               0.999999993              -0.000008637              -0.000734794               0.999999993              -0.000010327              -0.000762789               0.999999993              -0.000011775              -0.000791705               0.999999993              -0.000012817              -0.000821352               0.999999993              -0.000013160              -0.000851569               0.999999993              -0.000012431              -0.000882110               0.999999993              -0.000010205              -0.000912720               0.999999993               0.000000000              -0.000586035               0.999999993              -0.000000000              -0.000589561               0.999999993              -0.000000000              -0.000593280               0.999999993              -0.000000000              -0.000600397               0.999999993              -0.000000000              -0.000611357               0.999999993               0.000000000              -0.000625917               0.999999993               0.000000000              -0.000643833               0.999999993              -0.000000000              -0.000664525               0.999999993              -0.000000000              -0.000687509               0.999999993              -0.000000000              -0.000712525               0.999999993              -0.000000000              -0.000739169               0.999999993              -0.000000000              -0.000767155               0.999999993               0.000000000              -0.000796220               0.999999993               0.000000000              -0.000826132               0.999999993              -0.000000000              -0.000856735               0.999999993               0.000000000              -0.000887638               0.999999993               0.000000000              -0.000918446               0.999999993               0.000096866              -0.000000000               0.999999993               0.000119960              -0.000000000               0.999999993               0.000130828              -0.000000000               0.999999993               0.000137060              -0.000000000               0.999999993               0.000141755              -0.000000000               0.999999993               0.000146268              -0.000000000               0.999999993               0.000151220              -0.000000000               0.999999993               0.000156897               0.000000000               0.999999993               0.000163449               0.000000000               0.999999993               0.000170883              -0.000000000               0.999999993               0.000179215              -0.000000000               0.999999993               0.000188425               0.000000000               0.999999993               0.000198456               0.000000000               0.999999993               0.000209268              -0.000000000               0.999999993               0.000220781              -0.000000000               0.999999993               0.000232954              -0.000000000               0.999999993               0.000245697               0.000000000               0.999999993               0.000096291              -0.000057868               0.999999993               0.000118263              -0.000050445               0.999999993               0.000128470              -0.000048129               0.999999993               0.000134323              -0.000048596               0.999999993               0.000138790              -0.000050712               0.999999993               0.000143220              -0.000054017               0.999999993               0.000148234              -0.000058111               0.999999993               0.000154038              -0.000062688               0.999999993               0.000160688              -0.000067514               0.999999993               0.000168171              -0.000072546               0.999999993               0.000176488              -0.000077753               0.999999993               0.000185672              -0.000083001               0.999999993               0.000195672              -0.000088190               0.999999993               0.000206422              -0.000093303               0.999999993               0.000217931              -0.000098209               0.999999993               0.000230122              -0.000102754               0.999999993               0.000242879              -0.000106532               0.999999993               0.000094631              -0.000115180               0.999999993               0.000113301              -0.000100366               0.999999993               0.000121575              -0.000096128               0.999999993               0.000126427              -0.000097431               0.999999993               0.000130467              -0.000101987               0.999999993               0.000134854              -0.000108800               0.999999993               0.000140029              -0.000117046               0.999999993               0.000146066              -0.000126127               0.999999993               0.000152953              -0.000135752               0.999999993               0.000160617              -0.000145827               0.999999993               0.000169039              -0.000156240               0.999999993               0.000178262              -0.000166808               0.999999993               0.000188295              -0.000177460               0.999999993               0.000199065              -0.000188079               0.999999993               0.000210597              -0.000198438               0.999999993               0.000222827              -0.000208298               0.999999993               0.000235651              -0.000217203               0.999999993               0.000091810              -0.000171377               0.999999993               0.000105204              -0.000149366               0.999999993               0.000110719              -0.000143838               0.999999993               0.000114340              -0.000146546               0.999999993               0.000118083              -0.000153958               0.999999993               0.000122726              -0.000164467               0.999999993               0.000128395              -0.000176968               0.999999993               0.000135011              -0.000190623               0.999999993               0.000142460              -0.000204982               0.999999993               0.000150718              -0.000220025               0.999999993               0.000159732              -0.000235579               0.999999993               0.000169466              -0.000251483               0.999999993               0.000179948              -0.000267647               0.999999993               0.000191164              -0.000284010               0.999999993               0.000203059              -0.000300235               0.999999993               0.000215498              -0.000316015               0.999999993               0.000228444              -0.000331022               0.999999993               0.000087851              -0.000225793               0.999999993               0.000094363              -0.000197160               0.999999993               0.000096924              -0.000191061               0.999999993               0.000099608              -0.000195701               0.999999993               0.000103541              -0.000206337               0.999999993               0.000108902              -0.000220730               0.999999993               0.000115488              -0.000237495               0.999999993               0.000123105              -0.000255624               0.999999993               0.000131556              -0.000274652               0.999999993               0.000140796              -0.000294593               0.999999993               0.000150772              -0.000315202               0.999999993               0.000161425              -0.000336345               0.999999993               0.000172712              -0.000357995               0.999999993               0.000184593              -0.000379962               0.999999993               0.000196959              -0.000401925               0.999999993               0.000209701              -0.000423510               0.999999993               0.000222753              -0.000444504               0.999999993               0.000082915              -0.000277777               0.999999993               0.000081573              -0.000243441               0.999999993               0.000081531              -0.000237544               0.999999993               0.000083957              -0.000244585               0.999999993               0.000088741              -0.000258624               0.999999993               0.000095277              -0.000276896               0.999999993               0.000103171              -0.000297846               0.999999993               0.000112099              -0.000320372               0.999999993               0.000121827              -0.000344052               0.999999993               0.000132293              -0.000368717               0.999999993               0.000143385              -0.000394221               0.999999993               0.000155072              -0.000420331               0.999999993               0.000167268              -0.000447220               0.999999993               0.000179855              -0.000474495               0.999999993               0.000192779              -0.000501757               0.999999993               0.000205885              -0.000528727               0.999999993               0.000219088              -0.000555191               0.999999993               0.000077012              -0.000326851               0.999999993               0.000067651              -0.000288091               0.999999993               0.000065942              -0.000282958               0.999999993               0.000068982              -0.000292664               0.999999993               0.000075112              -0.000310137               0.999999993               0.000083207              -0.000332202               0.999999993               0.000092621              -0.000357235               0.999999993               0.000102977              -0.000384138               0.999999993               0.000114097              -0.000412294               0.999999993               0.000125823              -0.000441469               0.999999993               0.000138115              -0.000471512               0.999999993               0.000150873              -0.000502399               0.999999993               0.000164073              -0.000534080               0.999999993               0.000177569              -0.000566129               0.999999993               0.000191132              -0.000598133               0.999999993               0.000204652              -0.000629715               0.999999993               0.000218044              -0.000660838               0.999999993               0.000070487              -0.000372359               0.999999993               0.000053549              -0.000330910               0.999999993               0.000051145              -0.000327009               0.999999993               0.000055450              -0.000339450               0.999999993               0.000063239              -0.000360321               0.999999993               0.000073145              -0.000386108               0.999999993               0.000084293              -0.000415055               0.999999993               0.000096261              -0.000446037               0.999999993               0.000108706              -0.000478460               0.999999993               0.000121639              -0.000511901               0.999999993               0.000135100              -0.000546392               0.999999993               0.000149020              -0.000581726               0.999999993               0.000163227              -0.000617809               0.999999993               0.000177495              -0.000654132               0.999999993               0.000191535              -0.000690081               0.999999993               0.000205181              -0.000725542               0.999999993               0.000218408              -0.000760326               0.999999993               0.000063770              -0.000413536               0.999999993               0.000039760              -0.000371818               0.999999993               0.000037841              -0.000369346               0.999999993               0.000043839              -0.000384354               0.999999993               0.000053709              -0.000408483               0.999999993               0.000065549              -0.000437829               0.999999993               0.000078366              -0.000470525               0.999999993               0.000091598              -0.000505495               0.999999993               0.000105171              -0.000542001               0.999999993               0.000119313              -0.000579728               0.999999993               0.000133865              -0.000618547               0.999999993               0.000148739              -0.000658127               0.999999993               0.000163696              -0.000698097               0.999999993               0.000178268              -0.000737929               0.999999993               0.000192380              -0.000777286               0.999999993               0.000206093              -0.000816034               0.999999993               0.000219443              -0.000854196               0.999999993               0.000057369              -0.000451927               0.999999993               0.000029297              -0.000414755               0.999999993               0.000025369              -0.000408856               0.999999993               0.000030132              -0.000419557               0.999999993               0.000038919              -0.000439766               0.999999993               0.000049712              -0.000465508               0.999999993               0.000061376              -0.000494777               0.999999993               0.000073353              -0.000526418               0.999999993               0.000085546              -0.000559829               0.999999993               0.000098048              -0.000594573               0.999999993               0.000110744              -0.000630339               0.999999993               0.000123731              -0.000667034               0.999999993               0.000136888              -0.000704274               0.999999993               0.000149907              -0.000741769               0.999999993               0.000162510              -0.000779156               0.999999993               0.000174733              -0.000816192               0.999999993               0.000186880              -0.000852797               0.999999993               0.000050236              -0.000486332               0.999999993               0.000020738              -0.000455497               0.999999993               0.000014862              -0.000448523               0.999999993               0.000017961              -0.000455937               0.999999993               0.000025236              -0.000472612               0.999999993               0.000034684              -0.000495139               0.999999993               0.000045105              -0.000521358               0.999999993               0.000055849              -0.000550002               0.999999993               0.000066660              -0.000580488               0.999999993               0.000077479              -0.000612388               0.999999993               0.000088272              -0.000645472               0.999999993               0.000099161              -0.000679386               0.999999993               0.000110126              -0.000713998               0.999999993               0.000121136              -0.000748987               0.999999993               0.000131703              -0.000784220               0.999999993               0.000141713              -0.000819405               0.999999993               0.000151364              -0.000854460               0.999999993               0.000042624              -0.000516149               0.999999993               0.000014010              -0.000492939               0.999999993               0.000006778              -0.000486644               0.999999993               0.000008093              -0.000492189               0.999999993               0.000013448              -0.000506108               0.999999993               0.000021365              -0.000525803               0.999999993               0.000030420              -0.000549349               0.999999993               0.000039768              -0.000575515               0.999999993               0.000049055              -0.000603595               0.999999993               0.000058146              -0.000633149               0.999999993               0.000066998              -0.000663876               0.999999993               0.000075740              -0.000695485               0.999999993               0.000084473              -0.000727747               0.999999993               0.000093138              -0.000760500               0.999999993               0.000101365              -0.000793534               0.999999993               0.000108624              -0.000826716               0.999999993               0.000115021              -0.000860021               0.999999993               0.000034595              -0.000541027               0.999999993               0.000009005              -0.000525787               0.999999993               0.000001220              -0.000521506               0.999999993               0.000001011              -0.000526468               0.999999993               0.000004552              -0.000538515               0.999999993               0.000010687              -0.000556002               0.999999993               0.000018115              -0.000577404               0.999999993               0.000025855              -0.000601588               0.999999993               0.000033548              -0.000627790               0.999999993               0.000040938              -0.000655586               0.999999993               0.000047925              -0.000684523               0.999999993               0.000054662              -0.000714290               0.999999993               0.000061207              -0.000744706               0.999999993               0.000067422              -0.000775677               0.999999993               0.000072990              -0.000807073               0.999999993               0.000077357              -0.000838720               0.999999993               0.000080048              -0.000870511               0.999999993               0.000026257              -0.000560613               0.999999993               0.000005468              -0.000552816               0.999999993              -0.000001784              -0.000551170               0.999999993              -0.000002943              -0.000556456               0.999999993              -0.000000909              -0.000567670               0.999999993               0.000003348              -0.000583691               0.999999993               0.000008972              -0.000603496               0.999999993               0.000014946              -0.000626074               0.999999993               0.000020918              -0.000650848               0.999999993               0.000026571              -0.000677299               0.999999993               0.000031868              -0.000704994               0.999999993               0.000036825              -0.000733636               0.999999993               0.000041441              -0.000762911               0.999999993               0.000045379              -0.000792754               0.999999993               0.000048331              -0.000823151               0.999999993               0.000049939              -0.000853872               0.999999993               0.000049490              -0.000884819               0.999999993               0.000017659              -0.000574727               0.999999993               0.000003063              -0.000572947               0.999999993              -0.000002566              -0.000573956               0.999999993              -0.000003985              -0.000580016               0.999999993              -0.000003030              -0.000590963               0.999999993              -0.000000379              -0.000606116               0.999999993               0.000003374              -0.000624795               0.999999993               0.000007416              -0.000646281               0.999999993               0.000011481              -0.000670040               0.999999993               0.000015367              -0.000695648               0.999999993               0.000018980              -0.000722697               0.999999993               0.000022245              -0.000750755               0.999999993               0.000025155              -0.000779642               0.999999993               0.000027397              -0.000809128               0.999999993               0.000028562              -0.000839070               0.999999993               0.000028281              -0.000869361               0.999999993               0.000026024              -0.000899914               0.999999993               0.000008876              -0.000583223               0.999999993               0.000001375              -0.000585372               0.999999993              -0.000001731              -0.000588376               0.999999993              -0.000002664              -0.000595192               0.999999993              -0.000002351              -0.000606099               0.999999993              -0.000001065              -0.000620842               0.999999993               0.000000820              -0.000638916               0.999999993               0.000002838              -0.000659765               0.999999993               0.000004876              -0.000682969               0.999999993               0.000006824              -0.000708063               0.999999993               0.000008637              -0.000734794               0.999999993               0.000010327              -0.000762789               0.999999993               0.000011775              -0.000791705               0.999999993               0.000012817              -0.000821352               0.999999993               0.000013160              -0.000851569               0.999999993               0.000012431              -0.000882110               0.999999993               0.000010205              -0.000912720               0.999999993               0.000000000              -0.000586035               0.999999993              -0.000000000              -0.000589561               0.999999993              -0.000000000              -0.000593280               0.999999993              -0.000000000              -0.000600397               0.999999993              -0.000000000              -0.000611357               0.999999993               0.000000000              -0.000625917               0.999999993               0.000000000              -0.000643833               0.999999993              -0.000000000              -0.000664525               0.999999993              -0.000000000              -0.000687509               0.999999993              -0.000000000              -0.000712525               0.999999993              -0.000000000              -0.000739169               0.999999993              -0.000000000              -0.000767155               0.999999993               0.000000000              -0.000796220               0.999999993               0.000000000              -0.000826132               0.999999993              -0.000000000              -0.000856735               0.999999993               0.000000000              -0.000887638               0.999999993               0.000000000              -0.000918446               0.999999993               0.000096866              -0.000000000               0.999999993               0.000119960              -0.000000000               0.999999993               0.000130828              -0.000000000               0.999999993               0.000137060              -0.000000000               0.999999993               0.000141755              -0.000000000               0.999999993               0.000146268              -0.000000000               0.999999993               0.000151220              -0.000000000               0.999999993               0.000156897               0.000000000               0.999999993               0.000163449               0.000000000               0.999999993               0.000170883              -0.000000000               0.999999993               0.000179215              -0.000000000               0.999999993               0.000188425               0.000000000               0.999999993               0.000198456               0.000000000               0.999999993               0.000209268              -0.000000000               0.999999993               0.000220781              -0.000000000               0.999999993               0.000232954              -0.000000000               0.999999993               0.000245697               0.000000000               0.999999993               0.000096291               0.000057868               0.999999993               0.000118263               0.000050445               0.999999993               0.000128470               0.000048129               0.999999993               0.000134323               0.000048596               0.999999993               0.000138790               0.000050712               0.999999993               0.000143220               0.000054017               0.999999993               0.000148234               0.000058111               0.999999993               0.000154038               0.000062688               0.999999993               0.000160688               0.000067514               0.999999993               0.000168171               0.000072546               0.999999993               0.000176488               0.000077753               0.999999993               0.000185672               0.000083001               0.999999993               0.000195672               0.000088190               0.999999993               0.000206422               0.000093303               0.999999993               0.000217931               0.000098209               0.999999993               0.000230122               0.000102754               0.999999993               0.000242879               0.000106532               0.999999993               0.000094631               0.000115180               0.999999993               0.000113301               0.000100366               0.999999993               0.000121575               0.000096128               0.999999993               0.000126427               0.000097431               0.999999993               0.000130467               0.000101987               0.999999993               0.000134854               0.000108800               0.999999993               0.000140029               0.000117046               0.999999993               0.000146066               0.000126127               0.999999993               0.000152953               0.000135752               0.999999993               0.000160617               0.000145827               0.999999993               0.000169039               0.000156240               0.999999993               0.000178262               0.000166808               0.999999993               0.000188295               0.000177460               0.999999993               0.000199065               0.000188079               0.999999993               0.000210597               0.000198438               0.999999993               0.000222827               0.000208298               0.999999993               0.000235651               0.000217203               0.999999993               0.000091810               0.000171377               0.999999993               0.000105204               0.000149366               0.999999993               0.000110719               0.000143838               0.999999993               0.000114340               0.000146546               0.999999993               0.000118083               0.000153958               0.999999993               0.000122726               0.000164467               0.999999993               0.000128395               0.000176968               0.999999993               0.000135011               0.000190623               0.999999993               0.000142460               0.000204982               0.999999993               0.000150718               0.000220025               0.999999993               0.000159732               0.000235579               0.999999993               0.000169466               0.000251483               0.999999993               0.000179948               0.000267647               0.999999993               0.000191164               0.000284010               0.999999993               0.000203059               0.000300235               0.999999993               0.000215498               0.000316015               0.999999993               0.000228444               0.000331022               0.999999993               0.000087851               0.000225793               0.999999993               0.000094363               0.000197160               0.999999993               0.000096924               0.000191061               0.999999993               0.000099608               0.000195701               0.999999993               0.000103541               0.000206337               0.999999993               0.000108902               0.000220730               0.999999993               0.000115488               0.000237495               0.999999993               0.000123105               0.000255624               0.999999993               0.000131556               0.000274652               0.999999993               0.000140796               0.000294593               0.999999993               0.000150772               0.000315202               0.999999993               0.000161425               0.000336345               0.999999993               0.000172712               0.000357995               0.999999993               0.000184593               0.000379962               0.999999993               0.000196959               0.000401925               0.999999993               0.000209701               0.000423510               0.999999993               0.000222753               0.000444504               0.999999993               0.000082915               0.000277777               0.999999993               0.000081573               0.000243441               0.999999993               0.000081531               0.000237544               0.999999993               0.000083957               0.000244585               0.999999993               0.000088741               0.000258624               0.999999993               0.000095277               0.000276896               0.999999993               0.000103171               0.000297846               0.999999993               0.000112099               0.000320372               0.999999993               0.000121827               0.000344052               0.999999993               0.000132293               0.000368717               0.999999993               0.000143385               0.000394221               0.999999993               0.000155072               0.000420331               0.999999993               0.000167268               0.000447220               0.999999993               0.000179855               0.000474495               0.999999993               0.000192779               0.000501757               0.999999993               0.000205885               0.000528727               0.999999993               0.000219088               0.000555191               0.999999993               0.000077012               0.000326851               0.999999993               0.000067651               0.000288091               0.999999993               0.000065942               0.000282958               0.999999993               0.000068982               0.000292664               0.999999993               0.000075112               0.000310137               0.999999993               0.000083207               0.000332202               0.999999993               0.000092621               0.000357235               0.999999993               0.000102977               0.000384138               0.999999993               0.000114097               0.000412294               0.999999993               0.000125823               0.000441469               0.999999993               0.000138115               0.000471512               0.999999993               0.000150873               0.000502399               0.999999993               0.000164073               0.000534080               0.999999993               0.000177569               0.000566129               0.999999993               0.000191132               0.000598133               0.999999993               0.000204652               0.000629715               0.999999993               0.000218044               0.000660838               0.999999993               0.000070487               0.000372359               0.999999993               0.000053549               0.000330910               0.999999993               0.000051145               0.000327009               0.999999993               0.000055450               0.000339450               0.999999993               0.000063239               0.000360321               0.999999993               0.000073145               0.000386108               0.999999993               0.000084293               0.000415055               0.999999993               0.000096261               0.000446037               0.999999993               0.000108706               0.000478460               0.999999993               0.000121639               0.000511901               0.999999993               0.000135100               0.000546392               0.999999993               0.000149020               0.000581726               0.999999993               0.000163227               0.000617809               0.999999993               0.000177495               0.000654132               0.999999993               0.000191535               0.000690081               0.999999993               0.000205181               0.000725542               0.999999993               0.000218408               0.000760326               0.999999993               0.000063770               0.000413536               0.999999993               0.000039760               0.000371818               0.999999993               0.000037841               0.000369346               0.999999993               0.000043839               0.000384354               0.999999993               0.000053709               0.000408483               0.999999993               0.000065549               0.000437829               0.999999993               0.000078366               0.000470525               0.999999993               0.000091598               0.000505495               0.999999993               0.000105171               0.000542001               0.999999993               0.000119313               0.000579728               0.999999993               0.000133865               0.000618547               0.999999993               0.000148739               0.000658127               0.999999993               0.000163696               0.000698097               0.999999993               0.000178268               0.000737929               0.999999993               0.000192380               0.000777286               0.999999993               0.000206093               0.000816034               0.999999993               0.000219443               0.000854196               0.999999993               0.000057369               0.000451927               0.999999993               0.000029297               0.000414755               0.999999993               0.000025369               0.000408856               0.999999993               0.000030132               0.000419557               0.999999993               0.000038919               0.000439766               0.999999993               0.000049712               0.000465508               0.999999993               0.000061376               0.000494777               0.999999993               0.000073353               0.000526418               0.999999993               0.000085546               0.000559829               0.999999993               0.000098048               0.000594573               0.999999993               0.000110744               0.000630339               0.999999993               0.000123731               0.000667034               0.999999993               0.000136888               0.000704274               0.999999993               0.000149907               0.000741769               0.999999993               0.000162510               0.000779156               0.999999993               0.000174733               0.000816192               0.999999993               0.000186880               0.000852797               0.999999993               0.000050236               0.000486332               0.999999993               0.000020738               0.000455497               0.999999993               0.000014862               0.000448523               0.999999993               0.000017961               0.000455937               0.999999993               0.000025236               0.000472612               0.999999993               0.000034684               0.000495139               0.999999993               0.000045105               0.000521358               0.999999993               0.000055849               0.000550002               0.999999993               0.000066660               0.000580488               0.999999993               0.000077479               0.000612388               0.999999993               0.000088272               0.000645472               0.999999993               0.000099161               0.000679386               0.999999993               0.000110126               0.000713998               0.999999993               0.000121136               0.000748987               0.999999993               0.000131703               0.000784220               0.999999993               0.000141713               0.000819405               0.999999993               0.000151364               0.000854460               0.999999993               0.000042624               0.000516149               0.999999993               0.000014010               0.000492939               0.999999993               0.000006778               0.000486644               0.999999993               0.000008093               0.000492189               0.999999993               0.000013448               0.000506108               0.999999993               0.000021365               0.000525803               0.999999993               0.000030420               0.000549349               0.999999993               0.000039768               0.000575515               0.999999993               0.000049055               0.000603595               0.999999993               0.000058146               0.000633149               0.999999993               0.000066998               0.000663876               0.999999993               0.000075740               0.000695485               0.999999993               0.000084473               0.000727747               0.999999993               0.000093138               0.000760500               0.999999993               0.000101365               0.000793534               0.999999993               0.000108624               0.000826716               0.999999993               0.000115021               0.000860021               0.999999993               0.000034595               0.000541027               0.999999993               0.000009005               0.000525787               0.999999993               0.000001220               0.000521506               0.999999993               0.000001011               0.000526468               0.999999993               0.000004552               0.000538515               0.999999993               0.000010687               0.000556002               0.999999993               0.000018115               0.000577404               0.999999993               0.000025855               0.000601588               0.999999993               0.000033548               0.000627790               0.999999993               0.000040938               0.000655586               0.999999993               0.000047925               0.000684523               0.999999993               0.000054662               0.000714290               0.999999993               0.000061207               0.000744706               0.999999993               0.000067422               0.000775677               0.999999993               0.000072990               0.000807073               0.999999993               0.000077357               0.000838720               0.999999993               0.000080048               0.000870511               0.999999993               0.000026257               0.000560613               0.999999993               0.000005468               0.000552816               0.999999993              -0.000001784               0.000551170               0.999999993              -0.000002943               0.000556456               0.999999993              -0.000000909               0.000567670               0.999999993               0.000003348               0.000583691               0.999999993               0.000008972               0.000603496               0.999999993               0.000014946               0.000626074               0.999999993               0.000020918               0.000650848               0.999999993               0.000026571               0.000677299               0.999999993               0.000031868               0.000704994               0.999999993               0.000036825               0.000733636               0.999999993               0.000041441               0.000762911               0.999999993               0.000045379               0.000792754               0.999999993               0.000048331               0.000823151               0.999999993               0.000049939               0.000853872               0.999999993               0.000049490               0.000884819               0.999999993               0.000017659               0.000574727               0.999999993               0.000003063               0.000572947               0.999999993              -0.000002566               0.000573956               0.999999993              -0.000003985               0.000580016               0.999999993              -0.000003030               0.000590963               0.999999993              -0.000000379               0.000606116               0.999999993               0.000003374               0.000624795               0.999999993               0.000007416               0.000646281               0.999999993               0.000011481               0.000670040               0.999999993               0.000015367               0.000695648               0.999999993               0.000018980               0.000722697               0.999999993               0.000022245               0.000750755               0.999999993               0.000025155               0.000779642               0.999999993               0.000027397               0.000809128               0.999999993               0.000028562               0.000839070               0.999999993               0.000028281               0.000869361               0.999999993               0.000026024               0.000899914               0.999999993               0.000008876               0.000583223               0.999999993               0.000001375               0.000585372               0.999999993              -0.000001731               0.000588376               0.999999993              -0.000002664               0.000595192               0.999999993              -0.000002351               0.000606099               0.999999993              -0.000001065               0.000620842               0.999999993               0.000000820               0.000638916               0.999999993               0.000002838               0.000659765               0.999999993               0.000004876               0.000682969               0.999999993               0.000006824               0.000708063               0.999999993               0.000008637               0.000734794               0.999999993               0.000010327               0.000762789               0.999999993               0.000011775               0.000791705               0.999999993               0.000012817               0.000821352               0.999999993               0.000013160               0.000851569               0.999999993               0.000012431               0.000882110               0.999999993               0.000010205               0.000912720               0.999999993               0.000000000               0.000586035               0.999999993               0.000000000               0.000589561               0.999999993               0.000000000               0.000593280               0.999999993              -0.000000000               0.000600397               0.999999993               0.000000000               0.000611357               0.999999993               0.000000000               0.000625917               0.999999993              -0.000000000               0.000643833               0.999999993               0.000000000               0.000664525               0.999999993              -0.000000000               0.000687509               0.999999993               0.000000000               0.000712525               0.999999993               0.000000000               0.000739169               0.999999993              -0.000000000               0.000767155               0.999999993              -0.000000000               0.000796220               0.999999993              -0.000000000               0.000826132               0.999999993               0.000000000               0.000856735               0.999999993               0.000000000               0.000887638               0.999999993               0.000000000               0.000918446               0.999999993 </DataArray>
<DataArray type="Float64"                                    Name="defo"                                                      NumberOfComponents=" 3" format="ascii">
             -0.000096866               0.000000000               0.999999993              -0.000119960               0.000000000               0.999999993              -0.000130828               0.000000000               0.999999993              -0.000137060               0.000000000               0.999999993              -0.000141755               0.000000000               0.999999993              -0.000146268               0.000000000               0.999999993              -0.000151220               0.000000000               0.999999993              -0.000156897              -0.000000000               0.999999993              -0.000163449               0.000000000               0.999999993              -0.000170883               0.000000000               0.999999993              -0.000179215              -0.000000000               0.999999993              -0.000188425               0.000000000               0.999999993              -0.000198456               0.000000000               0.999999993              -0.000209268               0.000000000               0.999999993              -0.000220781               0.000000000               0.999999993              -0.000232954               0.000000000               0.999999993              -0.000245697               0.000000000               0.999999993              -0.000096291               0.000057868               0.999999993              -0.000118263               0.000050445               0.999999993              -0.000128470               0.000048129               0.999999993              -0.000134323               0.000048596               0.999999993              -0.000138790               0.000050712               0.999999993              -0.000143220               0.000054017               0.999999993              -0.000148234               0.000058111               0.999999993              -0.000154038               0.000062688               0.999999993              -0.000160688               0.000067514               0.999999993              -0.000168171               0.000072546               0.999999993              -0.000176488               0.000077753               0.999999993              -0.000185672               0.000083001               0.999999993              -0.000195672               0.000088190               0.999999993              -0.000206422               0.000093303               0.999999993              -0.000217931               0.000098209               0.999999993              -0.000230122               0.000102754               0.999999993              -0.000242879               0.000106532               0.999999993              -0.000094631               0.000115180               0.999999993              -0.000113301               0.000100366               0.999999993              -0.000121575               0.000096128               0.999999993              -0.000126427               0.000097431               0.999999993              -0.000130467               0.000101987               0.999999993              -0.000134854               0.000108800               0.999999993              -0.000140029               0.000117046               0.999999993              -0.000146066               0.000126127               0.999999993              -0.000152953               0.000135752               0.999999993              -0.000160617               0.000145827               0.999999993              -0.000169039               0.000156240               0.999999993              -0.000178262               0.000166808               0.999999993              -0.000188295               0.000177460               0.999999993              -0.000199065               0.000188079               0.999999993              -0.000210597               0.000198438               0.999999993              -0.000222827               0.000208298               0.999999993              -0.000235651               0.000217203               0.999999993              -0.000091810               0.000171377               0.999999993              -0.000105204               0.000149366               0.999999993              -0.000110719               0.000143838               0.999999993              -0.000114340               0.000146546               0.999999993              -0.000118083               0.000153958               0.999999993              -0.000122726               0.000164467               0.999999993              -0.000128395               0.000176968               0.999999993              -0.000135011               0.000190623               0.999999993              -0.000142460               0.000204982               0.999999993              -0.000150718               0.000220025               0.999999993              -0.000159732               0.000235579               0.999999993              -0.000169466               0.000251483               0.999999993              -0.000179948               0.000267647               0.999999993              -0.000191164               0.000284010               0.999999993              -0.000203059               0.000300235               0.999999993              -0.000215498               0.000316015               0.999999993              -0.000228444               0.000331022               0.999999993              -0.000087851               0.000225793               0.999999993              -0.000094363               0.000197160               0.999999993              -0.000096924               0.000191061               0.999999993              -0.000099608               0.000195701               0.999999993              -0.000103541               0.000206337               0.999999993              -0.000108902               0.000220730               0.999999993              -0.000115488               0.000237495               0.999999993              -0.000123105               0.000255624               0.999999993              -0.000131556               0.000274652               0.999999993              -0.000140796               0.000294593               0.999999993              -0.000150772               0.000315202               0.999999993              -0.000161425               0.000336345               0.999999993              -0.000172712               0.000357995               0.999999993              -0.000184593               0.000379962               0.999999993              -0.000196959               0.000401925               0.999999993              -0.000209701               0.000423510               0.999999993              -0.000222753               0.000444504               0.999999993              -0.000082915               0.000277777               0.999999993              -0.000081573               0.000243441               0.999999993              -0.000081531               0.000237544               0.999999993              -0.000083957               0.000244585               0.999999993              -0.000088741               0.000258624               0.999999993              -0.000095277               0.000276896               0.999999993              -0.000103171               0.000297846               0.999999993              -0.000112099               0.000320372               0.999999993              -0.000121827               0.000344052               0.999999993              -0.000132293               0.000368717               0.999999993              -0.000143385               0.000394221               0.999999993              -0.000155072               0.000420331               0.999999993              -0.000167268               0.000447220               0.999999993              -0.000179855               0.000474495               0.999999993              -0.000192779               0.000501757               0.999999993              -0.000205885               0.000528727               0.999999993              -0.000219088               0.000555191               0.999999993              -0.000077012               0.000326851               0.999999993              -0.000067651               0.000288091               0.999999993              -0.000065942               0.000282958               0.999999993              -0.000068982               0.000292664               0.999999993              -0.000075112               0.000310137               0.999999993              -0.000083207               0.000332202               0.999999993              -0.000092621               0.000357235               0.999999993              -0.000102977               0.000384138               0.999999993              -0.000114097               0.000412294               0.999999993              -0.000125823               0.000441469               0.999999993              -0.000138115               0.000471512               0.999999993              -0.000150873               0.000502399               0.999999993              -0.000164073               0.000534080               0.999999993              -0.000177569               0.000566129               0.999999993              -0.000191132               0.000598133               0.999999993              -0.000204652               0.000629715               0.999999993              -0.000218044               0.000660838               0.999999993              -0.000070487               0.000372359               0.999999993              -0.000053549               0.000330910               0.999999993              -0.000051145               0.000327009               0.999999993              -0.000055450               0.000339450               0.999999993              -0.000063239               0.000360321               0.999999993              -0.000073145               0.000386108               0.999999993              -0.000084293               0.000415055               0.999999993              -0.000096261               0.000446037               0.999999993              -0.000108706               0.000478460               0.999999993              -0.000121639               0.000511901               0.999999993              -0.000135100               0.000546392               0.999999993              -0.000149020               0.000581726               0.999999993              -0.000163227               0.000617809               0.999999993              -0.000177495               0.000654132               0.999999993              -0.000191535               0.000690081               0.999999993              -0.000205181               0.000725542               0.999999993              -0.000218408               0.000760326               0.999999993              -0.000063770               0.000413536               0.999999993              -0.000039760               0.000371818               0.999999993              -0.000037841               0.000369346               0.999999993              -0.000043839               0.000384354               0.999999993              -0.000053709               0.000408483               0.999999993              -0.000065549               0.000437829               0.999999993              -0.000078366               0.000470525               0.999999993              -0.000091598               0.000505495               0.999999993              -0.000105171               0.000542001               0.999999993              -0.000119313               0.000579728               0.999999993              -0.000133865               0.000618547               0.999999993              -0.000148739               0.000658127               0.999999993              -0.000163696               0.000698097               0.999999993              -0.000178268               0.000737929               0.999999993              -0.000192380               0.000777286               0.999999993              -0.000206093               0.000816034               0.999999993              -0.000219443               0.000854196               0.999999993              -0.000057369               0.000451927               0.999999993              -0.000029297               0.000414755               0.999999993              -0.000025369               0.000408856               0.999999993              -0.000030132               0.000419557               0.999999993              -0.000038919               0.000439766               0.999999993              -0.000049712               0.000465508               0.999999993              -0.000061376               0.000494777               0.999999993              -0.000073353               0.000526418               0.999999993              -0.000085546               0.000559829               0.999999993              -0.000098048               0.000594573               0.999999993              -0.000110744               0.000630339               0.999999993              -0.000123731               0.000667034               0.999999993              -0.000136888               0.000704274               0.999999993              -0.000149907               0.000741769               0.999999993              -0.000162510               0.000779156               0.999999993              -0.000174733               0.000816192               0.999999993              -0.000186880               0.000852797               0.999999993              -0.000050236               0.000486332               0.999999993              -0.000020738               0.000455497               0.999999993              -0.000014862               0.000448523               0.999999993              -0.000017961               0.000455937               0.999999993              -0.000025236               0.000472612               0.999999993              -0.000034684               0.000495139               0.999999993              -0.000045105               0.000521358               0.999999993              -0.000055849               0.000550002               0.999999993              -0.000066660               0.000580488               0.999999993              -0.000077479               0.000612388               0.999999993              -0.000088272               0.000645472               0.999999993              -0.000099161               0.000679386               0.999999993              -0.000110126               0.000713998               0.999999993              -0.000121136               0.000748987               0.999999993              -0.000131703               0.000784220               0.999999993              -0.000141713               0.000819405               0.999999993              -0.000151364               0.000854460               0.999999993              -0.000042624               0.000516149               0.999999993              -0.000014010               0.000492939               0.999999993              -0.000006778               0.000486644               0.999999993              -0.000008093               0.000492189               0.999999993              -0.000013448               0.000506108               0.999999993              -0.000021365               0.000525803               0.999999993              -0.000030420               0.000549349               0.999999993              -0.000039768               0.000575515               0.999999993              -0.000049055               0.000603595               0.999999993              -0.000058146               0.000633149               0.999999993              -0.000066998               0.000663876               0.999999993              -0.000075740               0.000695485               0.999999993              -0.000084473               0.000727747               0.999999993              -0.000093138               0.000760500               0.999999993              -0.000101365               0.000793534               0.999999993              -0.000108624               0.000826716               0.999999993              -0.000115021               0.000860021               0.999999993              -0.000034595               0.000541027               0.999999993              -0.000009005               0.000525787               0.999999993              -0.000001220               0.000521506               0.999999993              -0.000001011               0.000526468               0.999999993              -0.000004552               0.000538515               0.999999993              -0.000010687               0.000556002               0.999999993              -0.000018115               0.000577404               0.999999993              -0.000025855               0.000601588               0.999999993              -0.000033548               0.000627790               0.999999993              -0.000040938               0.000655586               0.999999993              -0.000047925               0.000684523               0.999999993              -0.000054662               0.000714290               0.999999993              -0.000061207               0.000744706               0.999999993              -0.000067422               0.000775677               0.999999993              -0.000072990               0.000807073               0.999999993              -0.000077357               0.000838720               0.999999993              -0.000080048               0.000870511               0.999999993              -0.000026257               0.000560613               0.999999993              -0.000005468               0.000552816               0.999999993               0.000001784               0.000551170               0.999999993               0.000002943               0.000556456               0.999999993               0.000000909               0.000567670               0.999999993              -0.000003348               0.000583691               0.999999993              -0.000008972               0.000603496               0.999999993              -0.000014946               0.000626074               0.999999993              -0.000020918               0.000650848               0.999999993              -0.000026571               0.000677299               0.999999993              -0.000031868               0.000704994               0.999999993              -0.000036825               0.000733636               0.999999993              -0.000041441               0.000762911               0.999999993              -0.000045379               0.000792754               0.999999993              -0.000048331               0.000823151               0.999999993              -0.000049939               0.000853872               0.999999993              -0.000049490               0.000884819               0.999999993              -0.000017659               0.000574727               0.999999993              -0.000003063               0.000572947               0.999999993               0.000002566               0.000573956               0.999999993               0.000003985               0.000580016               0.999999993               0.000003030               0.000590963               0.999999993               0.000000379               0.000606116               0.999999993              -0.000003374               0.000624795               0.999999993              -0.000007416               0.000646281               0.999999993              -0.000011481               0.000670040               0.999999993              -0.000015367               0.000695648               0.999999993              -0.000018980               0.000722697               0.999999993              -0.000022245               0.000750755               0.999999993              -0.000025155               0.000779642               0.999999993              -0.000027397               0.000809128               0.999999993              -0.000028562               0.000839070               0.999999993              -0.000028281               0.000869361               0.999999993              -0.000026024               0.000899914               0.999999993              -0.000008876               0.000583223               0.999999993              -0.000001375               0.000585372               0.999999993               0.000001731               0.000588376               0.999999993               0.000002664               0.000595192               0.999999993               0.000002351               0.000606099               0.999999993               0.000001065               0.000620842               0.999999993              -0.000000820               0.000638916               0.999999993              -0.000002838               0.000659765               0.999999993              -0.000004876               0.000682969               0.999999993              -0.000006824               0.000708063               0.999999993              -0.000008637               0.000734794               0.999999993              -0.000010327               0.000762789               0.999999993              -0.000011775               0.000791705               0.999999993              -0.000012817               0.000821352               0.999999993              -0.000013160               0.000851569               0.999999993              -0.000012431               0.000882110               0.999999993              -0.000010205               0.000912720               0.999999993               0.000000000               0.000586035               0.999999993               0.000000000               0.000589561               0.999999993               0.000000000               0.000593280               0.999999993              -0.000000000               0.000600397               0.999999993               0.000000000               0.000611357               0.999999993               0.000000000               0.000625917               0.999999993              -0.000000000               0.000643833               0.999999993               0.000000000               0.000664525               0.999999993              -0.000000000               0.000687509               0.999999993               0.000000000               0.000712525               0.999999993               0.000000000               0.000739169               0.999999993              -0.000000000               0.000767155               0.999999993              -0.000000000               0.000796220               0.999999993              -0.000000000               0.000826132               0.999999993               0.000000000               0.000856735               0.999999993               0.000000000               0.000887638               0.999999993               0.000000000               0.000918446               0.999999993              -0.000096866               0.000000000               0.999999993              -0.000119960               0.000000000               0.999999993              -0.000130828               0.000000000               0.999999993              -0.000137060               0.000000000               0.999999993              -0.000141755               0.000000000               0.999999993              -0.000146268               0.000000000               0.999999993              -0.000151220               0.000000000               0.999999993              -0.000156897              -0.000000000               0.999999993              -0.000163449               0.000000000               0.999999993              -0.000170883               0.000000000               0.999999993              -0.000179215              -0.000000000               0.999999993              -0.000188425               0.000000000               0.999999993              -0.000198456               0.000000000               0.999999993              -0.000209268               0.000000000               0.999999993              -0.000220781               0.000000000               0.999999993              -0.000232954               0.000000000               0.999999993              -0.000245697               0.000000000               0.999999993              -0.000096291              -0.000057868               0.999999993              -0.000118263              -0.000050445               0.999999993              -0.000128470              -0.000048129               0.999999993              -0.000134323              -0.000048596               0.999999993              -0.000138790              -0.000050712               0.999999993              -0.000143220              -0.000054017               0.999999993              -0.000148234              -0.000058111               0.999999993              -0.000154038              -0.000062688               0.999999993              -0.000160688              -0.000067514               0.999999993              -0.000168171              -0.000072546               0.999999993              -0.000176488              -0.000077753               0.999999993              -0.000185672              -0.000083001               0.999999993              -0.000195672              -0.000088190               0.999999993              -0.000206422              -0.000093303               0.999999993              -0.000217931              -0.000098209               0.999999993              -0.000230122              -0.000102754               0.999999993              -0.000242879              -0.000106532               0.999999993              -0.000094631              -0.000115180               0.999999993              -0.000113301              -0.000100366               0.999999993              -0.000121575              -0.000096128               0.999999993              -0.000126427              -0.000097431               0.999999993              -0.000130467              -0.000101987               0.999999993              -0.000134854              -0.000108800               0.999999993              -0.000140029              -0.000117046               0.999999993              -0.000146066              -0.000126127               0.999999993              -0.000152953              -0.000135752               0.999999993              -0.000160617              -0.000145827               0.999999993              -0.000169039              -0.000156240               0.999999993              -0.000178262              -0.000166808               0.999999993              -0.000188295              -0.000177460               0.999999993              -0.000199065              -0.000188079               0.999999993              -0.000210597              -0.000198438               0.999999993              -0.000222827              -0.000208298               0.999999993              -0.000235651              -0.000217203               0.999999993              -0.000091810              -0.000171377               0.999999993              -0.000105204              -0.000149366               0.999999993              -0.000110719              -0.000143838               0.999999993              -0.000114340              -0.000146546               0.999999993              -0.000118083              -0.000153958               0.999999993              -0.000122726              -0.000164467               0.999999993              -0.000128395              -0.000176968               0.999999993              -0.000135011              -0.000190623               0.999999993              -0.000142460              -0.000204982               0.999999993              -0.000150718              -0.000220025               0.999999993              -0.000159732              -0.000235579               0.999999993              -0.000169466              -0.000251483               0.999999993              -0.000179948              -0.000267647               0.999999993              -0.000191164              -0.000284010               0.999999993              -0.000203059              -0.000300235               0.999999993              -0.000215498              -0.000316015               0.999999993              -0.000228444              -0.000331022               0.999999993              -0.000087851              -0.000225793               0.999999993              -0.000094363              -0.000197160               0.999999993              -0.000096924              -0.000191061               0.999999993              -0.000099608              -0.000195701               0.999999993              -0.000103541              -0.000206337               0.999999993              -0.000108902              -0.000220730               0.999999993              -0.000115488              -0.000237495               0.999999993              -0.000123105              -0.000255624               0.999999993              -0.000131556              -0.000274652               0.999999993              -0.000140796              -0.000294593               0.999999993              -0.000150772              -0.000315202               0.999999993              -0.000161425              -0.000336345               0.999999993              -0.000172712              -0.000357995               0.999999993              -0.000184593              -0.000379962               0.999999993              -0.000196959              -0.000401925               0.999999993              -0.000209701              -0.000423510               0.999999993              -0.000222753              -0.000444504               0.999999993              -0.000082915              -0.000277777               0.999999993              -0.000081573              -0.000243441               0.999999993              -0.000081531              -0.000237544               0.999999993              -0.000083957              -0.000244585               0.999999993              -0.000088741              -0.000258624               0.999999993              -0.000095277              -0.000276896               0.999999993              -0.000103171              -0.000297846               0.999999993              -0.000112099              -0.000320372               0.999999993              -0.000121827              -0.000344052               0.999999993              -0.000132293              -0.000368717               0.999999993              -0.000143385              -0.000394221               0.999999993              -0.000155072              -0.000420331               0.999999993              -0.000167268              -0.000447220               0.999999993              -0.000179855              -0.000474495               0.999999993              -0.000192779              -0.000501757               0.999999993              -0.000205885              -0.000528727               0.999999993              -0.000219088              -0.000555191               0.999999993              -0.000077012              -0.000326851               0.999999993              -0.000067651              -0.000288091               0.999999993              -0.000065942              -0.000282958               0.999999993              -0.000068982              -0.000292664               0.999999993              -0.000075112              -0.000310137               0.999999993              -0.000083207              -0.000332202               0.999999993              -0.000092621              -0.000357235               0.999999993              -0.000102977              -0.000384138               0.999999993              -0.000114097              -0.000412294               0.999999993              -0.000125823              -0.000441469               0.999999993              -0.000138115              -0.000471512               0.999999993              -0.000150873              -0.000502399               0.999999993              -0.000164073              -0.000534080               0.999999993              -0.000177569              -0.000566129               0.999999993              -0.000191132              -0.000598133               0.999999993              -0.000204652              -0.000629715               0.999999993              -0.000218044              -0.000660838               0.999999993              -0.000070487              -0.000372359               0.999999993              -0.000053549              -0.000330910               0.999999993              -0.000051145              -0.000327009               0.999999993              -0.000055450              -0.000339450               0.999999993              -0.000063239              -0.000360321               0.999999993              -0.000073145              -0.000386108               0.999999993              -0.000084293              -0.000415055               0.999999993              -0.000096261              -0.000446037               0.999999993              -0.000108706              -0.000478460               0.999999993              -0.000121639              -0.000511901               0.999999993              -0.000135100              -0.000546392               0.999999993              -0.000149020              -0.000581726               0.999999993              -0.000163227              -0.000617809               0.999999993              -0.000177495              -0.000654132               0.999999993              -0.000191535              -0.000690081               0.999999993              -0.000205181              -0.000725542               0.999999993              -0.000218408              -0.000760326               0.999999993              -0.000063770              -0.000413536               0.999999993              -0.000039760              -0.000371818               0.999999993              -0.000037841              -0.000369346               0.999999993              -0.000043839              -0.000384354               0.999999993              -0.000053709              -0.000408483               0.999999993              -0.000065549              -0.000437829               0.999999993              -0.000078366              -0.000470525               0.999999993              -0.000091598              -0.000505495               0.999999993              -0.000105171              -0.000542001               0.999999993              -0.000119313              -0.000579728               0.999999993              -0.000133865              -0.000618547               0.999999993              -0.000148739              -0.000658127               0.999999993              -0.000163696              -0.000698097               0.999999993              -0.000178268              -0.000737929               0.999999993              -0.000192380              -0.000777286               0.999999993              -0.000206093              -0.000816034               0.999999993              -0.000219443              -0.000854196               0.999999993              -0.000057369              -0.000451927               0.999999993              -0.000029297              -0.000414755               0.999999993              -0.000025369              -0.000408856               0.999999993              -0.000030132              -0.000419557               0.999999993              -0.000038919              -0.000439766               0.999999993              -0.000049712              -0.000465508               0.999999993              -0.000061376              -0.000494777               0.999999993              -0.000073353              -0.000526418               0.999999993              -0.000085546              -0.000559829               0.999999993              -0.000098048              -0.000594573               0.999999993              -0.000110744              -0.000630339               0.999999993              -0.000123731              -0.000667034               0.999999993              -0.000136888              -0.000704274               0.999999993              -0.000149907              -0.000741769               0.999999993              -0.000162510              -0.000779156               0.999999993              -0.000174733              -0.000816192               0.999999993              -0.000186880              -0.000852797               0.999999993              -0.000050236              -0.000486332               0.999999993              -0.000020738              -0.000455497               0.999999993              -0.000014862              -0.000448523               0.999999993              -0.000017961              -0.000455937               0.999999993              -0.000025236              -0.000472612               0.999999993              -0.000034684              -0.000495139               0.999999993              -0.000045105              -0.000521358               0.999999993              -0.000055849              -0.000550002               0.999999993              -0.000066660              -0.000580488               0.999999993              -0.000077479              -0.000612388               0.999999993              -0.000088272              -0.000645472               0.999999993              -0.000099161              -0.000679386               0.999999993              -0.000110126              -0.000713998               0.999999993              -0.000121136              -0.000748987               0.999999993              -0.000131703              -0.000784220               0.999999993              -0.000141713              -0.000819405               0.999999993              -0.000151364              -0.000854460               0.999999993              -0.000042624              -0.000516149               0.999999993              -0.000014010              -0.000492939               0.999999993              -0.000006778              -0.000486644               0.999999993              -0.000008093              -0.000492189               0.999999993              -0.000013448              -0.000506108               0.999999993              -0.000021365              -0.000525803               0.999999993              -0.000030420              -0.000549349               0.999999993              -0.000039768              -0.000575515               0.999999993              -0.000049055              -0.000603595               0.999999993              -0.000058146              -0.000633149               0.999999993              -0.000066998              -0.000663876               0.999999993              -0.000075740              -0.000695485               0.999999993              -0.000084473              -0.000727747               0.999999993              -0.000093138              -0.000760500               0.999999993              -0.000101365              -0.000793534               0.999999993              -0.000108624              -0.000826716               0.999999993              -0.000115021              -0.000860021               0.999999993              -0.000034595              -0.000541027               0.999999993              -0.000009005              -0.000525787               0.999999993              -0.000001220              -0.000521506               0.999999993              -0.000001011              -0.000526468               0.999999993              -0.000004552              -0.000538515               0.999999993              -0.000010687              -0.000556002               0.999999993              -0.000018115              -0.000577404               0.999999993              -0.000025855              -0.000601588               0.999999993              -0.000033548              -0.000627790               0.999999993              -0.000040938              -0.000655586               0.999999993              -0.000047925              -0.000684523               0.999999993              -0.000054662              -0.000714290               0.999999993              -0.000061207              -0.000744706               0.999999993              -0.000067422              -0.000775677               0.999999993              -0.000072990              -0.000807073               0.999999993              -0.000077357              -0.000838720               0.999999993              -0.000080048              -0.000870511               0.999999993              -0.000026257              -0.000560613               0.999999993              -0.000005468              -0.000552816               0.999999993               0.000001784              -0.000551170               0.999999993               0.000002943              -0.000556456               0.999999993               0.000000909              -0.000567670               0.999999993              -0.000003348              -0.000583691               0.999999993              -0.000008972              -0.000603496               0.999999993              -0.000014946              -0.000626074               0.999999993              -0.000020918              -0.000650848               0.999999993              -0.000026571              -0.000677299               0.999999993              -0.000031868              -0.000704994               0.999999993              -0.000036825              -0.000733636               0.999999993              -0.000041441              -0.000762911               0.999999993              -0.000045379              -0.000792754               0.999999993              -0.000048331              -0.000823151               0.999999993              -0.000049939              -0.000853872               0.999999993              -0.000049490              -0.000884819               0.999999993              -0.000017659              -0.000574727               0.999999993              -0.000003063              -0.000572947               0.999999993               0.000002566              -0.000573956               0.999999993               0.000003985              -0.000580016               0.999999993               0.000003030              -0.000590963               0.999999993               0.000000379              -0.000606116               0.999999993              -0.000003374              -0.000624795               0.999999993              -0.000007416              -0.000646281               0.999999993              -0.000011481              -0.000670040               0.999999993              -0.000015367              -0.000695648               0.999999993              -0.000018980              -0.000722697               0.999999993              -0.000022245              -0.000750755               0.999999993              -0.000025155              -0.000779642               0.999999993              -0.000027397              -0.000809128               0.999999993              -0.000028562              -0.000839070               0.999999993              -0.000028281              -0.000869361               0.999999993              -0.000026024              -0.000899914               0.999999993              -0.000008876              -0.000583223               0.999999993              -0.000001375              -0.000585372               0.999999993               0.000001731              -0.000588376               0.999999993               0.000002664              -0.000595192               0.999999993               0.000002351              -0.000606099               0.999999993               0.000001065              -0.000620842               0.999999993              -0.000000820              -0.000638916               0.999999993              -0.000002838              -0.000659765               0.999999993              -0.000004876              -0.000682969               0.999999993              -0.000006824              -0.000708063               0.999999993              -0.000008637              -0.000734794               0.999999993              -0.000010327              -0.000762789               0.999999993              -0.000011775              -0.000791705               0.999999993              -0.000012817              -0.000821352               0.999999993              -0.000013160              -0.000851569               0.999999993              -0.000012431              -0.000882110               0.999999993              -0.000010205              -0.000912720               0.999999993               0.000000000              -0.000586035               0.999999993              -0.000000000              -0.000589561               0.999999993              -0.000000000              -0.000593280               0.999999993              -0.000000000              -0.000600397               0.999999993              -0.000000000              -0.000611357               0.999999993               0.000000000              -0.000625917               0.999999993               0.000000000              -0.000643833               0.999999993              -0.000000000              -0.000664525               0.999999993              -0.000000000              -0.000687509               0.999999993              -0.000000000              -0.000712525               0.999999993              -0.000000000              -0.000739169               0.999999993              -0.000000000              -0.000767155               0.999999993               0.000000000              -0.000796220               0.999999993               0.000000000              -0.000826132               0.999999993              -0.000000000              -0.000856735               0.999999993               0.000000000              -0.000887638               0.999999993               0.000000000              -0.000918446               0.999999993               0.000096866              -0.000000000               0.999999993               0.000119960              -0.000000000               0.999999993               0.000130828              -0.000000000               0.999999993               0.000137060              -0.000000000               0.999999993               0.000141755              -0.000000000               0.999999993               0.000146268              -0.000000000               0.999999993               0.000151220              -0.000000000               0.999999993               0.000156897               0.000000000               0.999999993               0.000163449               0.000000000               0.999999993               0.000170883              -0.000000000               0.999999993               0.000179215              -0.000000000               0.999999993               0.000188425               0.000000000               0.999999993               0.000198456               0.000000000               0.999999993               0.000209268              -0.000000000               0.999999993               0.000220781              -0.000000000               0.999999993               0.000232954              -0.000000000               0.999999993               0.000245697               0.000000000               0.999999993               0.000096291              -0.000057868               0.999999993               0.000118263              -0.000050445               0.999999993               0.000128470              -0.000048129               0.999999993               0.000134323              -0.000048596               0.999999993               0.000138790              -0.000050712               0.999999993               0.000143220              -0.000054017               0.999999993               0.000148234              -0.000058111               0.999999993               0.000154038              -0.000062688               0.999999993               0.000160688              -0.000067514               0.999999993               0.000168171              -0.000072546               0.999999993               0.000176488              -0.000077753               0.999999993               0.000185672              -0.000083001               0.999999993               0.000195672              -0.000088190               0.999999993               0.000206422              -0.000093303               0.999999993               0.000217931              -0.000098209               0.999999993               0.000230122              -0.000102754               0.999999993               0.000242879              -0.000106532               0.999999993               0.000094631              -0.000115180               0.999999993               0.000113301              -0.000100366               0.999999993               0.000121575              -0.000096128               0.999999993               0.000126427              -0.000097431               0.999999993               0.000130467              -0.000101987               0.999999993               0.000134854              -0.000108800               0.999999993               0.000140029              -0.000117046               0.999999993               0.000146066              -0.000126127               0.999999993               0.000152953              -0.000135752               0.999999993               0.000160617              -0.000145827               0.999999993               0.000169039              -0.000156240               0.999999993               0.000178262              -0.000166808               0.999999993               0.000188295              -0.000177460               0.999999993               0.000199065              -0.000188079               0.999999993               0.000210597              -0.000198438               0.999999993               0.000222827              -0.000208298               0.999999993               0.000235651              -0.000217203               0.999999993               0.000091810              -0.000171377               0.999999993               0.000105204              -0.000149366               0.999999993               0.000110719              -0.000143838               0.999999993               0.000114340              -0.000146546               0.999999993               0.000118083              -0.000153958               0.999999993               0.000122726              -0.000164467               0.999999993               0.000128395              -0.000176968               0.999999993               0.000135011              -0.000190623               0.999999993               0.000142460              -0.000204982               0.999999993               0.000150718              -0.000220025               0.999999993               0.000159732              -0.000235579               0.999999993               0.000169466              -0.000251483               0.999999993               0.000179948              -0.000267647               0.999999993               0.000191164              -0.000284010               0.999999993               0.000203059              -0.000300235               0.999999993               0.000215498              -0.000316015               0.999999993               0.000228444              -0.000331022               0.999999993               0.000087851              -0.000225793               0.999999993               0.000094363              -0.000197160               0.999999993               0.000096924              -0.000191061               0.999999993               0.000099608              -0.000195701               0.999999993               0.000103541              -0.000206337               0.999999993               0.000108902              -0.000220730               0.999999993               0.000115488              -0.000237495               0.999999993               0.000123105              -0.000255624               0.999999993               0.000131556              -0.000274652               0.999999993               0.000140796              -0.000294593               0.999999993               0.000150772              -0.000315202               0.999999993               0.000161425              -0.000336345               0.999999993               0.000172712              -0.000357995               0.999999993               0.000184593              -0.000379962               0.999999993               0.000196959              -0.000401925               0.999999993               0.000209701              -0.000423510               0.999999993               0.000222753              -0.000444504               0.999999993               0.000082915              -0.000277777               0.999999993               0.000081573              -0.000243441               0.999999993               0.000081531              -0.000237544               0.999999993               0.000083957              -0.000244585               0.999999993               0.000088741              -0.000258624               0.999999993               0.000095277              -0.000276896               0.999999993               0.000103171              -0.000297846               0.999999993               0.000112099              -0.000320372               0.999999993               0.000121827              -0.000344052               0.999999993               0.000132293              -0.000368717               0.999999993               0.000143385              -0.000394221               0.999999993               0.000155072              -0.000420331               0.999999993               0.000167268              -0.000447220               0.999999993               0.000179855              -0.000474495               0.999999993               0.000192779              -0.000501757               0.999999993               0.000205885              -0.000528727               0.999999993               0.000219088              -0.000555191               0.999999993               0.000077012              -0.000326851               0.999999993               0.000067651              -0.000288091               0.999999993               0.000065942              -0.000282958               0.999999993               0.000068982              -0.000292664               0.999999993               0.000075112              -0.000310137               0.999999993               0.000083207              -0.000332202               0.999999993               0.000092621              -0.000357235               0.999999993               0.000102977              -0.000384138               0.999999993               0.000114097              -0.000412294               0.999999993               0.000125823              -0.000441469               0.999999993               0.000138115              -0.000471512               0.999999993               0.000150873              -0.000502399               0.999999993               0.000164073              -0.000534080               0.999999993               0.000177569              -0.000566129               0.999999993               0.000191132              -0.000598133               0.999999993               0.000204652              -0.000629715               0.999999993               0.000218044              -0.000660838               0.999999993               0.000070487              -0.000372359               0.999999993               0.000053549              -0.000330910               0.999999993               0.000051145              -0.000327009               0.999999993               0.000055450              -0.000339450               0.999999993               0.000063239              -0.000360321               0.999999993               0.000073145              -0.000386108               0.999999993               0.000084293              -0.000415055               0.999999993               0.000096261              -0.000446037               0.999999993               0.000108706              -0.000478460               0.999999993               0.000121639              -0.000511901               0.999999993               0.000135100              -0.000546392               0.999999993               0.000149020              -0.000581726               0.999999993               0.000163227              -0.000617809               0.999999993               0.000177495              -0.000654132               0.999999993               0.000191535              -0.000690081               0.999999993               0.000205181              -0.000725542               0.999999993               0.000218408              -0.000760326               0.999999993               0.000063770              -0.000413536               0.999999993               0.000039760              -0.000371818               0.999999993               0.000037841              -0.000369346               0.999999993               0.000043839              -0.000384354               0.999999993               0.000053709              -0.000408483               0.999999993               0.000065549              -0.000437829               0.999999993               0.000078366              -0.000470525               0.999999993               0.000091598              -0.000505495               0.999999993               0.000105171              -0.000542001               0.999999993               0.000119313              -0.000579728               0.999999993               0.000133865              -0.000618547               0.999999993               0.000148739              -0.000658127               0.999999993               0.000163696              -0.000698097               0.999999993               0.000178268              -0.000737929               0.999999993               0.000192380              -0.000777286               0.999999993               0.000206093              -0.000816034               0.999999993               0.000219443              -0.000854196               0.999999993               0.000057369              -0.000451927               0.999999993               0.000029297              -0.000414755               0.999999993               0.000025369              -0.000408856               0.999999993               0.000030132              -0.000419557               0.999999993               0.000038919              -0.000439766               0.999999993               0.000049712              -0.000465508               0.999999993               0.000061376              -0.000494777               0.999999993               0.000073353              -0.000526418               0.999999993               0.000085546              -0.000559829               0.999999993               0.000098048              -0.000594573               0.999999993               0.000110744              -0.000630339               0.999999993               0.000123731              -0.000667034               0.999999993               0.000136888              -0.000704274               0.999999993               0.000149907              -0.000741769               0.999999993               0.000162510              -0.000779156               0.999999993               0.000174733              -0.000816192               0.999999993               0.000186880              -0.000852797               0.999999993               0.000050236              -0.000486332               0.999999993               0.000020738              -0.000455497               0.999999993               0.000014862              -0.000448523               0.999999993               0.000017961              -0.000455937               0.999999993               0.000025236              -0.000472612               0.999999993               0.000034684              -0.000495139               0.999999993               0.000045105              -0.000521358               0.999999993               0.000055849              -0.000550002               0.999999993               0.000066660              -0.000580488               0.999999993               0.000077479              -0.000612388               0.999999993               0.000088272              -0.000645472               0.999999993               0.000099161              -0.000679386               0.999999993               0.000110126              -0.000713998               0.999999993               0.000121136              -0.000748987               0.999999993               0.000131703              -0.000784220               0.999999993               0.000141713              -0.000819405               0.999999993               0.000151364              -0.000854460               0.999999993               0.000042624              -0.000516149               0.999999993               0.000014010              -0.000492939               0.999999993               0.000006778              -0.000486644               0.999999993               0.000008093              -0.000492189               0.999999993               0.000013448              -0.000506108               0.999999993               0.000021365              -0.000525803               0.999999993               0.000030420              -0.000549349               0.999999993               0.000039768              -0.000575515               0.999999993               0.000049055              -0.000603595               0.999999993               0.000058146              -0.000633149               0.999999993               0.000066998              -0.000663876               0.999999993               0.000075740              -0.000695485               0.999999993               0.000084473              -0.000727747               0.999999993               0.000093138              -0.000760500               0.999999993               0.000101365              -0.000793534               0.999999993               0.000108624              -0.000826716               0.999999993               0.000115021              -0.000860021               0.999999993               0.000034595              -0.000541027               0.999999993               0.000009005              -0.000525787               0.999999993               0.000001220              -0.000521506               0.999999993               0.000001011              -0.000526468               0.999999993               0.000004552              -0.000538515               0.999999993               0.000010687              -0.000556002               0.999999993               0.000018115              -0.000577404               0.999999993               0.000025855              -0.000601588               0.999999993               0.000033548              -0.000627790               0.999999993               0.000040938              -0.000655586               0.999999993               0.000047925              -0.000684523               0.999999993               0.000054662              -0.000714290               0.999999993               0.000061207              -0.000744706               0.999999993               0.000067422              -0.000775677               0.999999993               0.000072990              -0.000807073               0.999999993               0.000077357              -0.000838720               0.999999993               0.000080048              -0.000870511               0.999999993               0.000026257              -0.000560613               0.999999993               0.000005468              -0.000552816               0.999999993              -0.000001784              -0.000551170               0.999999993              -0.000002943              -0.000556456               0.999999993              -0.000000909              -0.000567670               0.999999993               0.000003348              -0.000583691               0.999999993               0.000008972              -0.000603496               0.999999993               0.000014946              -0.000626074               0.999999993               0.000020918              -0.000650848               0.999999993               0.000026571              -0.000677299               0.999999993               0.000031868              -0.000704994               0.999999993               0.000036825              -0.000733636               0.999999993               0.000041441              -0.000762911               0.999999993               0.000045379              -0.000792754               0.999999993               0.000048331              -0.000823151               0.999999993               0.000049939              -0.000853872               0.999999993               0.000049490              -0.000884819               0.999999993               0.000017659              -0.000574727               0.999999993               0.000003063              -0.000572947               0.999999993              -0.000002566              -0.000573956               0.999999993              -0.000003985              -0.000580016               0.999999993              -0.000003030              -0.000590963               0.999999993              -0.000000379              -0.000606116               0.999999993               0.000003374              -0.000624795               0.999999993               0.000007416              -0.000646281               0.999999993               0.000011481              -0.000670040               0.999999993               0.000015367              -0.000695648               0.999999993               0.000018980              -0.000722697               0.999999993               0.000022245              -0.000750755               0.999999993               0.000025155              -0.000779642               0.999999993               0.000027397              -0.000809128               0.999999993               0.000028562              -0.000839070               0.999999993               0.000028281              -0.000869361               0.999999993               0.000026024              -0.000899914               0.999999993               0.000008876              -0.000583223               0.999999993               0.000001375              -0.000585372               0.999999993              -0.000001731              -0.000588376               0.999999993              -0.000002664              -0.000595192               0.999999993              -0.000002351              -0.000606099               0.999999993              -0.000001065              -0.000620842               0.999999993               0.000000820              -0.000638916               0.999999993               0.000002838              -0.000659765               0.999999993               0.000004876              -0.000682969               0.999999993               0.000006824              -0.000708063               0.999999993               0.000008637              -0.000734794               0.999999993               0.000010327              -0.000762789               0.999999993               0.000011775              -0.000791705               0.999999993               0.000012817              -0.000821352               0.999999993               0.000013160              -0.000851569               0.999999993               0.000012431              -0.000882110               0.999999993               0.000010205              -0.000912720               0.999999993               0.000000000              -0.000586035               0.999999993              -0.000000000              -0.000589561               0.999999993              -0.000000000              -0.000593280               0.999999993              -0.000000000              -0.000600397               0.999999993              -0.000000000              -0.000611357               0.999999993               0.000000000              -0.000625917               0.999999993               0.000000000              -0.000643833               0.999999993              -0.000000000              -0.000664525               0.999999993              -0.000000000              -0.000687509               0.999999993              -0.000000000              -0.000712525               0.999999993              -0.000000000              -0.000739169               0.999999993              -0.000000000              -0.000767155               0.999999993               0.000000000              -0.000796220               0.999999993               0.000000000              -0.000826132               0.999999993              -0.000000000              -0.000856735               0.999999993               0.000000000              -0.000887638               0.999999993               0.000000000              -0.000918446               0.999999993               0.000096866              -0.000000000               0.999999993               0.000119960              -0.000000000               0.999999993               0.000130828              -0.000000000               0.999999993               0.000137060              -0.000000000               0.999999993               0.000141755              -0.000000000               0.999999993               0.000146268              -0.000000000               0.999999993               0.000151220              -0.000000000               0.999999993               0.000156897               0.000000000               0.999999993               0.000163449               0.000000000               0.999999993               0.000170883              -0.000000000               0.999999993               0.000179215              -0.000000000               0.999999993               0.000188425               0.000000000               0.999999993               0.000198456               0.000000000               0.999999993               0.000209268              -0.000000000               0.999999993               0.000220781              -0.000000000               0.999999993               0.000232954              -0.000000000               0.999999993               0.000245697               0.000000000               0.999999993               0.000096291               0.000057868               0.999999993               0.000118263               0.000050445               0.999999993               0.000128470               0.000048129               0.999999993               0.000134323               0.000048596               0.999999993               0.000138790               0.000050712               0.999999993               0.000143220               0.000054017               0.999999993               0.000148234               0.000058111               0.999999993               0.000154038               0.000062688               0.999999993               0.000160688               0.000067514               0.999999993               0.000168171               0.000072546               0.999999993               0.000176488               0.000077753               0.999999993               0.000185672               0.000083001               0.999999993               0.000195672               0.000088190               0.999999993               0.000206422               0.000093303               0.999999993               0.000217931               0.000098209               0.999999993               0.000230122               0.000102754               0.999999993               0.000242879               0.000106532               0.999999993               0.000094631               0.000115180               0.999999993               0.000113301               0.000100366               0.999999993               0.000121575               0.000096128               0.999999993               0.000126427               0.000097431               0.999999993               0.000130467               0.000101987               0.999999993               0.000134854               0.000108800               0.999999993               0.000140029               0.000117046               0.999999993               0.000146066               0.000126127               0.999999993               0.000152953               0.000135752               0.999999993               0.000160617               0.000145827               0.999999993               0.000169039               0.000156240               0.999999993               0.000178262               0.000166808               0.999999993               0.000188295               0.000177460               0.999999993               0.000199065               0.000188079               0.999999993               0.000210597               0.000198438               0.999999993               0.000222827               0.000208298               0.999999993               0.000235651               0.000217203               0.999999993               0.000091810               0.000171377               0.999999993               0.000105204               0.000149366               0.999999993               0.000110719               0.000143838               0.999999993               0.000114340               0.000146546               0.999999993               0.000118083               0.000153958               0.999999993               0.000122726               0.000164467               0.999999993               0.000128395               0.000176968               0.999999993               0.000135011               0.000190623               0.999999993               0.000142460               0.000204982               0.999999993               0.000150718               0.000220025               0.999999993               0.000159732               0.000235579               0.999999993               0.000169466               0.000251483               0.999999993               0.000179948               0.000267647               0.999999993               0.000191164               0.000284010               0.999999993               0.000203059               0.000300235               0.999999993               0.000215498               0.000316015               0.999999993               0.000228444               0.000331022               0.999999993               0.000087851               0.000225793               0.999999993               0.000094363               0.000197160               0.999999993               0.000096924               0.000191061               0.999999993               0.000099608               0.000195701               0.999999993               0.000103541               0.000206337               0.999999993               0.000108902               0.000220730               0.999999993               0.000115488               0.000237495               0.999999993               0.000123105               0.000255624               0.999999993               0.000131556               0.000274652               0.999999993               0.000140796               0.000294593               0.999999993               0.000150772               0.000315202               0.999999993               0.000161425               0.000336345               0.999999993               0.000172712               0.000357995               0.999999993               0.000184593               0.000379962               0.999999993               0.000196959               0.000401925               0.999999993               0.000209701               0.000423510               0.999999993               0.000222753               0.000444504               0.999999993               0.000082915               0.000277777               0.999999993               0.000081573               0.000243441               0.999999993               0.000081531               0.000237544               0.999999993               0.000083957               0.000244585               0.999999993               0.000088741               0.000258624               0.999999993               0.000095277               0.000276896               0.999999993               0.000103171               0.000297846               0.999999993               0.000112099               0.000320372               0.999999993               0.000121827               0.000344052               0.999999993               0.000132293               0.000368717               0.999999993               0.000143385               0.000394221               0.999999993               0.000155072               0.000420331               0.999999993               0.000167268               0.000447220               0.999999993               0.000179855               0.000474495               0.999999993               0.000192779               0.000501757               0.999999993               0.000205885               0.000528727               0.999999993               0.000219088               0.000555191               0.999999993               0.000077012               0.000326851               0.999999993               0.000067651               0.000288091               0.999999993               0.000065942               0.000282958               0.999999993               0.000068982               0.000292664               0.999999993               0.000075112               0.000310137               0.999999993               0.000083207               0.000332202               0.999999993               0.000092621               0.000357235               0.999999993               0.000102977               0.000384138               0.999999993               0.000114097               0.000412294               0.999999993               0.000125823               0.000441469               0.999999993               0.000138115               0.000471512               0.999999993               0.000150873               0.000502399               0.999999993               0.000164073               0.000534080               0.999999993               0.000177569               0.000566129               0.999999993               0.000191132               0.000598133               0.999999993               0.000204652               0.000629715               0.999999993               0.000218044               0.000660838               0.999999993               0.000070487               0.000372359               0.999999993               0.000053549               0.000330910               0.999999993               0.000051145               0.000327009               0.999999993               0.000055450               0.000339450               0.999999993               0.000063239               0.000360321               0.999999993               0.000073145               0.000386108               0.999999993               0.000084293               0.000415055               0.999999993               0.000096261               0.000446037               0.999999993               0.000108706               0.000478460               0.999999993               0.000121639               0.000511901               0.999999993               0.000135100               0.000546392               0.999999993               0.000149020               0.000581726               0.999999993               0.000163227               0.000617809               0.999999993               0.000177495               0.000654132               0.999999993               0.000191535               0.000690081               0.999999993               0.000205181               0.000725542               0.999999993               0.000218408               0.000760326               0.999999993               0.000063770               0.000413536               0.999999993               0.000039760               0.000371818               0.999999993               0.000037841               0.000369346               0.999999993               0.000043839               0.000384354               0.999999993               0.000053709               0.000408483               0.999999993               0.000065549               0.000437829               0.999999993               0.000078366               0.000470525               0.999999993               0.000091598               0.000505495               0.999999993               0.000105171               0.000542001               0.999999993               0.000119313               0.000579728               0.999999993               0.000133865               0.000618547               0.999999993               0.000148739               0.000658127               0.999999993               0.000163696               0.000698097               0.999999993               0.000178268               0.000737929               0.999999993               0.000192380               0.000777286               0.999999993               0.000206093               0.000816034               0.999999993               0.000219443               0.000854196               0.999999993               0.000057369               0.000451927               0.999999993               0.000029297               0.000414755               0.999999993               0.000025369               0.000408856               0.999999993               0.000030132               0.000419557               0.999999993               0.000038919               0.000439766               0.999999993               0.000049712               0.000465508               0.999999993               0.000061376               0.000494777               0.999999993               0.000073353               0.000526418               0.999999993               0.000085546               0.000559829               0.999999993               0.000098048               0.000594573               0.999999993               0.000110744               0.000630339               0.999999993               0.000123731               0.000667034               0.999999993               0.000136888               0.000704274               0.999999993               0.000149907               0.000741769               0.999999993               0.000162510               0.000779156               0.999999993               0.000174733               0.000816192               0.999999993               0.000186880               0.000852797               0.999999993               0.000050236               0.000486332               0.999999993               0.000020738               0.000455497               0.999999993               0.000014862               0.000448523               0.999999993               0.000017961               0.000455937               0.999999993               0.000025236               0.000472612               0.999999993               0.000034684               0.000495139               0.999999993               0.000045105               0.000521358               0.999999993               0.000055849               0.000550002               0.999999993               0.000066660               0.000580488               0.999999993               0.000077479               0.000612388               0.999999993               0.000088272               0.000645472               0.999999993               0.000099161               0.000679386               0.999999993               0.000110126               0.000713998               0.999999993               0.000121136               0.000748987               0.999999993               0.000131703               0.000784220               0.999999993               0.000141713               0.000819405               0.999999993               0.000151364               0.000854460               0.999999993               0.000042624               0.000516149               0.999999993               0.000014010               0.000492939               0.999999993               0.000006778               0.000486644               0.999999993               0.000008093               0.000492189               0.999999993               0.000013448               0.000506108               0.999999993               0.000021365               0.000525803               0.999999993               0.000030420               0.000549349               0.999999993               0.000039768               0.000575515               0.999999993               0.000049055               0.000603595               0.999999993               0.000058146               0.000633149               0.999999993               0.000066998               0.000663876               0.999999993               0.000075740               0.000695485               0.999999993               0.000084473               0.000727747               0.999999993               0.000093138               0.000760500               0.999999993               0.000101365               0.000793534               0.999999993               0.000108624               0.000826716               0.999999993               0.000115021               0.000860021               0.999999993               0.000034595               0.000541027               0.999999993               0.000009005               0.000525787               0.999999993               0.000001220               0.000521506               0.999999993               0.000001011               0.000526468               0.999999993               0.000004552               0.000538515               0.999999993               0.000010687               0.000556002               0.999999993               0.000018115               0.000577404               0.999999993               0.000025855               0.000601588               0.999999993               0.000033548               0.000627790               0.999999993               0.000040938               0.000655586               0.999999993               0.000047925               0.000684523               0.999999993               0.000054662               0.000714290               0.999999993               0.000061207               0.000744706               0.999999993               0.000067422               0.000775677               0.999999993               0.000072990               0.000807073               0.999999993               0.000077357               0.000838720               0.999999993               0.000080048               0.000870511               0.999999993               0.000026257               0.000560613               0.999999993               0.000005468               0.000552816               0.999999993              -0.000001784               0.000551170               0.999999993              -0.000002943               0.000556456               0.999999993              -0.000000909               0.000567670               0.999999993               0.000003348               0.000583691               0.999999993               0.000008972               0.000603496               0.999999993               0.000014946               0.000626074               0.999999993               0.000020918               0.000650848               0.999999993               0.000026571               0.000677299               0.999999993               0.000031868               0.000704994               0.999999993               0.000036825               0.000733636               0.999999993               0.000041441               0.000762911               0.999999993               0.000045379               0.000792754               0.999999993               0.000048331               0.000823151               0.999999993               0.000049939               0.000853872               0.999999993               0.000049490               0.000884819               0.999999993               0.000017659               0.000574727               0.999999993               0.000003063               0.000572947               0.999999993              -0.000002566               0.000573956               0.999999993              -0.000003985               0.000580016               0.999999993              -0.000003030               0.000590963               0.999999993              -0.000000379               0.000606116               0.999999993               0.000003374               0.000624795               0.999999993               0.000007416               0.000646281               0.999999993               0.000011481               0.000670040               0.999999993               0.000015367               0.000695648               0.999999993               0.000018980               0.000722697               0.999999993               0.000022245               0.000750755               0.999999993               0.000025155               0.000779642               0.999999993               0.000027397               0.000809128               0.999999993               0.000028562               0.000839070               0.999999993               0.000028281               0.000869361               0.999999993               0.000026024               0.000899914               0.999999993               0.000008876               0.000583223               0.999999993               0.000001375               0.000585372               0.999999993              -0.000001731               0.000588376               0.999999993              -0.000002664               0.000595192               0.999999993              -0.000002351               0.000606099               0.999999993              -0.000001065               0.000620842               0.999999993               0.000000820               0.000638916               0.999999993               0.000002838               0.000659765               0.999999993               0.000004876               0.000682969               0.999999993               0.000006824               0.000708063               0.999999993               0.000008637               0.000734794               0.999999993               0.000010327               0.000762789               0.999999993               0.000011775               0.000791705               0.999999993               0.000012817               0.000821352               0.999999993               0.000013160               0.000851569               0.999999993               0.000012431               0.000882110               0.999999993               0.000010205               0.000912720               0.999999993               0.000000000               0.000586035               0.999999993               0.000000000               0.000589561               0.999999993               0.000000000               0.000593280               0.999999993              -0.000000000               0.000600397               0.999999993               0.000000000               0.000611357               0.999999993               0.000000000               0.000625917               0.999999993              -0.000000000               0.000643833               0.999999993               0.000000000               0.000664525               0.999999993              -0.000000000               0.000687509               0.999999993               0.000000000               0.000712525               0.999999993               0.000000000               0.000739169               0.999999993              -0.000000000               0.000767155               0.999999993              -0.000000000               0.000796220               0.999999993              -0.000000000               0.000826132               0.999999993               0.000000000               0.000856735               0.999999993               0.000000000               0.000887638               0.999999993               0.000000000               0.000918446               0.999999993 </DataArray>
<DataArray type="Float64"                                    Name="stress"                                                      NumberOfComponents="10" format="ascii">
              0.000952348               0.010784868               0.000000000              -0.000990976               0.003925245               0.002934270               0.000000000               0.000000000               0.000000000               0.000000000               0.001032311               0.008804546               0.000000000              -0.000713450               0.003172636               0.002459186               0.000000000               0.000000000               0.000000000               0.000000000               0.001430852               0.007209341               0.000000000              -0.000364597               0.002524622               0.002160025               0.000000000               0.000000000               0.000000000               0.000000000               0.001476594               0.006328563              -0.000000000              -0.000237347               0.002188616               0.001951269               0.000000000               0.000000000               0.000000000               0.000000000               0.001393490               0.005806453              -0.000000000              -0.000203247               0.002003214               0.001799967               0.000000000               0.000000000               0.000000000               0.000000000               0.001266723               0.005488636              -0.000000000              -0.000211058               0.001899880               0.001688822               0.000000000               0.000000000               0.000000000               0.000000000               0.001129432               0.005288849              -0.000000000              -0.000237568               0.001842121               0.001604553               0.000000000               0.000000000               0.000000000               0.000000000               0.000992276               0.005154421               0.000000000              -0.000272198               0.001808856               0.001536657               0.000000000               0.000000000               0.000000000               0.000000000               0.000860094               0.005055874               0.000000000              -0.000309448               0.001788424               0.001478976               0.000000000               0.000000000               0.000000000               0.000000000               0.000734948               0.004981502              -0.000000000              -0.000347081               0.001776178               0.001429096               0.000000000               0.000000000               0.000000000               0.000000000               0.000614202               0.004922703               0.000000000              -0.000385011               0.001769222               0.001384211               0.000000000               0.000000000               0.000000000               0.000000000               0.000499038               0.004870804               0.000000000              -0.000421710               0.001764155               0.001342445               0.000000000               0.000000000               0.000000000               0.000000000               0.000390301               0.004820306               0.000000000              -0.000456174               0.001758811               0.001302636               0.000000000               0.000000000               0.000000000               0.000000000               0.000286723               0.004768441               0.000000000              -0.000488533               0.001752309               0.001263776               0.000000000               0.000000000               0.000000000               0.000000000               0.000186922               0.004709746               0.000000000              -0.000518621               0.001742773               0.001224152               0.000000000               0.000000000               0.000000000               0.000000000               0.000091310               0.004637019               0.000000000              -0.000545385               0.001727452               0.001182068               0.000000000               0.000000000               0.000000000               0.000000000               0.000040099               0.004580317               0.000000000              -0.000557501               0.001712591               0.001155090               0.000000000               0.000000000               0.000000000               0.000000000               0.001005831               0.010597176              -0.000789686              -0.000947458               0.003848176               0.002900718               0.000000000               0.000000000               0.000000000               0.000000000               0.001040813               0.008674618              -0.000476937              -0.000694021               0.003122851               0.002428830               0.000000000               0.000000000               0.000000000               0.000000000               0.001393472               0.007148724              -0.000156603              -0.000371037               0.002506563               0.002135526               0.000000000               0.000000000               0.000000000               0.000000000               0.001422385               0.006308506              -0.000009842              -0.000255168               0.002187870               0.001932702               0.000000000               0.000000000               0.000000000               0.000000000               0.001334000               0.005809917               0.000062099              -0.000225989               0.002011949               0.001785960               0.000000000               0.000000000               0.000000000               0.000000000               0.001204101               0.005502385               0.000096864              -0.000236260               0.001912863               0.001676604               0.000000000               0.000000000               0.000000000               0.000000000               0.001066421               0.005303736               0.000109035              -0.000263058               0.001855581               0.001592522               0.000000000               0.000000000               0.000000000               0.000000000               0.000933811               0.005166776               0.000109130              -0.000295667               0.001820797               0.001525130               0.000000000               0.000000000               0.000000000               0.000000000               0.000810171               0.005067780               0.000105737              -0.000329658               0.001799129               0.001469471               0.000000000               0.000000000               0.000000000               0.000000000               0.000694678               0.004994547               0.000103182              -0.000363813               0.001786104               0.001422290               0.000000000               0.000000000               0.000000000               0.000000000               0.000581391               0.004936615               0.000099675              -0.000399054               0.001778540               0.001379486               0.000000000               0.000000000               0.000000000               0.000000000               0.000471017               0.004887051               0.000093641              -0.000434249               0.001773750               0.001339501               0.000000000               0.000000000               0.000000000               0.000000000               0.000368213               0.004843552               0.000086309              -0.000467363               0.001770289               0.001302926               0.000000000               0.000000000               0.000000000               0.000000000               0.000269036               0.004801006               0.000076494              -0.000499236               0.001766731               0.001267495               0.000000000               0.000000000               0.000000000               0.000000000               0.000172518               0.004754199               0.000061356              -0.000529579               0.001761243               0.001231664               0.000000000               0.000000000               0.000000000               0.000000000               0.000083629               0.004699503               0.000036186              -0.000556075               0.001751844               0.001195768               0.000000000               0.000000000               0.000000000               0.000000000               0.000039076               0.004660148               0.000020058              -0.000567864               0.001742655               0.001174791               0.000000000               0.000000000               0.000000000               0.000000000               0.001147839               0.010057376              -0.001489964              -0.000826731               0.003628002               0.002801271               0.000000000               0.000000000               0.000000000               0.000000000               0.001059978               0.008306283              -0.000899141              -0.000640792               0.002982331               0.002341538               0.000000000               0.000000000               0.000000000               0.000000000               0.001283458               0.006974444              -0.000299585              -0.000390508               0.002454961               0.002064453               0.000000000               0.000000000               0.000000000               0.000000000               0.001261344               0.006240732              -0.000033947              -0.000307087               0.002182585               0.001875499               0.000000000               0.000000000               0.000000000               0.000000000               0.001157810               0.005800292               0.000090921              -0.000290857               0.002030364               0.001739507               0.000000000               0.000000000               0.000000000               0.000000000               0.001028713               0.005519124               0.000148777              -0.000304122               0.001941064               0.001636941               0.000000000               0.000000000               0.000000000               0.000000000               0.000902094               0.005329706               0.000168527              -0.000327927               0.001885860               0.001557933               0.000000000               0.000000000               0.000000000               0.000000000               0.000786450               0.005193932               0.000169515              -0.000354322               0.001849401               0.001495079               0.000000000               0.000000000               0.000000000               0.000000000               0.000682173               0.005093565               0.000165588              -0.000380880               0.001824798               0.001443918               0.000000000               0.000000000               0.000000000               0.000000000               0.000587197               0.005019944               0.000160752              -0.000407293               0.001809062               0.001401769               0.000000000               0.000000000               0.000000000               0.000000000               0.000493694               0.004962683               0.000153014              -0.000435199               0.001799277               0.001364078               0.000000000               0.000000000               0.000000000               0.000000000               0.000399163               0.004916933               0.000142955              -0.000464929               0.001793937               0.001329008               0.000000000               0.000000000               0.000000000               0.000000000               0.000309631               0.004882589               0.000131236              -0.000494211               0.001792250               0.001298040               0.000000000               0.000000000               0.000000000               0.000000000               0.000224011               0.004856072               0.000113984              -0.000523004               0.001793009               0.001270005               0.000000000               0.000000000               0.000000000               0.000000000               0.000141693               0.004832200               0.000088643              -0.000550889               0.001794347               0.001243458               0.000000000               0.000000000               0.000000000               0.000000000               0.000068170               0.004809999               0.000051073              -0.000575685               0.001795212               0.001219527               0.000000000               0.000000000               0.000000000               0.000000000               0.000035416               0.004800411               0.000027520              -0.000586769               0.001795711               0.001208942               0.000000000               0.000000000               0.000000000               0.000000000               0.001329366               0.009221981              -0.002026311              -0.000654235               0.003292041               0.002637806               0.000000000               0.000000000               0.000000000               0.000000000               0.001066466               0.007748539              -0.001227680              -0.000568642               0.002772368               0.002203726               0.000000000               0.000000000               0.000000000               0.000000000               0.001104511               0.006705013              -0.000427931              -0.000423934               0.002376293               0.001952359               0.000000000               0.000000000               0.000000000               0.000000000               0.001015289               0.006115100              -0.000088744              -0.000383653               0.002166231               0.001782577               0.000000000               0.000000000               0.000000000               0.000000000               0.000897321               0.005749301               0.000064061              -0.000382166               0.002043803               0.001661637               0.000000000               0.000000000               0.000000000               0.000000000               0.000779957               0.005503805               0.000133379              -0.000395491               0.001966414               0.001570923               0.000000000               0.000000000               0.000000000               0.000000000               0.000677407               0.005329438               0.000157571              -0.000412151               0.001913845               0.001501694               0.000000000               0.000000000               0.000000000               0.000000000               0.000590229               0.005199007               0.000158556              -0.000428539               0.001875831               0.001447292               0.000000000               0.000000000               0.000000000               0.000000000               0.000511793               0.005098891               0.000154846              -0.000445438               0.001848093               0.001402655               0.000000000               0.000000000               0.000000000               0.000000000               0.000438757               0.005023722               0.000150261              -0.000463430               0.001829034               0.001365604               0.000000000               0.000000000               0.000000000               0.000000000               0.000369315               0.004966166               0.000142016              -0.000482276               0.001816131               0.001333854               0.000000000               0.000000000               0.000000000               0.000000000               0.000299292               0.004922628               0.000132224              -0.000503093               0.001808557               0.001305464               0.000000000               0.000000000               0.000000000               0.000000000               0.000228810               0.004891518               0.000121973              -0.000525634               0.001805701               0.001280067               0.000000000               0.000000000               0.000000000               0.000000000               0.000161456               0.004870453               0.000105850              -0.000548259               0.001806221               0.001257962               0.000000000               0.000000000               0.000000000               0.000000000               0.000101679               0.004857293               0.000079975              -0.000569031               0.001808758               0.001239728               0.000000000               0.000000000               0.000000000               0.000000000               0.000049225               0.004850125               0.000043960              -0.000587805               0.001812627               0.001224823               0.000000000               0.000000000               0.000000000               0.000000000               0.000026502               0.004852456               0.000022379              -0.000596617               0.001816342               0.001219724               0.000000000               0.000000000               0.000000000               0.000000000               0.001498096               0.008175936              -0.002362946              -0.000460207               0.002878687               0.002418479               0.000000000               0.000000000               0.000000000               0.000000000               0.001043122               0.007061750              -0.001453587              -0.000491548               0.002517742               0.002026194               0.000000000               0.000000000               0.000000000               0.000000000               0.000876423               0.006367848              -0.000552733              -0.000467321               0.002278369               0.001811047               0.000000000               0.000000000               0.000000000               0.000000000               0.000729911               0.005938182              -0.000186324              -0.000468555               0.002135559               0.001667004               0.000000000               0.000000000               0.000000000               0.000000000               0.000612775               0.005650236              -0.000024458              -0.000476488               0.002042223               0.001565735               0.000000000               0.000000000               0.000000000               0.000000000               0.000520152               0.005441570               0.000051234              -0.000485138               0.001975551               0.001490413               0.000000000               0.000000000               0.000000000               0.000000000               0.000447818               0.005281990               0.000081095              -0.000492316               0.001924751               0.001432435               0.000000000               0.000000000               0.000000000               0.000000000               0.000390971               0.005157661               0.000087310              -0.000498092               0.001885234               0.001387142               0.000000000               0.000000000               0.000000000               0.000000000               0.000341317               0.005062626               0.000089236              -0.000504833               0.001855803               0.001350970               0.000000000               0.000000000               0.000000000               0.000000000               0.000291580               0.004987201               0.000091117              -0.000514056               0.001833736               0.001319680               0.000000000               0.000000000               0.000000000               0.000000000               0.000242446               0.004927052               0.000089834              -0.000524963               0.001817322               0.001292359               0.000000000               0.000000000               0.000000000               0.000000000               0.000193640               0.004880045               0.000089057              -0.000537389               0.001805795               0.001268406               0.000000000               0.000000000               0.000000000               0.000000000               0.000145755               0.004847048               0.000087242              -0.000551222               0.001799407               0.001248185               0.000000000               0.000000000               0.000000000               0.000000000               0.000099846               0.004821310               0.000078572              -0.000565220               0.001795494               0.001230274               0.000000000               0.000000000               0.000000000               0.000000000               0.000060818               0.004801657               0.000059787              -0.000577399               0.001793003               0.001215604               0.000000000               0.000000000               0.000000000               0.000000000               0.000028082               0.004788572               0.000032350              -0.000588039               0.001792188               0.001204149               0.000000000               0.000000000               0.000000000               0.000000000               0.000013571               0.004785270               0.000016825              -0.000593068               0.001792763               0.001199695               0.000000000               0.000000000               0.000000000               0.000000000               0.001599856               0.007028921              -0.002497742              -0.000278671               0.002435840               0.002157169               0.000000000               0.000000000               0.000000000               0.000000000               0.000983443               0.006318585              -0.001584808              -0.000421032               0.002246518               0.001825485               0.000000000               0.000000000               0.000000000               0.000000000               0.000637009               0.005994546              -0.000682660              -0.000510439               0.002168308               0.001657869               0.000000000               0.000000000               0.000000000               0.000000000               0.000461239               0.005723317              -0.000324385              -0.000542449               0.002088569               0.001546121               0.000000000               0.000000000               0.000000000               0.000000000               0.000362637               0.005507177              -0.000161145              -0.000552407               0.002019843               0.001467436               0.000000000               0.000000000               0.000000000               0.000000000               0.000303109               0.005331927              -0.000077087              -0.000552824               0.001961566               0.001408742               0.000000000               0.000000000               0.000000000               0.000000000               0.000261788               0.005189291              -0.000035483              -0.000550490               0.001913243               0.001362753               0.000000000               0.000000000               0.000000000               0.000000000               0.000232284               0.005076386              -0.000016417              -0.000547440               0.001874592               0.001327151               0.000000000               0.000000000               0.000000000               0.000000000               0.000205594               0.004985687              -0.000003216              -0.000546112               0.001843916               0.001297805               0.000000000               0.000000000               0.000000000               0.000000000               0.000174957               0.004907017               0.000010083              -0.000547767               0.001818245               0.001270478               0.000000000               0.000000000               0.000000000               0.000000000               0.000141867               0.004839809               0.000021182              -0.000551775               0.001797178               0.001245404               0.000000000               0.000000000               0.000000000               0.000000000               0.000107961               0.004785720               0.000034085              -0.000557728               0.001781134               0.001223405               0.000000000               0.000000000               0.000000000               0.000000000               0.000078164               0.004743010               0.000044534              -0.000563564               0.001768842               0.001205279               0.000000000               0.000000000               0.000000000               0.000000000               0.000051799               0.004705082               0.000043825              -0.000568709               0.001757915               0.001189205               0.000000000               0.000000000               0.000000000               0.000000000               0.000030013               0.004670259               0.000033517              -0.000572526               0.001747579               0.001175053               0.000000000               0.000000000               0.000000000               0.000000000               0.000013750               0.004639725               0.000017049              -0.000574808               0.001738162               0.001163354               0.000000000               0.000000000               0.000000000               0.000000000               0.000005235               0.004622743               0.000008726              -0.000575878               0.001732859               0.001156980               0.000000000               0.000000000               0.000000000               0.000000000               0.001602522               0.005871687              -0.002457923              -0.000133018               0.002001548               0.001868530               0.000000000               0.000000000               0.000000000               0.000000000               0.000887925               0.005578372              -0.001639824              -0.000364325               0.001980880               0.001616555               0.000000000               0.000000000               0.000000000               0.000000000               0.000413803               0.005609824              -0.000817245              -0.000546051               0.002051939               0.001505889               0.000000000               0.000000000               0.000000000               0.000000000               0.000242677               0.005482417              -0.000481835              -0.000594297               0.002025553               0.001431256               0.000000000               0.000000000               0.000000000               0.000000000               0.000173716               0.005331631              -0.000316390              -0.000601309               0.001977629               0.001376320               0.000000000               0.000000000               0.000000000               0.000000000               0.000149241               0.005190178              -0.000221331              -0.000592806               0.001927644               0.001334838               0.000000000               0.000000000               0.000000000               0.000000000               0.000139885               0.005065357              -0.000163226              -0.000580711               0.001882006               0.001301295               0.000000000               0.000000000               0.000000000               0.000000000               0.000133081               0.004959377              -0.000127196              -0.000570015               0.001843114               0.001273099               0.000000000               0.000000000               0.000000000               0.000000000               0.000120714               0.004867709              -0.000099269              -0.000563194               0.001810285               0.001247090               0.000000000               0.000000000               0.000000000               0.000000000               0.000099442               0.004784049              -0.000072515              -0.000560714               0.001781572               0.001220858               0.000000000               0.000000000               0.000000000               0.000000000               0.000075480               0.004711925              -0.000047213              -0.000560684               0.001757521               0.001196836               0.000000000               0.000000000               0.000000000               0.000000000               0.000051818               0.004650704              -0.000021809              -0.000561905               0.001737521               0.001175616               0.000000000               0.000000000               0.000000000               0.000000000               0.000030546               0.004593793              -0.000001580              -0.000562768               0.001718838               0.001156070               0.000000000               0.000000000               0.000000000               0.000000000               0.000018347               0.004538927               0.000006476              -0.000560484               0.001699789               0.001139304               0.000000000               0.000000000               0.000000000               0.000000000               0.000011596               0.004483104               0.000005902              -0.000556038               0.001679699               0.001123661               0.000000000               0.000000000               0.000000000               0.000000000               0.000005006               0.004427815               0.000002240              -0.000551598               0.001659790               0.001108192               0.000000000               0.000000000               0.000000000               0.000000000              -0.000003956               0.004390613               0.000003994              -0.000550309               0.001646959               0.001096651               0.000000000               0.000000000               0.000000000               0.000000000               0.001517094               0.004776003              -0.002276805              -0.000028093               0.001601349               0.001573255               0.000000000               0.000000000               0.000000000               0.000000000               0.000768672               0.004886226              -0.001630988              -0.000322527               0.001736234               0.001413707               0.000000000               0.000000000               0.000000000               0.000000000               0.000230751               0.005230974              -0.000947292              -0.000567339               0.001932753               0.001365414               0.000000000               0.000000000               0.000000000               0.000000000               0.000088450               0.005223479              -0.000635893              -0.000619765               0.001947730               0.001327966               0.000000000               0.000000000               0.000000000               0.000000000               0.000056808               0.005130884              -0.000466744              -0.000620056               0.001916963               0.001296907               0.000000000               0.000000000               0.000000000               0.000000000               0.000060819               0.005019448              -0.000358920              -0.000604623               0.001874673               0.001270051               0.000000000               0.000000000               0.000000000               0.000000000               0.000073173               0.004909430              -0.000282243              -0.000586237               0.001831873               0.001245635               0.000000000               0.000000000               0.000000000               0.000000000               0.000080485               0.004809108              -0.000224610              -0.000570955               0.001793339               0.001222383               0.000000000               0.000000000               0.000000000               0.000000000               0.000074758               0.004718168              -0.000178995              -0.000561735               0.001759952               0.001198217               0.000000000               0.000000000               0.000000000               0.000000000               0.000056852               0.004636619              -0.000139461              -0.000558257               0.001731610               0.001173353               0.000000000               0.000000000               0.000000000               0.000000000               0.000033643               0.004564230              -0.000102636              -0.000557911               0.001707365               0.001149454               0.000000000               0.000000000               0.000000000               0.000000000               0.000011742               0.004494333              -0.000067942              -0.000557387               0.001683892               0.001126505               0.000000000               0.000000000               0.000000000               0.000000000              -0.000003773               0.004420868              -0.000037920              -0.000554022               0.001658282               0.001104260               0.000000000               0.000000000               0.000000000               0.000000000              -0.000011080               0.004342965              -0.000019158              -0.000547024               0.001629982               0.001082958               0.000000000               0.000000000               0.000000000               0.000000000              -0.000010937               0.004265024              -0.000008438              -0.000537228               0.001600737               0.001063509               0.000000000               0.000000000               0.000000000               0.000000000              -0.000007981               0.004191177              -0.000001875              -0.000526889               0.001572675               0.001045786               0.000000000               0.000000000               0.000000000               0.000000000              -0.000013377               0.004142251               0.000004954              -0.000522796               0.001555002               0.001032206               0.000000000               0.000000000               0.000000000               0.000000000               0.001375222               0.003831066              -0.002001581               0.000036822               0.001264734               0.001301556               0.000000000               0.000000000               0.000000000               0.000000000               0.000664998               0.004267415              -0.001586539              -0.000284054               0.001517142               0.001233088               0.000000000               0.000000000               0.000000000               0.000000000               0.000121795               0.004868752              -0.001088709              -0.000562920               0.001810541               0.001247621               0.000000000               0.000000000               0.000000000               0.000000000               0.000009727               0.004974376              -0.000797337              -0.000618148               0.001864158               0.001246010               0.000000000               0.000000000               0.000000000               0.000000000               0.000004712               0.004946056              -0.000620063              -0.000616489               0.001854165               0.001237676               0.000000000               0.000000000               0.000000000               0.000000000               0.000028220               0.004872585              -0.000496108              -0.000598489               0.001823675               0.001225186               0.000000000               0.000000000               0.000000000               0.000000000               0.000052679               0.004785229              -0.000397560              -0.000578398               0.001787859               0.001209462               0.000000000               0.000000000               0.000000000               0.000000000               0.000064019               0.004694521              -0.000317452              -0.000562807               0.001752427               0.001189620               0.000000000               0.000000000               0.000000000               0.000000000               0.000057864               0.004608306              -0.000256013              -0.000554338               0.001720866               0.001166528               0.000000000               0.000000000               0.000000000               0.000000000               0.000040939               0.004532974              -0.000205248              -0.000551268               0.001694732               0.001143464               0.000000000               0.000000000               0.000000000               0.000000000               0.000017569               0.004461235              -0.000158523              -0.000551064               0.001670752               0.001119687               0.000000000               0.000000000               0.000000000               0.000000000              -0.000006786               0.004385893              -0.000117404              -0.000550780               0.001645543               0.001094763               0.000000000               0.000000000               0.000000000               0.000000000              -0.000024005               0.004298619              -0.000079204              -0.000546328               0.001614968               0.001068640               0.000000000               0.000000000               0.000000000               0.000000000              -0.000035577               0.004201765              -0.000046636              -0.000538561               0.001580094               0.001041534               0.000000000               0.000000000               0.000000000               0.000000000              -0.000047261               0.004103904              -0.000021965              -0.000530709               0.001544857               0.001014148               0.000000000               0.000000000               0.000000000               0.000000000              -0.000056105               0.004012641              -0.000005041              -0.000522618               0.001511740               0.000989121               0.000000000               0.000000000               0.000000000               0.000000000              -0.000059273               0.003962792               0.000003230              -0.000517575               0.001493443               0.000975867               0.000000000               0.000000000               0.000000000               0.000000000               0.001165035               0.002925113              -0.001686378               0.000071246               0.000951278               0.001022525               0.000000000               0.000000000               0.000000000               0.000000000               0.000602990               0.003544505              -0.001527411              -0.000216943               0.001253804               0.001036861               0.000000000               0.000000000               0.000000000               0.000000000               0.000112983               0.004325332              -0.001250061              -0.000498298               0.001607862               0.001109564               0.000000000               0.000000000               0.000000000               0.000000000               0.000011585               0.004584186              -0.000986256              -0.000568678               0.001717606               0.001148928               0.000000000               0.000000000               0.000000000               0.000000000               0.000006109               0.004658402              -0.000794606              -0.000580008               0.001746121               0.001166113               0.000000000               0.000000000               0.000000000               0.000000000               0.000028283               0.004652706              -0.000652368              -0.000570981               0.001741213               0.001170232               0.000000000               0.000000000               0.000000000               0.000000000               0.000053071               0.004609344              -0.000535980              -0.000556265               0.001721854               0.001165589               0.000000000               0.000000000               0.000000000               0.000000000               0.000069062               0.004549238              -0.000438759              -0.000542755               0.001697316               0.001154560               0.000000000               0.000000000               0.000000000               0.000000000               0.000070584               0.004487335              -0.000360952              -0.000534447               0.001673912               0.001139466               0.000000000               0.000000000               0.000000000               0.000000000               0.000054318               0.004424675              -0.000294382              -0.000532714               0.001652448               0.001119734               0.000000000               0.000000000               0.000000000               0.000000000               0.000026680               0.004364130              -0.000235569              -0.000535510               0.001633199               0.001097689               0.000000000               0.000000000               0.000000000               0.000000000              -0.000007523               0.004297803              -0.000184283              -0.000540045               0.001612602               0.001072557               0.000000000               0.000000000               0.000000000               0.000000000              -0.000042331               0.004219346              -0.000136039              -0.000543291               0.001587532               0.001044240               0.000000000               0.000000000               0.000000000               0.000000000              -0.000071229               0.004131950              -0.000089506              -0.000543203               0.001558371               0.001015167               0.000000000               0.000000000               0.000000000               0.000000000              -0.000101585               0.004037021              -0.000047628              -0.000542721               0.001526567               0.000983847               0.000000000               0.000000000               0.000000000               0.000000000              -0.000135204               0.003941958              -0.000017057              -0.000543445               0.001495121               0.000951676               0.000000000               0.000000000               0.000000000               0.000000000              -0.000153784               0.003891709              -0.000003717              -0.000544131               0.001478601               0.000934469               0.000000000               0.000000000               0.000000000               0.000000000               0.000850126               0.002084899              -0.001342988               0.000058182               0.000675565               0.000733747               0.000000000               0.000000000               0.000000000               0.000000000               0.000532479               0.002816987              -0.001422844              -0.000152445               0.000989800               0.000837356               0.000000000               0.000000000               0.000000000               0.000000000               0.000162782               0.003710123              -0.001368191              -0.000402722               0.001370936               0.000968213               0.000000000               0.000000000               0.000000000               0.000000000               0.000068299               0.004115285              -0.001160869              -0.000488798               0.001534680               0.001045882               0.000000000               0.000000000               0.000000000               0.000000000               0.000047523               0.004304500              -0.000968684              -0.000520241               0.001608232               0.001087992               0.000000000               0.000000000               0.000000000               0.000000000               0.000061575               0.004382549              -0.000816561              -0.000524727               0.001635744               0.001111017               0.000000000               0.000000000               0.000000000               0.000000000               0.000085949               0.004397810              -0.000690409              -0.000517494               0.001638420               0.001120926               0.000000000               0.000000000               0.000000000               0.000000000               0.000104644               0.004384542              -0.000582460              -0.000508825               0.001631108               0.001122283               0.000000000               0.000000000               0.000000000               0.000000000               0.000108746               0.004359303              -0.000489417              -0.000504132               0.001621130               0.001116998               0.000000000               0.000000000               0.000000000               0.000000000               0.000095045               0.004327287              -0.000407484              -0.000505268               0.001610837               0.001105569               0.000000000               0.000000000               0.000000000               0.000000000               0.000065967               0.004287413              -0.000336660              -0.000511188               0.001599519               0.001088332               0.000000000               0.000000000               0.000000000               0.000000000               0.000024601               0.004236292              -0.000274888              -0.000520310               0.001585520               0.001065210               0.000000000               0.000000000               0.000000000               0.000000000              -0.000021633               0.004174912              -0.000219174              -0.000529975               0.001568282               0.001038307               0.000000000               0.000000000               0.000000000               0.000000000              -0.000066907               0.004104920              -0.000162078              -0.000538204               0.001547694               0.001009490               0.000000000               0.000000000               0.000000000               0.000000000              -0.000115025               0.004026299              -0.000100889              -0.000546421               0.001524226               0.000977806               0.000000000               0.000000000               0.000000000               0.000000000              -0.000175774               0.003941154              -0.000045170              -0.000558558               0.001499891               0.000941333               0.000000000               0.000000000               0.000000000               0.000000000              -0.000221146               0.003890128              -0.000015150              -0.000569194               0.001486428               0.000917233               0.000000000               0.000000000               0.000000000               0.000000000               0.000447316               0.001365980              -0.000989328              -0.000003005               0.000456323               0.000453318               0.000000000               0.000000000               0.000000000               0.000000000               0.000414249               0.002125912              -0.001252276              -0.000110397               0.000745428               0.000635032               0.000000000               0.000000000               0.000000000               0.000000000               0.000228945               0.003036259              -0.001382871              -0.000293679               0.001109968               0.000816290               0.000000000               0.000000000               0.000000000               0.000000000               0.000171923               0.003546640              -0.001251593              -0.000378859               0.001308487               0.000929629               0.000000000               0.000000000               0.000000000               0.000000000               0.000146828               0.003841274              -0.001086481              -0.000425098               0.001422111               0.000997013               0.000000000               0.000000000               0.000000000               0.000000000               0.000146827               0.004008961              -0.000941532              -0.000446059               0.001484993               0.001038934               0.000000000               0.000000000               0.000000000               0.000000000               0.000161073               0.004098733              -0.000811928              -0.000451938               0.001516877               0.001064938               0.000000000               0.000000000               0.000000000               0.000000000               0.000172540               0.004145517              -0.000697206              -0.000453486               0.001532987               0.001079501               0.000000000               0.000000000               0.000000000               0.000000000               0.000174969               0.004169336              -0.000596460              -0.000455553               0.001541615               0.001086063               0.000000000               0.000000000               0.000000000               0.000000000               0.000164140               0.004177333              -0.000507007              -0.000460613               0.001545968               0.001085355               0.000000000               0.000000000               0.000000000               0.000000000               0.000137403               0.004166258              -0.000428713              -0.000469255               0.001545157               0.001075902               0.000000000               0.000000000               0.000000000               0.000000000               0.000097777               0.004138546              -0.000361908              -0.000480651               0.001539719               0.001059068               0.000000000               0.000000000               0.000000000               0.000000000               0.000049928               0.004099536              -0.000301382              -0.000493718               0.001531071               0.001037353               0.000000000               0.000000000               0.000000000               0.000000000              -0.000005147               0.004050604              -0.000237699              -0.000508254               0.001519606               0.001011352               0.000000000               0.000000000               0.000000000               0.000000000              -0.000066612               0.003991379              -0.000162134              -0.000523900               0.001505080               0.000981179               0.000000000               0.000000000               0.000000000               0.000000000              -0.000142018               0.003926252              -0.000080584              -0.000544037               0.001490083               0.000946046               0.000000000               0.000000000               0.000000000               0.000000000              -0.000203480               0.003880557              -0.000033436              -0.000561373               0.001480631               0.000919257               0.000000000               0.000000000               0.000000000               0.000000000              -0.000006226               0.000801185              -0.000661298              -0.000102483               0.000301219               0.000198736               0.000000000               0.000000000               0.000000000               0.000000000               0.000260214               0.001509197              -0.001030136              -0.000091070               0.000533417               0.000442346               0.000000000               0.000000000               0.000000000               0.000000000               0.000300371               0.002357649              -0.001283872              -0.000182068               0.000846564               0.000664496               0.000000000               0.000000000               0.000000000               0.000000000               0.000309431               0.002921389              -0.001229932              -0.000249138               0.001056832               0.000807694               0.000000000               0.000000000               0.000000000               0.000000000               0.000301003               0.003301310              -0.001110334              -0.000299788               0.001200355               0.000900567               0.000000000               0.000000000               0.000000000               0.000000000               0.000287206               0.003557227              -0.000987672              -0.000336951               0.001298047               0.000961096               0.000000000               0.000000000               0.000000000               0.000000000               0.000282881               0.003725645              -0.000866133              -0.000359625               0.001361744               0.001002119               0.000000000               0.000000000               0.000000000               0.000000000               0.000280069               0.003835913              -0.000752695              -0.000374463               0.001403446               0.001028983               0.000000000               0.000000000               0.000000000               0.000000000               0.000276109               0.003914022              -0.000652092              -0.000385711               0.001433231               0.001047520               0.000000000               0.000000000               0.000000000               0.000000000               0.000265168               0.003965037              -0.000562055              -0.000396191               0.001453729               0.001057538               0.000000000               0.000000000               0.000000000               0.000000000               0.000244068               0.003988507              -0.000484777              -0.000407037               0.001465168               0.001058131               0.000000000               0.000000000               0.000000000               0.000000000               0.000212711               0.003991917              -0.000419402              -0.000419222               0.001470366               0.001051144               0.000000000               0.000000000               0.000000000               0.000000000               0.000171683               0.003983942              -0.000357157              -0.000433611               0.001472504               0.001038894               0.000000000               0.000000000               0.000000000               0.000000000               0.000118602               0.003967895              -0.000288891              -0.000451510               0.001473122               0.001021612               0.000000000               0.000000000               0.000000000               0.000000000               0.000053961               0.003939855              -0.000207460              -0.000472246               0.001470687               0.000998442               0.000000000               0.000000000               0.000000000               0.000000000              -0.000022081               0.003899776              -0.000109554              -0.000495751               0.001465163               0.000969412               0.000000000               0.000000000               0.000000000               0.000000000              -0.000083544               0.003865732              -0.000050606              -0.000514544               0.001460079               0.000945535               0.000000000               0.000000000               0.000000000               0.000000000              -0.000455710               0.000401328              -0.000391143              -0.000221057               0.000207460              -0.000013597               0.000000000               0.000000000               0.000000000               0.000000000               0.000090419               0.001001918              -0.000777730              -0.000091333               0.000364413               0.000273080               0.000000000               0.000000000               0.000000000               0.000000000               0.000367425               0.001735366              -0.001076339              -0.000079137               0.000604828               0.000525691               0.000000000               0.000000000               0.000000000               0.000000000               0.000460766               0.002313308              -0.001080778              -0.000116377               0.000809887               0.000693510               0.000000000               0.000000000               0.000000000               0.000000000               0.000480828               0.002748846              -0.001007306              -0.000163296               0.000970704               0.000807409               0.000000000               0.000000000               0.000000000               0.000000000               0.000464729               0.003072018              -0.000916570              -0.000209729               0.001093905               0.000884176               0.000000000               0.000000000               0.000000000               0.000000000               0.000441598               0.003306223              -0.000815952              -0.000247679               0.001184623               0.000936944               0.000000000               0.000000000               0.000000000               0.000000000               0.000419586               0.003477860              -0.000715577              -0.000277387               0.001251737               0.000974350               0.000000000               0.000000000               0.000000000               0.000000000               0.000401574               0.003611094              -0.000624754              -0.000300796               0.001303951               0.001003155               0.000000000               0.000000000               0.000000000               0.000000000               0.000385542               0.003709715              -0.000544570              -0.000319136               0.001342938               0.001023802               0.000000000               0.000000000               0.000000000               0.000000000               0.000368623               0.003778397              -0.000477391              -0.000334066               0.001370808               0.001036743               0.000000000               0.000000000               0.000000000               0.000000000               0.000345663               0.003820983              -0.000420096              -0.000347999               0.001389648               0.001041649               0.000000000               0.000000000               0.000000000               0.000000000               0.000317076               0.003847938              -0.000362865              -0.000362088               0.001403329               0.001041241               0.000000000               0.000000000               0.000000000               0.000000000               0.000282688               0.003869119              -0.000295951              -0.000377631               0.001415570               0.001037939               0.000000000               0.000000000               0.000000000               0.000000000               0.000238616               0.003876312              -0.000216298              -0.000395057               0.001423777               0.001028720               0.000000000               0.000000000               0.000000000               0.000000000               0.000186826               0.003867745              -0.000117278              -0.000413407               0.001427038               0.001013631               0.000000000               0.000000000               0.000000000               0.000000000               0.000148715               0.003854606              -0.000058484              -0.000426057               0.001426875               0.001000818               0.000000000               0.000000000               0.000000000               0.000000000              -0.000842493               0.000151165              -0.000198235              -0.000334830               0.000161997              -0.000172833               0.000000000               0.000000000               0.000000000               0.000000000              -0.000068729               0.000631426              -0.000515291              -0.000104702               0.000245374               0.000140672               0.000000000               0.000000000               0.000000000               0.000000000               0.000417483               0.001237082              -0.000776257               0.000001920               0.000411716               0.000413636               0.000000000               0.000000000               0.000000000               0.000000000               0.000597687               0.001797886              -0.000808357              -0.000000604               0.000599491               0.000598886               0.000000000               0.000000000               0.000000000               0.000000000               0.000650235               0.002257679              -0.000770775              -0.000038372               0.000765343               0.000726970               0.000000000               0.000000000               0.000000000               0.000000000               0.000641035               0.002624860              -0.000713492              -0.000087720               0.000904184               0.000816465               0.000000000               0.000000000               0.000000000               0.000000000               0.000604401               0.002911519              -0.000641912              -0.000137289               0.001016260               0.000878970               0.000000000               0.000000000               0.000000000               0.000000000               0.000563712               0.003137371              -0.000566806              -0.000180779               0.001106040               0.000925260               0.000000000               0.000000000               0.000000000               0.000000000               0.000529197               0.003320650              -0.000498581              -0.000216632               0.001179083               0.000962451               0.000000000               0.000000000               0.000000000               0.000000000               0.000503718               0.003468247              -0.000438651              -0.000244636               0.001237616               0.000992980               0.000000000               0.000000000               0.000000000               0.000000000               0.000483349               0.003580171              -0.000388576              -0.000266265               0.001282133               0.001015868               0.000000000               0.000000000               0.000000000               0.000000000               0.000466185               0.003662973              -0.000346372              -0.000283052               0.001315329               0.001032277               0.000000000               0.000000000               0.000000000               0.000000000               0.000452049               0.003726808              -0.000304013              -0.000296332               0.001341034               0.001044702               0.000000000               0.000000000               0.000000000               0.000000000               0.000443515               0.003776839              -0.000251958              -0.000305786               0.001360862               0.001055076               0.000000000               0.000000000               0.000000000               0.000000000               0.000439731               0.003813862              -0.000186705              -0.000311833               0.001375219               0.001063386               0.000000000               0.000000000               0.000000000               0.000000000               0.000439866               0.003837861              -0.000103523              -0.000314782               0.001384202               0.001069420               0.000000000               0.000000000               0.000000000               0.000000000               0.000442718               0.003846124              -0.000055449              -0.000314746               0.001386944               0.001072198               0.000000000               0.000000000               0.000000000               0.000000000              -0.001105517               0.000021792              -0.000076721              -0.000417292               0.000146361              -0.000270932               0.000000000               0.000000000               0.000000000               0.000000000              -0.000185075               0.000409364              -0.000254426              -0.000120573               0.000176644               0.000056071               0.000000000               0.000000000               0.000000000               0.000000000               0.000448669               0.000915276              -0.000405981               0.000053840               0.000287142               0.000340982               0.000000000               0.000000000               0.000000000               0.000000000               0.000697771               0.001448694              -0.000433342               0.000080576               0.000456034               0.000536610               0.000000000               0.000000000               0.000000000               0.000000000               0.000778000               0.001916090              -0.000419728               0.000052238               0.000621278               0.000673515               0.000000000               0.000000000               0.000000000               0.000000000               0.000772137               0.002309101              -0.000392379               0.000000913               0.000769388               0.000770301               0.000000000               0.000000000               0.000000000               0.000000000               0.000725744               0.002629658              -0.000355258              -0.000056553               0.000895395               0.000838842               0.000000000               0.000000000               0.000000000               0.000000000               0.000673664               0.002892191              -0.000315179              -0.000108900               0.001000354               0.000891454               0.000000000               0.000000000               0.000000000               0.000000000               0.000628419               0.003109691              -0.000278521              -0.000153054               0.001087571               0.000934517               0.000000000               0.000000000               0.000000000               0.000000000               0.000594523               0.003291882              -0.000246604              -0.000188539               0.001160129               0.000971590               0.000000000               0.000000000               0.000000000               0.000000000               0.000571062               0.003441112              -0.000220653              -0.000215990               0.001219023               0.001003032               0.000000000               0.000000000               0.000000000               0.000000000               0.000555415               0.003556528              -0.000199410              -0.000236285               0.001264259               0.001027974               0.000000000               0.000000000               0.000000000               0.000000000               0.000549069               0.003647455              -0.000177870              -0.000250030               0.001299150               0.001049119               0.000000000               0.000000000               0.000000000               0.000000000               0.000559421               0.003724322              -0.000151248              -0.000255757               0.001326680               0.001070924               0.000000000               0.000000000               0.000000000               0.000000000               0.000591524               0.003785743              -0.000115524              -0.000251396               0.001345700               0.001094304               0.000000000               0.000000000               0.000000000               0.000000000               0.000648359               0.003826588              -0.000066051              -0.000235189               0.001353913               0.001118724               0.000000000               0.000000000               0.000000000               0.000000000               0.000701744               0.003847622              -0.000037526              -0.000217798               0.001355127               0.001137329               0.000000000               0.000000000               0.000000000               0.000000000              -0.001198691              -0.000016139              -0.000000000              -0.000447491               0.000143783              -0.000303708               0.000000000               0.000000000               0.000000000               0.000000000              -0.000228399               0.000335377               0.000000000              -0.000127572               0.000154315               0.000026743               0.000000000               0.000000000               0.000000000               0.000000000               0.000459801               0.000803375               0.000000000               0.000072003               0.000243788               0.000315791               0.000000000               0.000000000               0.000000000               0.000000000               0.000735481               0.001325614              -0.000000000               0.000110103               0.000405166               0.000515269               0.000000000               0.000000000               0.000000000               0.000000000               0.000826599               0.001792653               0.000000000               0.000085892               0.000568914               0.000654806               0.000000000               0.000000000               0.000000000               0.000000000               0.000820643               0.002193905              -0.000000000               0.000033503               0.000720127               0.000753629               0.000000000               0.000000000               0.000000000               0.000000000               0.000770857               0.002528623               0.000000000              -0.000027007               0.000851868               0.000824861               0.000000000               0.000000000               0.000000000               0.000000000               0.000714854               0.002802174              -0.000000000              -0.000082201               0.000961449               0.000879248               0.000000000               0.000000000               0.000000000               0.000000000               0.000667372               0.003033372              -0.000000000              -0.000128907               0.001054083               0.000925176               0.000000000               0.000000000               0.000000000               0.000000000               0.000632294               0.003229720               0.000000000              -0.000166604               0.001132097               0.000965493               0.000000000               0.000000000               0.000000000               0.000000000               0.000607292               0.003391010               0.000000000              -0.000196141               0.001195706               0.000999564               0.000000000               0.000000000               0.000000000               0.000000000               0.000590171               0.003520278              -0.000000000              -0.000218720               0.001246321               0.001027601               0.000000000               0.000000000               0.000000000               0.000000000               0.000585466               0.003624767              -0.000000000              -0.000233546               0.001286092               0.001052547               0.000000000               0.000000000               0.000000000               0.000000000               0.000601967               0.003714892               0.000000000              -0.000238623               0.001317826               0.001079203               0.000000000               0.000000000               0.000000000               0.000000000               0.000647202               0.003785565               0.000000000              -0.000230494               0.001338674               0.001108180               0.000000000               0.000000000               0.000000000               0.000000000               0.000729369               0.003828373               0.000000000              -0.000205033               0.001344456               0.001139423               0.000000000               0.000000000               0.000000000               0.000000000               0.000809371               0.003852733               0.000000000              -0.000178077               0.001343591               0.001165513               0.000000000               0.000000000               0.000000000               0.000000000               0.000000000               0.000000000               0.000000000               0.000000000               0.000000000               0.000000000               0.000000000               0.000000000               0.000000000               0.000000000               0.000000000               0.000000000               0.000000000               0.000000000               0.000000000               0.000000000               0.000000000               0.000000000               0.000000000               0.000000000               0.000000000               0.000000000               0.000000000               0.000000000               0.000000000               0.000000000               0.000000000               0.000000000               0.000000000               0.000000000               0.000000000               0.000000000               0.000000000               0.000000000               0.000000000               0.000000000               0.000000000               0.000000000               0.000000000               0.000000000               0.000000000               0.000000000               0.000000000               0.000000000               0.000000000               0.000000000               0.000000000               0.000000000               0.000000000               0.000000000               0.000000000               0.000000000               0.000000000               0.000000000               0.000000000               0.000000000               0.000000000               0.000000000               0.000000000               0.000000000               0.000000000               0.000000000               0.000000000               0.000000000               0.000000000               0.000000000               0.000000000               0.000000000               0.000000000               0.000000000               0.000000000               0.000000000               0.000000000               0.000000000               0.000000000               0.000000000               0.000000000               0.000000000               0.000000000               0.000000000               0.000000000               0.000000000               0.000000000               0.000000000               0.000000000               0.000000000               0.000000000               0.000000000               0.000000000               0.000000000               0.000000000               0.000000000               0.000000000               0.000000000               0.000000000               0.000000000               0.000000000               0.000000000               0.000000000               0.000000000               0.000000000               0.000000000               0.000000000               0.000000000               0.000000000               0.000000000               0.000000000               0.000000000               0.000000000               0.000000000               0.000000000               0.000000000               0.000000000               0.000000000               0.000000000               0.000000000               0.000000000               0.000000000               0.000000000               0.000000000               0.000000000               0.000000000               0.000000000               0.000000000               0.000000000               0.000000000               0.000000000               0.000000000               0.000000000               0.000000000               0.000000000               0.000000000               0.000000000               0.000000000               0.000000000               0.000000000               0.000000000               0.000000000               0.000000000               0.000000000               0.000000000               0.000000000               0.000000000               0.000000000               0.000000000               0.000000000               0.000000000               0.000000000               0.000000000               0.000000000               0.000000000               0.000000000               0.000000000               0.000000000               0.000000000               0.000000000               0.000000000               0.000000000               0.000000000               0.000000000               0.000000000               0.000000000               0.000000000               0.000000000               0.000000000               0.000000000               0.000000000               0.000000000               0.000000000               0.000000000               0.001005831               0.010597176               0.000789686              -0.000947458               0.003848176               0.002900718               0.000000000               0.000000000               0.000000000               0.000000000               0.001040813               0.008674618               0.000476937              -0.000694021               0.003122851               0.002428830               0.000000000               0.000000000               0.000000000               0.000000000               0.001393472               0.007148724               0.000156603              -0.000371037               0.002506563               0.002135526               0.000000000               0.000000000               0.000000000               0.000000000               0.001422385               0.006308506               0.000009842              -0.000255168               0.002187870               0.001932702               0.000000000               0.000000000               0.000000000               0.000000000               0.001334000               0.005809917              -0.000062099              -0.000225989               0.002011949               0.001785960               0.000000000               0.000000000               0.000000000               0.000000000               0.001204101               0.005502385              -0.000096864              -0.000236260               0.001912863               0.001676604               0.000000000               0.000000000               0.000000000               0.000000000               0.001066421               0.005303736              -0.000109035              -0.000263058               0.001855581               0.001592522               0.000000000               0.000000000               0.000000000               0.000000000               0.000933811               0.005166776              -0.000109130              -0.000295667               0.001820797               0.001525130               0.000000000               0.000000000               0.000000000               0.000000000               0.000810171               0.005067780              -0.000105737              -0.000329658               0.001799129               0.001469471               0.000000000               0.000000000               0.000000000               0.000000000               0.000694678               0.004994547              -0.000103182              -0.000363813               0.001786104               0.001422290               0.000000000               0.000000000               0.000000000               0.000000000               0.000581391               0.004936615              -0.000099675              -0.000399054               0.001778540               0.001379486               0.000000000               0.000000000               0.000000000               0.000000000               0.000471017               0.004887051              -0.000093641              -0.000434249               0.001773750               0.001339501               0.000000000               0.000000000               0.000000000               0.000000000               0.000368213               0.004843552              -0.000086309              -0.000467363               0.001770289               0.001302926               0.000000000               0.000000000               0.000000000               0.000000000               0.000269036               0.004801006              -0.000076494              -0.000499236               0.001766731               0.001267495               0.000000000               0.000000000               0.000000000               0.000000000               0.000172518               0.004754199              -0.000061356              -0.000529579               0.001761243               0.001231664               0.000000000               0.000000000               0.000000000               0.000000000               0.000083629               0.004699503              -0.000036186              -0.000556075               0.001751844               0.001195768               0.000000000               0.000000000               0.000000000               0.000000000               0.000039076               0.004660148              -0.000020058              -0.000567864               0.001742655               0.001174791               0.000000000               0.000000000               0.000000000               0.000000000               0.001147839               0.010057376               0.001489964              -0.000826731               0.003628002               0.002801271               0.000000000               0.000000000               0.000000000               0.000000000               0.001059978               0.008306283               0.000899141              -0.000640792               0.002982331               0.002341538               0.000000000               0.000000000               0.000000000               0.000000000               0.001283458               0.006974444               0.000299585              -0.000390508               0.002454961               0.002064453               0.000000000               0.000000000               0.000000000               0.000000000               0.001261344               0.006240732               0.000033947              -0.000307087               0.002182585               0.001875499               0.000000000               0.000000000               0.000000000               0.000000000               0.001157810               0.005800292              -0.000090921              -0.000290857               0.002030364               0.001739507               0.000000000               0.000000000               0.000000000               0.000000000               0.001028713               0.005519124              -0.000148777              -0.000304122               0.001941064               0.001636941               0.000000000               0.000000000               0.000000000               0.000000000               0.000902094               0.005329706              -0.000168527              -0.000327927               0.001885860               0.001557933               0.000000000               0.000000000               0.000000000               0.000000000               0.000786450               0.005193932              -0.000169515              -0.000354322               0.001849401               0.001495079               0.000000000               0.000000000               0.000000000               0.000000000               0.000682173               0.005093565              -0.000165588              -0.000380880               0.001824798               0.001443918               0.000000000               0.000000000               0.000000000               0.000000000               0.000587197               0.005019944              -0.000160752              -0.000407293               0.001809062               0.001401769               0.000000000               0.000000000               0.000000000               0.000000000               0.000493694               0.004962683              -0.000153014              -0.000435199               0.001799277               0.001364078               0.000000000               0.000000000               0.000000000               0.000000000               0.000399163               0.004916933              -0.000142955              -0.000464929               0.001793937               0.001329008               0.000000000               0.000000000               0.000000000               0.000000000               0.000309631               0.004882589              -0.000131236              -0.000494211               0.001792250               0.001298040               0.000000000               0.000000000               0.000000000               0.000000000               0.000224011               0.004856072              -0.000113984              -0.000523004               0.001793009               0.001270005               0.000000000               0.000000000               0.000000000               0.000000000               0.000141693               0.004832200              -0.000088643              -0.000550889               0.001794347               0.001243458               0.000000000               0.000000000               0.000000000               0.000000000               0.000068170               0.004809999              -0.000051073              -0.000575685               0.001795212               0.001219527               0.000000000               0.000000000               0.000000000               0.000000000               0.000035416               0.004800411              -0.000027520              -0.000586769               0.001795711               0.001208942               0.000000000               0.000000000               0.000000000               0.000000000               0.001329366               0.009221981               0.002026311              -0.000654235               0.003292041               0.002637806               0.000000000               0.000000000               0.000000000               0.000000000               0.001066466               0.007748539               0.001227680              -0.000568642               0.002772368               0.002203726               0.000000000               0.000000000               0.000000000               0.000000000               0.001104511               0.006705013               0.000427931              -0.000423934               0.002376293               0.001952359               0.000000000               0.000000000               0.000000000               0.000000000               0.001015289               0.006115100               0.000088744              -0.000383653               0.002166231               0.001782577               0.000000000               0.000000000               0.000000000               0.000000000               0.000897321               0.005749301              -0.000064061              -0.000382166               0.002043803               0.001661637               0.000000000               0.000000000               0.000000000               0.000000000               0.000779957               0.005503805              -0.000133379              -0.000395491               0.001966414               0.001570923               0.000000000               0.000000000               0.000000000               0.000000000               0.000677407               0.005329438              -0.000157571              -0.000412151               0.001913845               0.001501694               0.000000000               0.000000000               0.000000000               0.000000000               0.000590229               0.005199007              -0.000158556              -0.000428539               0.001875831               0.001447292               0.000000000               0.000000000               0.000000000               0.000000000               0.000511793               0.005098891              -0.000154846              -0.000445438               0.001848093               0.001402655               0.000000000               0.000000000               0.000000000               0.000000000               0.000438757               0.005023722              -0.000150261              -0.000463430               0.001829034               0.001365604               0.000000000               0.000000000               0.000000000               0.000000000               0.000369315               0.004966166              -0.000142016              -0.000482276               0.001816131               0.001333854               0.000000000               0.000000000               0.000000000               0.000000000               0.000299292               0.004922628              -0.000132224              -0.000503093               0.001808557               0.001305464               0.000000000               0.000000000               0.000000000               0.000000000               0.000228810               0.004891518              -0.000121973              -0.000525634               0.001805701               0.001280067               0.000000000               0.000000000               0.000000000               0.000000000               0.000161456               0.004870453              -0.000105850              -0.000548259               0.001806221               0.001257962               0.000000000               0.000000000               0.000000000               0.000000000               0.000101679               0.004857293              -0.000079975              -0.000569031               0.001808758               0.001239728               0.000000000               0.000000000               0.000000000               0.000000000               0.000049225               0.004850125              -0.000043960              -0.000587805               0.001812627               0.001224823               0.000000000               0.000000000               0.000000000               0.000000000               0.000026502               0.004852456              -0.000022379              -0.000596617               0.001816342               0.001219724               0.000000000               0.000000000               0.000000000               0.000000000               0.001498096               0.008175936               0.002362946              -0.000460207               0.002878687               0.002418479               0.000000000               0.000000000               0.000000000               0.000000000               0.001043122               0.007061750               0.001453587              -0.000491548               0.002517742               0.002026194               0.000000000               0.000000000               0.000000000               0.000000000               0.000876423               0.006367848               0.000552733              -0.000467321               0.002278369               0.001811047               0.000000000               0.000000000               0.000000000               0.000000000               0.000729911               0.005938182               0.000186324              -0.000468555               0.002135559               0.001667004               0.000000000               0.000000000               0.000000000               0.000000000               0.000612775               0.005650236               0.000024458              -0.000476488               0.002042223               0.001565735               0.000000000               0.000000000               0.000000000               0.000000000               0.000520152               0.005441570              -0.000051234              -0.000485138               0.001975551               0.001490413               0.000000000               0.000000000               0.000000000               0.000000000               0.000447818               0.005281990              -0.000081095              -0.000492316               0.001924751               0.001432435               0.000000000               0.000000000               0.000000000               0.000000000               0.000390971               0.005157661              -0.000087310              -0.000498092               0.001885234               0.001387142               0.000000000               0.000000000               0.000000000               0.000000000               0.000341317               0.005062626              -0.000089236              -0.000504833               0.001855803               0.001350970               0.000000000               0.000000000               0.000000000               0.000000000               0.000291580               0.004987201              -0.000091117              -0.000514056               0.001833736               0.001319680               0.000000000               0.000000000               0.000000000               0.000000000               0.000242446               0.004927052              -0.000089834              -0.000524963               0.001817322               0.001292359               0.000000000               0.000000000               0.000000000               0.000000000               0.000193640               0.004880045              -0.000089057              -0.000537389               0.001805795               0.001268406               0.000000000               0.000000000               0.000000000               0.000000000               0.000145755               0.004847048              -0.000087242              -0.000551222               0.001799407               0.001248185               0.000000000               0.000000000               0.000000000               0.000000000               0.000099846               0.004821310              -0.000078572              -0.000565220               0.001795494               0.001230274               0.000000000               0.000000000               0.000000000               0.000000000               0.000060818               0.004801657              -0.000059787              -0.000577399               0.001793003               0.001215604               0.000000000               0.000000000               0.000000000               0.000000000               0.000028082               0.004788572              -0.000032350              -0.000588039               0.001792188               0.001204149               0.000000000               0.000000000               0.000000000               0.000000000               0.000013571               0.004785270              -0.000016825              -0.000593068               0.001792763               0.001199695               0.000000000               0.000000000               0.000000000               0.000000000               0.001599856               0.007028921               0.002497742              -0.000278671               0.002435840               0.002157169               0.000000000               0.000000000               0.000000000               0.000000000               0.000983443               0.006318585               0.001584808              -0.000421032               0.002246518               0.001825485               0.000000000               0.000000000               0.000000000               0.000000000               0.000637009               0.005994546               0.000682660              -0.000510439               0.002168308               0.001657869               0.000000000               0.000000000               0.000000000               0.000000000               0.000461239               0.005723317               0.000324385              -0.000542449               0.002088569               0.001546121               0.000000000               0.000000000               0.000000000               0.000000000               0.000362637               0.005507177               0.000161145              -0.000552407               0.002019843               0.001467436               0.000000000               0.000000000               0.000000000               0.000000000               0.000303109               0.005331927               0.000077087              -0.000552824               0.001961566               0.001408742               0.000000000               0.000000000               0.000000000               0.000000000               0.000261788               0.005189291               0.000035483              -0.000550490               0.001913243               0.001362753               0.000000000               0.000000000               0.000000000               0.000000000               0.000232284               0.005076386               0.000016417              -0.000547440               0.001874592               0.001327151               0.000000000               0.000000000               0.000000000               0.000000000               0.000205594               0.004985687               0.000003216              -0.000546112               0.001843916               0.001297805               0.000000000               0.000000000               0.000000000               0.000000000               0.000174957               0.004907017              -0.000010083              -0.000547767               0.001818245               0.001270478               0.000000000               0.000000000               0.000000000               0.000000000               0.000141867               0.004839809              -0.000021182              -0.000551775               0.001797178               0.001245404               0.000000000               0.000000000               0.000000000               0.000000000               0.000107961               0.004785720              -0.000034085              -0.000557728               0.001781134               0.001223405               0.000000000               0.000000000               0.000000000               0.000000000               0.000078164               0.004743010              -0.000044534              -0.000563564               0.001768842               0.001205279               0.000000000               0.000000000               0.000000000               0.000000000               0.000051799               0.004705082              -0.000043825              -0.000568709               0.001757915               0.001189205               0.000000000               0.000000000               0.000000000               0.000000000               0.000030013               0.004670259              -0.000033517              -0.000572526               0.001747579               0.001175053               0.000000000               0.000000000               0.000000000               0.000000000               0.000013750               0.004639725              -0.000017049              -0.000574808               0.001738162               0.001163354               0.000000000               0.000000000               0.000000000               0.000000000               0.000005235               0.004622743              -0.000008726              -0.000575878               0.001732859               0.001156980               0.000000000               0.000000000               0.000000000               0.000000000               0.001602522               0.005871687               0.002457923              -0.000133018               0.002001548               0.001868530               0.000000000               0.000000000               0.000000000               0.000000000               0.000887925               0.005578372               0.001639824              -0.000364325               0.001980880               0.001616555               0.000000000               0.000000000               0.000000000               0.000000000               0.000413803               0.005609824               0.000817245              -0.000546051               0.002051939               0.001505889               0.000000000               0.000000000               0.000000000               0.000000000               0.000242677               0.005482417               0.000481835              -0.000594297               0.002025553               0.001431256               0.000000000               0.000000000               0.000000000               0.000000000               0.000173716               0.005331631               0.000316390              -0.000601309               0.001977629               0.001376320               0.000000000               0.000000000               0.000000000               0.000000000               0.000149241               0.005190178               0.000221331              -0.000592806               0.001927644               0.001334838               0.000000000               0.000000000               0.000000000               0.000000000               0.000139885               0.005065357               0.000163226              -0.000580711               0.001882006               0.001301295               0.000000000               0.000000000               0.000000000               0.000000000               0.000133081               0.004959377               0.000127196              -0.000570015               0.001843114               0.001273099               0.000000000               0.000000000               0.000000000               0.000000000               0.000120714               0.004867709               0.000099269              -0.000563194               0.001810285               0.001247090               0.000000000               0.000000000               0.000000000               0.000000000               0.000099442               0.004784049               0.000072515              -0.000560714               0.001781572               0.001220858               0.000000000               0.000000000               0.000000000               0.000000000               0.000075480               0.004711925               0.000047213              -0.000560684               0.001757521               0.001196836               0.000000000               0.000000000               0.000000000               0.000000000               0.000051818               0.004650704               0.000021809              -0.000561905               0.001737521               0.001175616               0.000000000               0.000000000               0.000000000               0.000000000               0.000030546               0.004593793               0.000001580              -0.000562768               0.001718838               0.001156070               0.000000000               0.000000000               0.000000000               0.000000000               0.000018347               0.004538927              -0.000006476              -0.000560484               0.001699789               0.001139304               0.000000000               0.000000000               0.000000000               0.000000000               0.000011596               0.004483104              -0.000005902              -0.000556038               0.001679699               0.001123661               0.000000000               0.000000000               0.000000000               0.000000000               0.000005006               0.004427815              -0.000002240              -0.000551598               0.001659790               0.001108192               0.000000000               0.000000000               0.000000000               0.000000000              -0.000003956               0.004390613              -0.000003994              -0.000550309               0.001646959               0.001096651               0.000000000               0.000000000               0.000000000               0.000000000               0.001517094               0.004776003               0.002276805              -0.000028093               0.001601349               0.001573255               0.000000000               0.000000000               0.000000000               0.000000000               0.000768672               0.004886226               0.001630988              -0.000322527               0.001736234               0.001413707               0.000000000               0.000000000               0.000000000               0.000000000               0.000230751               0.005230974               0.000947292              -0.000567339               0.001932753               0.001365414               0.000000000               0.000000000               0.000000000               0.000000000               0.000088450               0.005223479               0.000635893              -0.000619765               0.001947730               0.001327966               0.000000000               0.000000000               0.000000000               0.000000000               0.000056808               0.005130884               0.000466744              -0.000620056               0.001916963               0.001296907               0.000000000               0.000000000               0.000000000               0.000000000               0.000060819               0.005019448               0.000358920              -0.000604623               0.001874673               0.001270051               0.000000000               0.000000000               0.000000000               0.000000000               0.000073173               0.004909430               0.000282243              -0.000586237               0.001831873               0.001245635               0.000000000               0.000000000               0.000000000               0.000000000               0.000080485               0.004809108               0.000224610              -0.000570955               0.001793339               0.001222383               0.000000000               0.000000000               0.000000000               0.000000000               0.000074758               0.004718168               0.000178995              -0.000561735               0.001759952               0.001198217               0.000000000               0.000000000               0.000000000               0.000000000               0.000056852               0.004636619               0.000139461              -0.000558257               0.001731610               0.001173353               0.000000000               0.000000000               0.000000000               0.000000000               0.000033643               0.004564230               0.000102636              -0.000557911               0.001707365               0.001149454               0.000000000               0.000000000               0.000000000               0.000000000               0.000011742               0.004494333               0.000067942              -0.000557387               0.001683892               0.001126505               0.000000000               0.000000000               0.000000000               0.000000000              -0.000003773               0.004420868               0.000037920              -0.000554022               0.001658282               0.001104260               0.000000000               0.000000000               0.000000000               0.000000000              -0.000011080               0.004342965               0.000019158              -0.000547024               0.001629982               0.001082958               0.000000000               0.000000000               0.000000000               0.000000000              -0.000010937               0.004265024               0.000008438              -0.000537228               0.001600737               0.001063509               0.000000000               0.000000000               0.000000000               0.000000000              -0.000007981               0.004191177               0.000001875              -0.000526889               0.001572675               0.001045786               0.000000000               0.000000000               0.000000000               0.000000000              -0.000013377               0.004142251              -0.000004954              -0.000522796               0.001555002               0.001032206               0.000000000               0.000000000               0.000000000               0.000000000               0.001375222               0.003831066               0.002001581               0.000036822               0.001264734               0.001301556               0.000000000               0.000000000               0.000000000               0.000000000               0.000664998               0.004267415               0.001586539              -0.000284054               0.001517142               0.001233088               0.000000000               0.000000000               0.000000000               0.000000000               0.000121795               0.004868752               0.001088709              -0.000562920               0.001810541               0.001247621               0.000000000               0.000000000               0.000000000               0.000000000               0.000009727               0.004974376               0.000797337              -0.000618148               0.001864158               0.001246010               0.000000000               0.000000000               0.000000000               0.000000000               0.000004712               0.004946056               0.000620063              -0.000616489               0.001854165               0.001237676               0.000000000               0.000000000               0.000000000               0.000000000               0.000028220               0.004872585               0.000496108              -0.000598489               0.001823675               0.001225186               0.000000000               0.000000000               0.000000000               0.000000000               0.000052679               0.004785229               0.000397560              -0.000578398               0.001787859               0.001209462               0.000000000               0.000000000               0.000000000               0.000000000               0.000064019               0.004694521               0.000317452              -0.000562807               0.001752427               0.001189620               0.000000000               0.000000000               0.000000000               0.000000000               0.000057864               0.004608306               0.000256013              -0.000554338               0.001720866               0.001166528               0.000000000               0.000000000               0.000000000               0.000000000               0.000040939               0.004532974               0.000205248              -0.000551268               0.001694732               0.001143464               0.000000000               0.000000000               0.000000000               0.000000000               0.000017569               0.004461235               0.000158523              -0.000551064               0.001670752               0.001119687               0.000000000               0.000000000               0.000000000               0.000000000              -0.000006786               0.004385893               0.000117404              -0.000550780               0.001645543               0.001094763               0.000000000               0.000000000               0.000000000               0.000000000              -0.000024005               0.004298619               0.000079204              -0.000546328               0.001614968               0.001068640               0.000000000               0.000000000               0.000000000               0.000000000              -0.000035577               0.004201765               0.000046636              -0.000538561               0.001580094               0.001041534               0.000000000               0.000000000               0.000000000               0.000000000              -0.000047261               0.004103904               0.000021965              -0.000530709               0.001544857               0.001014148               0.000000000               0.000000000               0.000000000               0.000000000              -0.000056105               0.004012641               0.000005041              -0.000522618               0.001511740               0.000989121               0.000000000               0.000000000               0.000000000               0.000000000              -0.000059273               0.003962792              -0.000003230              -0.000517575               0.001493443               0.000975867               0.000000000               0.000000000               0.000000000               0.000000000               0.001165035               0.002925113               0.001686378               0.000071246               0.000951278               0.001022525               0.000000000               0.000000000               0.000000000               0.000000000               0.000602990               0.003544505               0.001527411              -0.000216943               0.001253804               0.001036861               0.000000000               0.000000000               0.000000000               0.000000000               0.000112983               0.004325332               0.001250061              -0.000498298               0.001607862               0.001109564               0.000000000               0.000000000               0.000000000               0.000000000               0.000011585               0.004584186               0.000986256              -0.000568678               0.001717606               0.001148928               0.000000000               0.000000000               0.000000000               0.000000000               0.000006109               0.004658402               0.000794606              -0.000580008               0.001746121               0.001166113               0.000000000               0.000000000               0.000000000               0.000000000               0.000028283               0.004652706               0.000652368              -0.000570981               0.001741213               0.001170232               0.000000000               0.000000000               0.000000000               0.000000000               0.000053071               0.004609344               0.000535980              -0.000556265               0.001721854               0.001165589               0.000000000               0.000000000               0.000000000               0.000000000               0.000069062               0.004549238               0.000438759              -0.000542755               0.001697316               0.001154560               0.000000000               0.000000000               0.000000000               0.000000000               0.000070584               0.004487335               0.000360952              -0.000534447               0.001673912               0.001139466               0.000000000               0.000000000               0.000000000               0.000000000               0.000054318               0.004424675               0.000294382              -0.000532714               0.001652448               0.001119734               0.000000000               0.000000000               0.000000000               0.000000000               0.000026680               0.004364130               0.000235569              -0.000535510               0.001633199               0.001097689               0.000000000               0.000000000               0.000000000               0.000000000              -0.000007523               0.004297803               0.000184283              -0.000540045               0.001612602               0.001072557               0.000000000               0.000000000               0.000000000               0.000000000              -0.000042331               0.004219346               0.000136039              -0.000543291               0.001587532               0.001044240               0.000000000               0.000000000               0.000000000               0.000000000              -0.000071229               0.004131950               0.000089506              -0.000543203               0.001558371               0.001015167               0.000000000               0.000000000               0.000000000               0.000000000              -0.000101585               0.004037021               0.000047628              -0.000542721               0.001526567               0.000983847               0.000000000               0.000000000               0.000000000               0.000000000              -0.000135204               0.003941958               0.000017057              -0.000543445               0.001495121               0.000951676               0.000000000               0.000000000               0.000000000               0.000000000              -0.000153784               0.003891709               0.000003717              -0.000544131               0.001478601               0.000934469               0.000000000               0.000000000               0.000000000               0.000000000               0.000850126               0.002084899               0.001342988               0.000058182               0.000675565               0.000733747               0.000000000               0.000000000               0.000000000               0.000000000               0.000532479               0.002816987               0.001422844              -0.000152445               0.000989800               0.000837356               0.000000000               0.000000000               0.000000000               0.000000000               0.000162782               0.003710123               0.001368191              -0.000402722               0.001370936               0.000968213               0.000000000               0.000000000               0.000000000               0.000000000               0.000068299               0.004115285               0.001160869              -0.000488798               0.001534680               0.001045882               0.000000000               0.000000000               0.000000000               0.000000000               0.000047523               0.004304500               0.000968684              -0.000520241               0.001608232               0.001087992               0.000000000               0.000000000               0.000000000               0.000000000               0.000061575               0.004382549               0.000816561              -0.000524727               0.001635744               0.001111017               0.000000000               0.000000000               0.000000000               0.000000000               0.000085949               0.004397810               0.000690409              -0.000517494               0.001638420               0.001120926               0.000000000               0.000000000               0.000000000               0.000000000               0.000104644               0.004384542               0.000582460              -0.000508825               0.001631108               0.001122283               0.000000000               0.000000000               0.000000000               0.000000000               0.000108746               0.004359303               0.000489417              -0.000504132               0.001621130               0.001116998               0.000000000               0.000000000               0.000000000               0.000000000               0.000095045               0.004327287               0.000407484              -0.000505268               0.001610837               0.001105569               0.000000000               0.000000000               0.000000000               0.000000000               0.000065967               0.004287413               0.000336660              -0.000511188               0.001599519               0.001088332               0.000000000               0.000000000               0.000000000               0.000000000               0.000024601               0.004236292               0.000274888              -0.000520310               0.001585520               0.001065210               0.000000000               0.000000000               0.000000000               0.000000000              -0.000021633               0.004174912               0.000219174              -0.000529975               0.001568282               0.001038307               0.000000000               0.000000000               0.000000000               0.000000000              -0.000066907               0.004104920               0.000162078              -0.000538204               0.001547694               0.001009490               0.000000000               0.000000000               0.000000000               0.000000000              -0.000115025               0.004026299               0.000100889              -0.000546421               0.001524226               0.000977806               0.000000000               0.000000000               0.000000000               0.000000000              -0.000175774               0.003941154               0.000045170              -0.000558558               0.001499891               0.000941333               0.000000000               0.000000000               0.000000000               0.000000000              -0.000221146               0.003890128               0.000015150              -0.000569194               0.001486428               0.000917233               0.000000000               0.000000000               0.000000000               0.000000000               0.000447316               0.001365980               0.000989328              -0.000003005               0.000456323               0.000453318               0.000000000               0.000000000               0.000000000               0.000000000               0.000414249               0.002125912               0.001252276              -0.000110397               0.000745428               0.000635032               0.000000000               0.000000000               0.000000000               0.000000000               0.000228945               0.003036259               0.001382871              -0.000293679               0.001109968               0.000816290               0.000000000               0.000000000               0.000000000               0.000000000               0.000171923               0.003546640               0.001251593              -0.000378859               0.001308487               0.000929629               0.000000000               0.000000000               0.000000000               0.000000000               0.000146828               0.003841274               0.001086481              -0.000425098               0.001422111               0.000997013               0.000000000               0.000000000               0.000000000               0.000000000               0.000146827               0.004008961               0.000941532              -0.000446059               0.001484993               0.001038934               0.000000000               0.000000000               0.000000000               0.000000000               0.000161073               0.004098733               0.000811928              -0.000451938               0.001516877               0.001064938               0.000000000               0.000000000               0.000000000               0.000000000               0.000172540               0.004145517               0.000697206              -0.000453486               0.001532987               0.001079501               0.000000000               0.000000000               0.000000000               0.000000000               0.000174969               0.004169336               0.000596460              -0.000455553               0.001541615               0.001086063               0.000000000               0.000000000               0.000000000               0.000000000               0.000164140               0.004177333               0.000507007              -0.000460613               0.001545968               0.001085355               0.000000000               0.000000000               0.000000000               0.000000000               0.000137403               0.004166258               0.000428713              -0.000469255               0.001545157               0.001075902               0.000000000               0.000000000               0.000000000               0.000000000               0.000097777               0.004138546               0.000361908              -0.000480651               0.001539719               0.001059068               0.000000000               0.000000000               0.000000000               0.000000000               0.000049928               0.004099536               0.000301382              -0.000493718               0.001531071               0.001037353               0.000000000               0.000000000               0.000000000               0.000000000              -0.000005147               0.004050604               0.000237699              -0.000508254               0.001519606               0.001011352               0.000000000               0.000000000               0.000000000               0.000000000              -0.000066612               0.003991379               0.000162134              -0.000523900               0.001505080               0.000981179               0.000000000               0.000000000               0.000000000               0.000000000              -0.000142018               0.003926252               0.000080584              -0.000544037               0.001490083               0.000946046               0.000000000               0.000000000               0.000000000               0.000000000              -0.000203480               0.003880557               0.000033436              -0.000561373               0.001480631               0.000919257               0.000000000               0.000000000               0.000000000               0.000000000              -0.000006226               0.000801185               0.000661298              -0.000102483               0.000301219               0.000198736               0.000000000               0.000000000               0.000000000               0.000000000               0.000260214               0.001509197               0.001030136              -0.000091070               0.000533417               0.000442346               0.000000000               0.000000000               0.000000000               0.000000000               0.000300371               0.002357649               0.001283872              -0.000182068               0.000846564               0.000664496               0.000000000               0.000000000               0.000000000               0.000000000               0.000309431               0.002921389               0.001229932              -0.000249138               0.001056832               0.000807694               0.000000000               0.000000000               0.000000000               0.000000000               0.000301003               0.003301310               0.001110334              -0.000299788               0.001200355               0.000900567               0.000000000               0.000000000               0.000000000               0.000000000               0.000287206               0.003557227               0.000987672              -0.000336951               0.001298047               0.000961096               0.000000000               0.000000000               0.000000000               0.000000000               0.000282881               0.003725645               0.000866133              -0.000359625               0.001361744               0.001002119               0.000000000               0.000000000               0.000000000               0.000000000               0.000280069               0.003835913               0.000752695              -0.000374463               0.001403446               0.001028983               0.000000000               0.000000000               0.000000000               0.000000000               0.000276109               0.003914022               0.000652092              -0.000385711               0.001433231               0.001047520               0.000000000               0.000000000               0.000000000               0.000000000               0.000265168               0.003965037               0.000562055              -0.000396191               0.001453729               0.001057538               0.000000000               0.000000000               0.000000000               0.000000000               0.000244068               0.003988507               0.000484777              -0.000407037               0.001465168               0.001058131               0.000000000               0.000000000               0.000000000               0.000000000               0.000212711               0.003991917               0.000419402              -0.000419222               0.001470366               0.001051144               0.000000000               0.000000000               0.000000000               0.000000000               0.000171683               0.003983942               0.000357157              -0.000433611               0.001472504               0.001038894               0.000000000               0.000000000               0.000000000               0.000000000               0.000118602               0.003967895               0.000288891              -0.000451510               0.001473122               0.001021612               0.000000000               0.000000000               0.000000000               0.000000000               0.000053961               0.003939855               0.000207460              -0.000472246               0.001470687               0.000998442               0.000000000               0.000000000               0.000000000               0.000000000              -0.000022081               0.003899776               0.000109554              -0.000495751               0.001465163               0.000969412               0.000000000               0.000000000               0.000000000               0.000000000              -0.000083544               0.003865732               0.000050606              -0.000514544               0.001460079               0.000945535               0.000000000               0.000000000               0.000000000               0.000000000              -0.000455710               0.000401328               0.000391143              -0.000221057               0.000207460              -0.000013597               0.000000000               0.000000000               0.000000000               0.000000000               0.000090419               0.001001918               0.000777730              -0.000091333               0.000364413               0.000273080               0.000000000               0.000000000               0.000000000               0.000000000               0.000367425               0.001735366               0.001076339              -0.000079137               0.000604828               0.000525691               0.000000000               0.000000000               0.000000000               0.000000000               0.000460766               0.002313308               0.001080778              -0.000116377               0.000809887               0.000693510               0.000000000               0.000000000               0.000000000               0.000000000               0.000480828               0.002748846               0.001007306              -0.000163296               0.000970704               0.000807409               0.000000000               0.000000000               0.000000000               0.000000000               0.000464729               0.003072018               0.000916570              -0.000209729               0.001093905               0.000884176               0.000000000               0.000000000               0.000000000               0.000000000               0.000441598               0.003306223               0.000815952              -0.000247679               0.001184623               0.000936944               0.000000000               0.000000000               0.000000000               0.000000000               0.000419586               0.003477860               0.000715577              -0.000277387               0.001251737               0.000974350               0.000000000               0.000000000               0.000000000               0.000000000               0.000401574               0.003611094               0.000624754              -0.000300796               0.001303951               0.001003155               0.000000000               0.000000000               0.000000000               0.000000000               0.000385542               0.003709715               0.000544570              -0.000319136               0.001342938               0.001023802               0.000000000               0.000000000               0.000000000               0.000000000               0.000368623               0.003778397               0.000477391              -0.000334066               0.001370808               0.001036743               0.000000000               0.000000000               0.000000000               0.000000000               0.000345663               0.003820983               0.000420096              -0.000347999               0.001389648               0.001041649               0.000000000               0.000000000               0.000000000               0.000000000               0.000317076               0.003847938               0.000362865              -0.000362088               0.001403329               0.001041241               0.000000000               0.000000000               0.000000000               0.000000000               0.000282688               0.003869119               0.000295951              -0.000377631               0.001415570               0.001037939               0.000000000               0.000000000               0.000000000               0.000000000               0.000238616               0.003876312               0.000216298              -0.000395057               0.001423777               0.001028720               0.000000000               0.000000000               0.000000000               0.000000000               0.000186826               0.003867745               0.000117278              -0.000413407               0.001427038               0.001013631               0.000000000               0.000000000               0.000000000               0.000000000               0.000148715               0.003854606               0.000058484              -0.000426057               0.001426875               0.001000818               0.000000000               0.000000000               0.000000000               0.000000000              -0.000842493               0.000151165               0.000198235              -0.000334830               0.000161997              -0.000172833               0.000000000               0.000000000               0.000000000               0.000000000              -0.000068729               0.000631426               0.000515291              -0.000104702               0.000245374               0.000140672               0.000000000               0.000000000               0.000000000               0.000000000               0.000417483               0.001237082               0.000776257               0.000001920               0.000411716               0.000413636               0.000000000               0.000000000               0.000000000               0.000000000               0.000597687               0.001797886               0.000808357              -0.000000604               0.000599491               0.000598886               0.000000000               0.000000000               0.000000000               0.000000000               0.000650235               0.002257679               0.000770775              -0.000038372               0.000765343               0.000726970               0.000000000               0.000000000               0.000000000               0.000000000               0.000641035               0.002624860               0.000713492              -0.000087720               0.000904184               0.000816465               0.000000000               0.000000000               0.000000000               0.000000000               0.000604401               0.002911519               0.000641912              -0.000137289               0.001016260               0.000878970               0.000000000               0.000000000               0.000000000               0.000000000               0.000563712               0.003137371               0.000566806              -0.000180779               0.001106040               0.000925260               0.000000000               0.000000000               0.000000000               0.000000000               0.000529197               0.003320650               0.000498581              -0.000216632               0.001179083               0.000962451               0.000000000               0.000000000               0.000000000               0.000000000               0.000503718               0.003468247               0.000438651              -0.000244636               0.001237616               0.000992980               0.000000000               0.000000000               0.000000000               0.000000000               0.000483349               0.003580171               0.000388576              -0.000266265               0.001282133               0.001015868               0.000000000               0.000000000               0.000000000               0.000000000               0.000466185               0.003662973               0.000346372              -0.000283052               0.001315329               0.001032277               0.000000000               0.000000000               0.000000000               0.000000000               0.000452049               0.003726808               0.000304013              -0.000296332               0.001341034               0.001044702               0.000000000               0.000000000               0.000000000               0.000000000               0.000443515               0.003776839               0.000251958              -0.000305786               0.001360862               0.001055076               0.000000000               0.000000000               0.000000000               0.000000000               0.000439731               0.003813862               0.000186705              -0.000311833               0.001375219               0.001063386               0.000000000               0.000000000               0.000000000               0.000000000               0.000439866               0.003837861               0.000103523              -0.000314782               0.001384202               0.001069420               0.000000000               0.000000000               0.000000000               0.000000000               0.000442718               0.003846124               0.000055449              -0.000314746               0.001386944               0.001072198               0.000000000               0.000000000               0.000000000               0.000000000              -0.001105517               0.000021792               0.000076721              -0.000417292               0.000146361              -0.000270932               0.000000000               0.000000000               0.000000000               0.000000000              -0.000185075               0.000409364               0.000254426              -0.000120573               0.000176644               0.000056071               0.000000000               0.000000000               0.000000000               0.000000000               0.000448669               0.000915276               0.000405981               0.000053840               0.000287142               0.000340982               0.000000000               0.000000000               0.000000000               0.000000000               0.000697771               0.001448694               0.000433342               0.000080576               0.000456034               0.000536610               0.000000000               0.000000000               0.000000000               0.000000000               0.000778000               0.001916090               0.000419728               0.000052238               0.000621278               0.000673515               0.000000000               0.000000000               0.000000000               0.000000000               0.000772137               0.002309101               0.000392379               0.000000913               0.000769388               0.000770301               0.000000000               0.000000000               0.000000000               0.000000000               0.000725744               0.002629658               0.000355258              -0.000056553               0.000895395               0.000838842               0.000000000               0.000000000               0.000000000               0.000000000               0.000673664               0.002892191               0.000315179              -0.000108900               0.001000354               0.000891454               0.000000000               0.000000000               0.000000000               0.000000000               0.000628419               0.003109691               0.000278521              -0.000153054               0.001087571               0.000934517               0.000000000               0.000000000               0.000000000               0.000000000               0.000594523               0.003291882               0.000246604              -0.000188539               0.001160129               0.000971590               0.000000000               0.000000000               0.000000000               0.000000000               0.000571062               0.003441112               0.000220653              -0.000215990               0.001219023               0.001003032               0.000000000               0.000000000               0.000000000               0.000000000               0.000555415               0.003556528               0.000199410              -0.000236285               0.001264259               0.001027974               0.000000000               0.000000000               0.000000000               0.000000000               0.000549069               0.003647455               0.000177870              -0.000250030               0.001299150               0.001049119               0.000000000               0.000000000               0.000000000               0.000000000               0.000559421               0.003724322               0.000151248              -0.000255757               0.001326680               0.001070924               0.000000000               0.000000000               0.000000000               0.000000000               0.000591524               0.003785743               0.000115524              -0.000251396               0.001345700               0.001094304               0.000000000               0.000000000               0.000000000               0.000000000               0.000648359               0.003826588               0.000066051              -0.000235189               0.001353913               0.001118724               0.000000000               0.000000000               0.000000000               0.000000000               0.000701744               0.003847622               0.000037526              -0.000217798               0.001355127               0.001137329               0.000000000               0.000000000               0.000000000               0.000000000              -0.001198691              -0.000016139               0.000000000              -0.000447491               0.000143783              -0.000303708               0.000000000               0.000000000               0.000000000               0.000000000              -0.000228399               0.000335377              -0.000000000              -0.000127572               0.000154315               0.000026743               0.000000000               0.000000000               0.000000000               0.000000000               0.000459801               0.000803375              -0.000000000               0.000072003               0.000243788               0.000315791               0.000000000               0.000000000               0.000000000               0.000000000               0.000735481               0.001325614              -0.000000000               0.000110103               0.000405166               0.000515269               0.000000000               0.000000000               0.000000000               0.000000000               0.000826599               0.001792653              -0.000000000               0.000085892               0.000568914               0.000654806               0.000000000               0.000000000               0.000000000               0.000000000               0.000820643               0.002193905               0.000000000               0.000033503               0.000720127               0.000753629               0.000000000               0.000000000               0.000000000               0.000000000               0.000770857               0.002528623               0.000000000              -0.000027007               0.000851868               0.000824861               0.000000000               0.000000000               0.000000000               0.000000000               0.000714854               0.002802174              -0.000000000              -0.000082201               0.000961449               0.000879248               0.000000000               0.000000000               0.000000000               0.000000000               0.000667372               0.003033372               0.000000000              -0.000128907               0.001054083               0.000925176               0.000000000               0.000000000               0.000000000               0.000000000               0.000632294               0.003229720               0.000000000              -0.000166604               0.001132097               0.000965493               0.000000000               0.000000000               0.000000000               0.000000000               0.000607292               0.003391010               0.000000000              -0.000196141               0.001195706               0.000999564               0.000000000               0.000000000               0.000000000               0.000000000               0.000590171               0.003520278              -0.000000000              -0.000218720               0.001246321               0.001027601               0.000000000               0.000000000               0.000000000               0.000000000               0.000585466               0.003624767              -0.000000000              -0.000233546               0.001286092               0.001052547               0.000000000               0.000000000               0.000000000               0.000000000               0.000601967               0.003714892               0.000000000              -0.000238623               0.001317826               0.001079203               0.000000000               0.000000000               0.000000000               0.000000000               0.000647202               0.003785565               0.000000000              -0.000230494               0.001338674               0.001108180               0.000000000               0.000000000               0.000000000               0.000000000               0.000729369               0.003828373               0.000000000              -0.000205033               0.001344456               0.001139423               0.000000000               0.000000000               0.000000000               0.000000000               0.000809371               0.003852733              -0.000000000              -0.000178077               0.001343591               0.001165513               0.000000000               0.000000000               0.000000000               0.000000000               0.000952348               0.010784868              -0.000000000              -0.000990976               0.003925245               0.002934270               0.000000000               0.000000000               0.000000000               0.000000000               0.001032311               0.008804546              -0.000000000              -0.000713450               0.003172636               0.002459186               0.000000000               0.000000000               0.000000000               0.000000000               0.001430852               0.007209341              -0.000000000              -0.000364597               0.002524622               0.002160025               0.000000000               0.000000000               0.000000000               0.000000000               0.001476594               0.006328563              -0.000000000              -0.000237347               0.002188616               0.001951269               0.000000000               0.000000000               0.000000000               0.000000000               0.001393490               0.005806453               0.000000000              -0.000203247               0.002003214               0.001799967               0.000000000               0.000000000               0.000000000               0.000000000               0.001266723               0.005488636               0.000000000              -0.000211058               0.001899880               0.001688822               0.000000000               0.000000000               0.000000000               0.000000000               0.001129432               0.005288849              -0.000000000              -0.000237568               0.001842121               0.001604553               0.000000000               0.000000000               0.000000000               0.000000000               0.000992276               0.005154421              -0.000000000              -0.000272198               0.001808856               0.001536657               0.000000000               0.000000000               0.000000000               0.000000000               0.000860094               0.005055874               0.000000000              -0.000309448               0.001788424               0.001478976               0.000000000               0.000000000               0.000000000               0.000000000               0.000734948               0.004981502               0.000000000              -0.000347081               0.001776178               0.001429096               0.000000000               0.000000000               0.000000000               0.000000000               0.000614202               0.004922703              -0.000000000              -0.000385011               0.001769222               0.001384211               0.000000000               0.000000000               0.000000000               0.000000000               0.000499038               0.004870804              -0.000000000              -0.000421710               0.001764155               0.001342445               0.000000000               0.000000000               0.000000000               0.000000000               0.000390301               0.004820306               0.000000000              -0.000456174               0.001758811               0.001302636               0.000000000               0.000000000               0.000000000               0.000000000               0.000286723               0.004768441               0.000000000              -0.000488533               0.001752309               0.001263776               0.000000000               0.000000000               0.000000000               0.000000000               0.000186922               0.004709746              -0.000000000              -0.000518621               0.001742773               0.001224152               0.000000000               0.000000000               0.000000000               0.000000000               0.000091310               0.004637019              -0.000000000              -0.000545385               0.001727452               0.001182068               0.000000000               0.000000000               0.000000000               0.000000000               0.000040099               0.004580317              -0.000000000              -0.000557501               0.001712591               0.001155090               0.000000000               0.000000000               0.000000000               0.000000000               0.001005831               0.010597176              -0.000789686              -0.000947458               0.003848176               0.002900718               0.000000000               0.000000000               0.000000000               0.000000000               0.001040813               0.008674618              -0.000476937              -0.000694021               0.003122851               0.002428830               0.000000000               0.000000000               0.000000000               0.000000000               0.001393472               0.007148724              -0.000156603              -0.000371037               0.002506563               0.002135526               0.000000000               0.000000000               0.000000000               0.000000000               0.001422385               0.006308506              -0.000009842              -0.000255168               0.002187870               0.001932702               0.000000000               0.000000000               0.000000000               0.000000000               0.001334000               0.005809917               0.000062099              -0.000225989               0.002011949               0.001785960               0.000000000               0.000000000               0.000000000               0.000000000               0.001204101               0.005502385               0.000096864              -0.000236260               0.001912863               0.001676604               0.000000000               0.000000000               0.000000000               0.000000000               0.001066421               0.005303736               0.000109035              -0.000263058               0.001855581               0.001592522               0.000000000               0.000000000               0.000000000               0.000000000               0.000933811               0.005166776               0.000109130              -0.000295667               0.001820797               0.001525130               0.000000000               0.000000000               0.000000000               0.000000000               0.000810171               0.005067780               0.000105737              -0.000329658               0.001799129               0.001469471               0.000000000               0.000000000               0.000000000               0.000000000               0.000694678               0.004994547               0.000103182              -0.000363813               0.001786104               0.001422290               0.000000000               0.000000000               0.000000000               0.000000000               0.000581391               0.004936615               0.000099675              -0.000399054               0.001778540               0.001379486               0.000000000               0.000000000               0.000000000               0.000000000               0.000471017               0.004887051               0.000093641              -0.000434249               0.001773750               0.001339501               0.000000000               0.000000000               0.000000000               0.000000000               0.000368213               0.004843552               0.000086309              -0.000467363               0.001770289               0.001302926               0.000000000               0.000000000               0.000000000               0.000000000               0.000269036               0.004801006               0.000076494              -0.000499236               0.001766731               0.001267495               0.000000000               0.000000000               0.000000000               0.000000000               0.000172518               0.004754199               0.000061356              -0.000529579               0.001761243               0.001231664               0.000000000               0.000000000               0.000000000               0.000000000               0.000083629               0.004699503               0.000036186              -0.000556075               0.001751844               0.001195768               0.000000000               0.000000000               0.000000000               0.000000000               0.000039076               0.004660148               0.000020058              -0.000567864               0.001742655               0.001174791               0.000000000               0.000000000               0.000000000               0.000000000               0.001147839               0.010057376              -0.001489964              -0.000826731               0.003628002               0.002801271               0.000000000               0.000000000               0.000000000               0.000000000               0.001059978               0.008306283              -0.000899141              -0.000640792               0.002982331               0.002341538               0.000000000               0.000000000               0.000000000               0.000000000               0.001283458               0.006974444              -0.000299585              -0.000390508               0.002454961               0.002064453               0.000000000               0.000000000               0.000000000               0.000000000               0.001261344               0.006240732              -0.000033947              -0.000307087               0.002182585               0.001875499               0.000000000               0.000000000               0.000000000               0.000000000               0.001157810               0.005800292               0.000090921              -0.000290857               0.002030364               0.001739507               0.000000000               0.000000000               0.000000000               0.000000000               0.001028713               0.005519124               0.000148777              -0.000304122               0.001941064               0.001636941               0.000000000               0.000000000               0.000000000               0.000000000               0.000902094               0.005329706               0.000168527              -0.000327927               0.001885860               0.001557933               0.000000000               0.000000000               0.000000000               0.000000000               0.000786450               0.005193932               0.000169515              -0.000354322               0.001849401               0.001495079               0.000000000               0.000000000               0.000000000               0.000000000               0.000682173               0.005093565               0.000165588              -0.000380880               0.001824798               0.001443918               0.000000000               0.000000000               0.000000000               0.000000000               0.000587197               0.005019944               0.000160752              -0.000407293               0.001809062               0.001401769               0.000000000               0.000000000               0.000000000               0.000000000               0.000493694               0.004962683               0.000153014              -0.000435199               0.001799277               0.001364078               0.000000000               0.000000000               0.000000000               0.000000000               0.000399163               0.004916933               0.000142955              -0.000464929               0.001793937               0.001329008               0.000000000               0.000000000               0.000000000               0.000000000               0.000309631               0.004882589               0.000131236              -0.000494211               0.001792250               0.001298040               0.000000000               0.000000000               0.000000000               0.000000000               0.000224011               0.004856072               0.000113984              -0.000523004               0.001793009               0.001270005               0.000000000               0.000000000               0.000000000               0.000000000               0.000141693               0.004832200               0.000088643              -0.000550889               0.001794347               0.001243458               0.000000000               0.000000000               0.000000000               0.000000000               0.000068170               0.004809999               0.000051073              -0.000575685               0.001795212               0.001219527               0.000000000               0.000000000               0.000000000               0.000000000               0.000035416               0.004800411               0.000027520              -0.000586769               0.001795711               0.001208942               0.000000000               0.000000000               0.000000000               0.000000000               0.001329366               0.009221981              -0.002026311              -0.000654235               0.003292041               0.002637806               0.000000000               0.000000000               0.000000000               0.000000000               0.001066466               0.007748539              -0.001227680              -0.000568642               0.002772368               0.002203726               0.000000000               0.000000000               0.000000000               0.000000000               0.001104511               0.006705013              -0.000427931              -0.000423934               0.002376293               0.001952359               0.000000000               0.000000000               0.000000000               0.000000000               0.001015289               0.006115100              -0.000088744              -0.000383653               0.002166231               0.001782577               0.000000000               0.000000000               0.000000000               0.000000000               0.000897321               0.005749301               0.000064061              -0.000382166               0.002043803               0.001661637               0.000000000               0.000000000               0.000000000               0.000000000               0.000779957               0.005503805               0.000133379              -0.000395491               0.001966414               0.001570923               0.000000000               0.000000000               0.000000000               0.000000000               0.000677407               0.005329438               0.000157571              -0.000412151               0.001913845               0.001501694               0.000000000               0.000000000               0.000000000               0.000000000               0.000590229               0.005199007               0.000158556              -0.000428539               0.001875831               0.001447292               0.000000000               0.000000000               0.000000000               0.000000000               0.000511793               0.005098891               0.000154846              -0.000445438               0.001848093               0.001402655               0.000000000               0.000000000               0.000000000               0.000000000               0.000438757               0.005023722               0.000150261              -0.000463430               0.001829034               0.001365604               0.000000000               0.000000000               0.000000000               0.000000000               0.000369315               0.004966166               0.000142016              -0.000482276               0.001816131               0.001333854               0.000000000               0.000000000               0.000000000               0.000000000               0.000299292               0.004922628               0.000132224              -0.000503093               0.001808557               0.001305464               0.000000000               0.000000000               0.000000000               0.000000000               0.000228810               0.004891518               0.000121973              -0.000525634               0.001805701               0.001280067               0.000000000               0.000000000               0.000000000               0.000000000               0.000161456               0.004870453               0.000105850              -0.000548259               0.001806221               0.001257962               0.000000000               0.000000000               0.000000000               0.000000000               0.000101679               0.004857293               0.000079975              -0.000569031               0.001808758               0.001239728               0.000000000               0.000000000               0.000000000               0.000000000               0.000049225               0.004850125               0.000043960              -0.000587805               0.001812627               0.001224823               0.000000000               0.000000000               0.000000000               0.000000000               0.000026502               0.004852456               0.000022379              -0.000596617               0.001816342               0.001219724               0.000000000               0.000000000               0.000000000               0.000000000               0.001498096               0.008175936              -0.002362946              -0.000460207               0.002878687               0.002418479               0.000000000               0.000000000               0.000000000               0.000000000               0.001043122               0.007061750              -0.001453587              -0.000491548               0.002517742               0.002026194               0.000000000               0.000000000               0.000000000               0.000000000               0.000876423               0.006367848              -0.000552733              -0.000467321               0.002278369               0.001811047               0.000000000               0.000000000               0.000000000               0.000000000               0.000729911               0.005938182              -0.000186324              -0.000468555               0.002135559               0.001667004               0.000000000               0.000000000               0.000000000               0.000000000               0.000612775               0.005650236              -0.000024458              -0.000476488               0.002042223               0.001565735               0.000000000               0.000000000               0.000000000               0.000000000               0.000520152               0.005441570               0.000051234              -0.000485138               0.001975551               0.001490413               0.000000000               0.000000000               0.000000000               0.000000000               0.000447818               0.005281990               0.000081095              -0.000492316               0.001924751               0.001432435               0.000000000               0.000000000               0.000000000               0.000000000               0.000390971               0.005157661               0.000087310              -0.000498092               0.001885234               0.001387142               0.000000000               0.000000000               0.000000000               0.000000000               0.000341317               0.005062626               0.000089236              -0.000504833               0.001855803               0.001350970               0.000000000               0.000000000               0.000000000               0.000000000               0.000291580               0.004987201               0.000091117              -0.000514056               0.001833736               0.001319680               0.000000000               0.000000000               0.000000000               0.000000000               0.000242446               0.004927052               0.000089834              -0.000524963               0.001817322               0.001292359               0.000000000               0.000000000               0.000000000               0.000000000               0.000193640               0.004880045               0.000089057              -0.000537389               0.001805795               0.001268406               0.000000000               0.000000000               0.000000000               0.000000000               0.000145755               0.004847048               0.000087242              -0.000551222               0.001799407               0.001248185               0.000000000               0.000000000               0.000000000               0.000000000               0.000099846               0.004821310               0.000078572              -0.000565220               0.001795494               0.001230274               0.000000000               0.000000000               0.000000000               0.000000000               0.000060818               0.004801657               0.000059787              -0.000577399               0.001793003               0.001215604               0.000000000               0.000000000               0.000000000               0.000000000               0.000028082               0.004788572               0.000032350              -0.000588039               0.001792188               0.001204149               0.000000000               0.000000000               0.000000000               0.000000000               0.000013571               0.004785270               0.000016825              -0.000593068               0.001792763               0.001199695               0.000000000               0.000000000               0.000000000               0.000000000               0.001599856               0.007028921              -0.002497742              -0.000278671               0.002435840               0.002157169               0.000000000               0.000000000               0.000000000               0.000000000               0.000983443               0.006318585              -0.001584808              -0.000421032               0.002246518               0.001825485               0.000000000               0.000000000               0.000000000               0.000000000               0.000637009               0.005994546              -0.000682660              -0.000510439               0.002168308               0.001657869               0.000000000               0.000000000               0.000000000               0.000000000               0.000461239               0.005723317              -0.000324385              -0.000542449               0.002088569               0.001546121               0.000000000               0.000000000               0.000000000               0.000000000               0.000362637               0.005507177              -0.000161145              -0.000552407               0.002019843               0.001467436               0.000000000               0.000000000               0.000000000               0.000000000               0.000303109               0.005331927              -0.000077087              -0.000552824               0.001961566               0.001408742               0.000000000               0.000000000               0.000000000               0.000000000               0.000261788               0.005189291              -0.000035483              -0.000550490               0.001913243               0.001362753               0.000000000               0.000000000               0.000000000               0.000000000               0.000232284               0.005076386              -0.000016417              -0.000547440               0.001874592               0.001327151               0.000000000               0.000000000               0.000000000               0.000000000               0.000205594               0.004985687              -0.000003216              -0.000546112               0.001843916               0.001297805               0.000000000               0.000000000               0.000000000               0.000000000               0.000174957               0.004907017               0.000010083              -0.000547767               0.001818245               0.001270478               0.000000000               0.000000000               0.000000000               0.000000000               0.000141867               0.004839809               0.000021182              -0.000551775               0.001797178               0.001245404               0.000000000               0.000000000               0.000000000               0.000000000               0.000107961               0.004785720               0.000034085              -0.000557728               0.001781134               0.001223405               0.000000000               0.000000000               0.000000000               0.000000000               0.000078164               0.004743010               0.000044534              -0.000563564               0.001768842               0.001205279               0.000000000               0.000000000               0.000000000               0.000000000               0.000051799               0.004705082               0.000043825              -0.000568709               0.001757915               0.001189205               0.000000000               0.000000000               0.000000000               0.000000000               0.000030013               0.004670259               0.000033517              -0.000572526               0.001747579               0.001175053               0.000000000               0.000000000               0.000000000               0.000000000               0.000013750               0.004639725               0.000017049              -0.000574808               0.001738162               0.001163354               0.000000000               0.000000000               0.000000000               0.000000000               0.000005235               0.004622743               0.000008726              -0.000575878               0.001732859               0.001156980               0.000000000               0.000000000               0.000000000               0.000000000               0.001602522               0.005871687              -0.002457923              -0.000133018               0.002001548               0.001868530               0.000000000               0.000000000               0.000000000               0.000000000               0.000887925               0.005578372              -0.001639824              -0.000364325               0.001980880               0.001616555               0.000000000               0.000000000               0.000000000               0.000000000               0.000413803               0.005609824              -0.000817245              -0.000546051               0.002051939               0.001505889               0.000000000               0.000000000               0.000000000               0.000000000               0.000242677               0.005482417              -0.000481835              -0.000594297               0.002025553               0.001431256               0.000000000               0.000000000               0.000000000               0.000000000               0.000173716               0.005331631              -0.000316390              -0.000601309               0.001977629               0.001376320               0.000000000               0.000000000               0.000000000               0.000000000               0.000149241               0.005190178              -0.000221331              -0.000592806               0.001927644               0.001334838               0.000000000               0.000000000               0.000000000               0.000000000               0.000139885               0.005065357              -0.000163226              -0.000580711               0.001882006               0.001301295               0.000000000               0.000000000               0.000000000               0.000000000               0.000133081               0.004959377              -0.000127196              -0.000570015               0.001843114               0.001273099               0.000000000               0.000000000               0.000000000               0.000000000               0.000120714               0.004867709              -0.000099269              -0.000563194               0.001810285               0.001247090               0.000000000               0.000000000               0.000000000               0.000000000               0.000099442               0.004784049              -0.000072515              -0.000560714               0.001781572               0.001220858               0.000000000               0.000000000               0.000000000               0.000000000               0.000075480               0.004711925              -0.000047213              -0.000560684               0.001757521               0.001196836               0.000000000               0.000000000               0.000000000               0.000000000               0.000051818               0.004650704              -0.000021809              -0.000561905               0.001737521               0.001175616               0.000000000               0.000000000               0.000000000               0.000000000               0.000030546               0.004593793              -0.000001580              -0.000562768               0.001718838               0.001156070               0.000000000               0.000000000               0.000000000               0.000000000               0.000018347               0.004538927               0.000006476              -0.000560484               0.001699789               0.001139304               0.000000000               0.000000000               0.000000000               0.000000000               0.000011596               0.004483104               0.000005902              -0.000556038               0.001679699               0.001123661               0.000000000               0.000000000               0.000000000               0.000000000               0.000005006               0.004427815               0.000002240              -0.000551598               0.001659790               0.001108192               0.000000000               0.000000000               0.000000000               0.000000000              -0.000003956               0.004390613               0.000003994              -0.000550309               0.001646959               0.001096651               0.000000000               0.000000000               0.000000000               0.000000000               0.001517094               0.004776003              -0.002276805              -0.000028093               0.001601349               0.001573255               0.000000000               0.000000000               0.000000000               0.000000000               0.000768672               0.004886226              -0.001630988              -0.000322527               0.001736234               0.001413707               0.000000000               0.000000000               0.000000000               0.000000000               0.000230751               0.005230974              -0.000947292              -0.000567339               0.001932753               0.001365414               0.000000000               0.000000000               0.000000000               0.000000000               0.000088450               0.005223479              -0.000635893              -0.000619765               0.001947730               0.001327966               0.000000000               0.000000000               0.000000000               0.000000000               0.000056808               0.005130884              -0.000466744              -0.000620056               0.001916963               0.001296907               0.000000000               0.000000000               0.000000000               0.000000000               0.000060819               0.005019448              -0.000358920              -0.000604623               0.001874673               0.001270051               0.000000000               0.000000000               0.000000000               0.000000000               0.000073173               0.004909430              -0.000282243              -0.000586237               0.001831873               0.001245635               0.000000000               0.000000000               0.000000000               0.000000000               0.000080485               0.004809108              -0.000224610              -0.000570955               0.001793339               0.001222383               0.000000000               0.000000000               0.000000000               0.000000000               0.000074758               0.004718168              -0.000178995              -0.000561735               0.001759952               0.001198217               0.000000000               0.000000000               0.000000000               0.000000000               0.000056852               0.004636619              -0.000139461              -0.000558257               0.001731610               0.001173353               0.000000000               0.000000000               0.000000000               0.000000000               0.000033643               0.004564230              -0.000102636              -0.000557911               0.001707365               0.001149454               0.000000000               0.000000000               0.000000000               0.000000000               0.000011742               0.004494333              -0.000067942              -0.000557387               0.001683892               0.001126505               0.000000000               0.000000000               0.000000000               0.000000000              -0.000003773               0.004420868              -0.000037920              -0.000554022               0.001658282               0.001104260               0.000000000               0.000000000               0.000000000               0.000000000              -0.000011080               0.004342965              -0.000019158              -0.000547024               0.001629982               0.001082958               0.000000000               0.000000000               0.000000000               0.000000000              -0.000010937               0.004265024              -0.000008438              -0.000537228               0.001600737               0.001063509               0.000000000               0.000000000               0.000000000               0.000000000              -0.000007981               0.004191177              -0.000001875              -0.000526889               0.001572675               0.001045786               0.000000000               0.000000000               0.000000000               0.000000000              -0.000013377               0.004142251               0.000004954              -0.000522796               0.001555002               0.001032206               0.000000000               0.000000000               0.000000000               0.000000000               0.001375222               0.003831066              -0.002001581               0.000036822               0.001264734               0.001301556               0.000000000               0.000000000               0.000000000               0.000000000               0.000664998               0.004267415              -0.001586539              -0.000284054               0.001517142               0.001233088               0.000000000               0.000000000               0.000000000               0.000000000               0.000121795               0.004868752              -0.001088709              -0.000562920               0.001810541               0.001247621               0.000000000               0.000000000               0.000000000               0.000000000               0.000009727               0.004974376              -0.000797337              -0.000618148               0.001864158               0.001246010               0.000000000               0.000000000               0.000000000               0.000000000               0.000004712               0.004946056              -0.000620063              -0.000616489               0.001854165               0.001237676               0.000000000               0.000000000               0.000000000               0.000000000               0.000028220               0.004872585              -0.000496108              -0.000598489               0.001823675               0.001225186               0.000000000               0.000000000               0.000000000               0.000000000               0.000052679               0.004785229              -0.000397560              -0.000578398               0.001787859               0.001209462               0.000000000               0.000000000               0.000000000               0.000000000               0.000064019               0.004694521              -0.000317452              -0.000562807               0.001752427               0.001189620               0.000000000               0.000000000               0.000000000               0.000000000               0.000057864               0.004608306              -0.000256013              -0.000554338               0.001720866               0.001166528               0.000000000               0.000000000               0.000000000               0.000000000               0.000040939               0.004532974              -0.000205248              -0.000551268               0.001694732               0.001143464               0.000000000               0.000000000               0.000000000               0.000000000               0.000017569               0.004461235              -0.000158523              -0.000551064               0.001670752               0.001119687               0.000000000               0.000000000               0.000000000               0.000000000              -0.000006786               0.004385893              -0.000117404              -0.000550780               0.001645543               0.001094763               0.000000000               0.000000000               0.000000000               0.000000000              -0.000024005               0.004298619              -0.000079204              -0.000546328               0.001614968               0.001068640               0.000000000               0.000000000               0.000000000               0.000000000              -0.000035577               0.004201765              -0.000046636              -0.000538561               0.001580094               0.001041534               0.000000000               0.000000000               0.000000000               0.000000000              -0.000047261               0.004103904              -0.000021965              -0.000530709               0.001544857               0.001014148               0.000000000               0.000000000               0.000000000               0.000000000              -0.000056105               0.004012641              -0.000005041              -0.000522618               0.001511740               0.000989121               0.000000000               0.000000000               0.000000000               0.000000000              -0.000059273               0.003962792               0.000003230              -0.000517575               0.001493443               0.000975867               0.000000000               0.000000000               0.000000000               0.000000000               0.001165035               0.002925113              -0.001686378               0.000071246               0.000951278               0.001022525               0.000000000               0.000000000               0.000000000               0.000000000               0.000602990               0.003544505              -0.001527411              -0.000216943               0.001253804               0.001036861               0.000000000               0.000000000               0.000000000               0.000000000               0.000112983               0.004325332              -0.001250061              -0.000498298               0.001607862               0.001109564               0.000000000               0.000000000               0.000000000               0.000000000               0.000011585               0.004584186              -0.000986256              -0.000568678               0.001717606               0.001148928               0.000000000               0.000000000               0.000000000               0.000000000               0.000006109               0.004658402              -0.000794606              -0.000580008               0.001746121               0.001166113               0.000000000               0.000000000               0.000000000               0.000000000               0.000028283               0.004652706              -0.000652368              -0.000570981               0.001741213               0.001170232               0.000000000               0.000000000               0.000000000               0.000000000               0.000053071               0.004609344              -0.000535980              -0.000556265               0.001721854               0.001165589               0.000000000               0.000000000               0.000000000               0.000000000               0.000069062               0.004549238              -0.000438759              -0.000542755               0.001697316               0.001154560               0.000000000               0.000000000               0.000000000               0.000000000               0.000070584               0.004487335              -0.000360952              -0.000534447               0.001673912               0.001139466               0.000000000               0.000000000               0.000000000               0.000000000               0.000054318               0.004424675              -0.000294382              -0.000532714               0.001652448               0.001119734               0.000000000               0.000000000               0.000000000               0.000000000               0.000026680               0.004364130              -0.000235569              -0.000535510               0.001633199               0.001097689               0.000000000               0.000000000               0.000000000               0.000000000              -0.000007523               0.004297803              -0.000184283              -0.000540045               0.001612602               0.001072557               0.000000000               0.000000000               0.000000000               0.000000000              -0.000042331               0.004219346              -0.000136039              -0.000543291               0.001587532               0.001044240               0.000000000               0.000000000               0.000000000               0.000000000              -0.000071229               0.004131950              -0.000089506              -0.000543203               0.001558371               0.001015167               0.000000000               0.000000000               0.000000000               0.000000000              -0.000101585               0.004037021              -0.000047628              -0.000542721               0.001526567               0.000983847               0.000000000               0.000000000               0.000000000               0.000000000              -0.000135204               0.003941958              -0.000017057              -0.000543445               0.001495121               0.000951676               0.000000000               0.000000000               0.000000000               0.000000000              -0.000153784               0.003891709              -0.000003717              -0.000544131               0.001478601               0.000934469               0.000000000               0.000000000               0.000000000               0.000000000               0.000850126               0.002084899              -0.001342988               0.000058182               0.000675565               0.000733747               0.000000000               0.000000000               0.000000000               0.000000000               0.000532479               0.002816987              -0.001422844              -0.000152445               0.000989800               0.000837356               0.000000000               0.000000000               0.000000000               0.000000000               0.000162782               0.003710123              -0.001368191              -0.000402722               0.001370936               0.000968213               0.000000000               0.000000000               0.000000000               0.000000000               0.000068299               0.004115285              -0.001160869              -0.000488798               0.001534680               0.001045882               0.000000000               0.000000000               0.000000000               0.000000000               0.000047523               0.004304500              -0.000968684              -0.000520241               0.001608232               0.001087992               0.000000000               0.000000000               0.000000000               0.000000000               0.000061575               0.004382549              -0.000816561              -0.000524727               0.001635744               0.001111017               0.000000000               0.000000000               0.000000000               0.000000000               0.000085949               0.004397810              -0.000690409              -0.000517494               0.001638420               0.001120926               0.000000000               0.000000000               0.000000000               0.000000000               0.000104644               0.004384542              -0.000582460              -0.000508825               0.001631108               0.001122283               0.000000000               0.000000000               0.000000000               0.000000000               0.000108746               0.004359303              -0.000489417              -0.000504132               0.001621130               0.001116998               0.000000000               0.000000000               0.000000000               0.000000000               0.000095045               0.004327287              -0.000407484              -0.000505268               0.001610837               0.001105569               0.000000000               0.000000000               0.000000000               0.000000000               0.000065967               0.004287413              -0.000336660              -0.000511188               0.001599519               0.001088332               0.000000000               0.000000000               0.000000000               0.000000000               0.000024601               0.004236292              -0.000274888              -0.000520310               0.001585520               0.001065210               0.000000000               0.000000000               0.000000000               0.000000000              -0.000021633               0.004174912              -0.000219174              -0.000529975               0.001568282               0.001038307               0.000000000               0.000000000               0.000000000               0.000000000              -0.000066907               0.004104920              -0.000162078              -0.000538204               0.001547694               0.001009490               0.000000000               0.000000000               0.000000000               0.000000000              -0.000115025               0.004026299              -0.000100889              -0.000546421               0.001524226               0.000977806               0.000000000               0.000000000               0.000000000               0.000000000              -0.000175774               0.003941154              -0.000045170              -0.000558558               0.001499891               0.000941333               0.000000000               0.000000000               0.000000000               0.000000000              -0.000221146               0.003890128              -0.000015150              -0.000569194               0.001486428               0.000917233               0.000000000               0.000000000               0.000000000               0.000000000               0.000447316               0.001365980              -0.000989328              -0.000003005               0.000456323               0.000453318               0.000000000               0.000000000               0.000000000               0.000000000               0.000414249               0.002125912              -0.001252276              -0.000110397               0.000745428               0.000635032               0.000000000               0.000000000               0.000000000               0.000000000               0.000228945               0.003036259              -0.001382871              -0.000293679               0.001109968               0.000816290               0.000000000               0.000000000               0.000000000               0.000000000               0.000171923               0.003546640              -0.001251593              -0.000378859               0.001308487               0.000929629               0.000000000               0.000000000               0.000000000               0.000000000               0.000146828               0.003841274              -0.001086481              -0.000425098               0.001422111               0.000997013               0.000000000               0.000000000               0.000000000               0.000000000               0.000146827               0.004008961              -0.000941532              -0.000446059               0.001484993               0.001038934               0.000000000               0.000000000               0.000000000               0.000000000               0.000161073               0.004098733              -0.000811928              -0.000451938               0.001516877               0.001064938               0.000000000               0.000000000               0.000000000               0.000000000               0.000172540               0.004145517              -0.000697206              -0.000453486               0.001532987               0.001079501               0.000000000               0.000000000               0.000000000               0.000000000               0.000174969               0.004169336              -0.000596460              -0.000455553               0.001541615               0.001086063               0.000000000               0.000000000               0.000000000               0.000000000               0.000164140               0.004177333              -0.000507007              -0.000460613               0.001545968               0.001085355               0.000000000               0.000000000               0.000000000               0.000000000               0.000137403               0.004166258              -0.000428713              -0.000469255               0.001545157               0.001075902               0.000000000               0.000000000               0.000000000               0.000000000               0.000097777               0.004138546              -0.000361908              -0.000480651               0.001539719               0.001059068               0.000000000               0.000000000               0.000000000               0.000000000               0.000049928               0.004099536              -0.000301382              -0.000493718               0.001531071               0.001037353               0.000000000               0.000000000               0.000000000               0.000000000              -0.000005147               0.004050604              -0.000237699              -0.000508254               0.001519606               0.001011352               0.000000000               0.000000000               0.000000000               0.000000000              -0.000066612               0.003991379              -0.000162134              -0.000523900               0.001505080               0.000981179               0.000000000               0.000000000               0.000000000               0.000000000              -0.000142018               0.003926252              -0.000080584              -0.000544037               0.001490083               0.000946046               0.000000000               0.000000000               0.000000000               0.000000000              -0.000203480               0.003880557              -0.000033436              -0.000561373               0.001480631               0.000919257               0.000000000               0.000000000               0.000000000               0.000000000              -0.000006226               0.000801185              -0.000661298              -0.000102483               0.000301219               0.000198736               0.000000000               0.000000000               0.000000000               0.000000000               0.000260214               0.001509197              -0.001030136              -0.000091070               0.000533417               0.000442346               0.000000000               0.000000000               0.000000000               0.000000000               0.000300371               0.002357649              -0.001283872              -0.000182068               0.000846564               0.000664496               0.000000000               0.000000000               0.000000000               0.000000000               0.000309431               0.002921389              -0.001229932              -0.000249138               0.001056832               0.000807694               0.000000000               0.000000000               0.000000000               0.000000000               0.000301003               0.003301310              -0.001110334              -0.000299788               0.001200355               0.000900567               0.000000000               0.000000000               0.000000000               0.000000000               0.000287206               0.003557227              -0.000987672              -0.000336951               0.001298047               0.000961096               0.000000000               0.000000000               0.000000000               0.000000000               0.000282881               0.003725645              -0.000866133              -0.000359625               0.001361744               0.001002119               0.000000000               0.000000000               0.000000000               0.000000000               0.000280069               0.003835913              -0.000752695              -0.000374463               0.001403446               0.001028983               0.000000000               0.000000000               0.000000000               0.000000000               0.000276109               0.003914022              -0.000652092              -0.000385711               0.001433231               0.001047520               0.000000000               0.000000000               0.000000000               0.000000000               0.000265168               0.003965037              -0.000562055              -0.000396191               0.001453729               0.001057538               0.000000000               0.000000000               0.000000000               0.000000000               0.000244068               0.003988507              -0.000484777              -0.000407037               0.001465168               0.001058131               0.000000000               0.000000000               0.000000000               0.000000000               0.000212711               0.003991917              -0.000419402              -0.000419222               0.001470366               0.001051144               0.000000000               0.000000000               0.000000000               0.000000000               0.000171683               0.003983942              -0.000357157              -0.000433611               0.001472504               0.001038894               0.000000000               0.000000000               0.000000000               0.000000000               0.000118602               0.003967895              -0.000288891              -0.000451510               0.001473122               0.001021612               0.000000000               0.000000000               0.000000000               0.000000000               0.000053961               0.003939855              -0.000207460              -0.000472246               0.001470687               0.000998442               0.000000000               0.000000000               0.000000000               0.000000000              -0.000022081               0.003899776              -0.000109554              -0.000495751               0.001465163               0.000969412               0.000000000               0.000000000               0.000000000               0.000000000              -0.000083544               0.003865732              -0.000050606              -0.000514544               0.001460079               0.000945535               0.000000000               0.000000000               0.000000000               0.000000000              -0.000455710               0.000401328              -0.000391143              -0.000221057               0.000207460              -0.000013597               0.000000000               0.000000000               0.000000000               0.000000000               0.000090419               0.001001918              -0.000777730              -0.000091333               0.000364413               0.000273080               0.000000000               0.000000000               0.000000000               0.000000000               0.000367425               0.001735366              -0.001076339              -0.000079137               0.000604828               0.000525691               0.000000000               0.000000000               0.000000000               0.000000000               0.000460766               0.002313308              -0.001080778              -0.000116377               0.000809887               0.000693510               0.000000000               0.000000000               0.000000000               0.000000000               0.000480828               0.002748846              -0.001007306              -0.000163296               0.000970704               0.000807409               0.000000000               0.000000000               0.000000000               0.000000000               0.000464729               0.003072018              -0.000916570              -0.000209729               0.001093905               0.000884176               0.000000000               0.000000000               0.000000000               0.000000000               0.000441598               0.003306223              -0.000815952              -0.000247679               0.001184623               0.000936944               0.000000000               0.000000000               0.000000000               0.000000000               0.000419586               0.003477860              -0.000715577              -0.000277387               0.001251737               0.000974350               0.000000000               0.000000000               0.000000000               0.000000000               0.000401574               0.003611094              -0.000624754              -0.000300796               0.001303951               0.001003155               0.000000000               0.000000000               0.000000000               0.000000000               0.000385542               0.003709715              -0.000544570              -0.000319136               0.001342938               0.001023802               0.000000000               0.000000000               0.000000000               0.000000000               0.000368623               0.003778397              -0.000477391              -0.000334066               0.001370808               0.001036743               0.000000000               0.000000000               0.000000000               0.000000000               0.000345663               0.003820983              -0.000420096              -0.000347999               0.001389648               0.001041649               0.000000000               0.000000000               0.000000000               0.000000000               0.000317076               0.003847938              -0.000362865              -0.000362088               0.001403329               0.001041241               0.000000000               0.000000000               0.000000000               0.000000000               0.000282688               0.003869119              -0.000295951              -0.000377631               0.001415570               0.001037939               0.000000000               0.000000000               0.000000000               0.000000000               0.000238616               0.003876312              -0.000216298              -0.000395057               0.001423777               0.001028720               0.000000000               0.000000000               0.000000000               0.000000000               0.000186826               0.003867745              -0.000117278              -0.000413407               0.001427038               0.001013631               0.000000000               0.000000000               0.000000000               0.000000000               0.000148715               0.003854606              -0.000058484              -0.000426057               0.001426875               0.001000818               0.000000000               0.000000000               0.000000000               0.000000000              -0.000842493               0.000151165              -0.000198235              -0.000334830               0.000161997              -0.000172833               0.000000000               0.000000000               0.000000000               0.000000000              -0.000068729               0.000631426              -0.000515291              -0.000104702               0.000245374               0.000140672               0.000000000               0.000000000               0.000000000               0.000000000               0.000417483               0.001237082              -0.000776257               0.000001920               0.000411716               0.000413636               0.000000000               0.000000000               0.000000000               0.000000000               0.000597687               0.001797886              -0.000808357              -0.000000604               0.000599491               0.000598886               0.000000000               0.000000000               0.000000000               0.000000000               0.000650235               0.002257679              -0.000770775              -0.000038372               0.000765343               0.000726970               0.000000000               0.000000000               0.000000000               0.000000000               0.000641035               0.002624860              -0.000713492              -0.000087720               0.000904184               0.000816465               0.000000000               0.000000000               0.000000000               0.000000000               0.000604401               0.002911519              -0.000641912              -0.000137289               0.001016260               0.000878970               0.000000000               0.000000000               0.000000000               0.000000000               0.000563712               0.003137371              -0.000566806              -0.000180779               0.001106040               0.000925260               0.000000000               0.000000000               0.000000000               0.000000000               0.000529197               0.003320650              -0.000498581              -0.000216632               0.001179083               0.000962451               0.000000000               0.000000000               0.000000000               0.000000000               0.000503718               0.003468247              -0.000438651              -0.000244636               0.001237616               0.000992980               0.000000000               0.000000000               0.000000000               0.000000000               0.000483349               0.003580171              -0.000388576              -0.000266265               0.001282133               0.001015868               0.000000000               0.000000000               0.000000000               0.000000000               0.000466185               0.003662973              -0.000346372              -0.000283052               0.001315329               0.001032277               0.000000000               0.000000000               0.000000000               0.000000000               0.000452049               0.003726808              -0.000304013              -0.000296332               0.001341034               0.001044702               0.000000000               0.000000000               0.000000000               0.000000000               0.000443515               0.003776839              -0.000251958              -0.000305786               0.001360862               0.001055076               0.000000000               0.000000000               0.000000000               0.000000000               0.000439731               0.003813862              -0.000186705              -0.000311833               0.001375219               0.001063386               0.000000000               0.000000000               0.000000000               0.000000000               0.000439866               0.003837861              -0.000103523              -0.000314782               0.001384202               0.001069420               0.000000000               0.000000000               0.000000000               0.000000000               0.000442718               0.003846124              -0.000055449              -0.000314746               0.001386944               0.001072198               0.000000000               0.000000000               0.000000000               0.000000000              -0.001105517               0.000021792              -0.000076721              -0.000417292               0.000146361              -0.000270932               0.000000000               0.000000000               0.000000000               0.000000000              -0.000185075               0.000409364              -0.000254426              -0.000120573               0.000176644               0.000056071               0.000000000               0.000000000               0.000000000               0.000000000               0.000448669               0.000915276              -0.000405981               0.000053840               0.000287142               0.000340982               0.000000000               0.000000000               0.000000000               0.000000000               0.000697771               0.001448694              -0.000433342               0.000080576               0.000456034               0.000536610               0.000000000               0.000000000               0.000000000               0.000000000               0.000778000               0.001916090              -0.000419728               0.000052238               0.000621278               0.000673515               0.000000000               0.000000000               0.000000000               0.000000000               0.000772137               0.002309101              -0.000392379               0.000000913               0.000769388               0.000770301               0.000000000               0.000000000               0.000000000               0.000000000               0.000725744               0.002629658              -0.000355258              -0.000056553               0.000895395               0.000838842               0.000000000               0.000000000               0.000000000               0.000000000               0.000673664               0.002892191              -0.000315179              -0.000108900               0.001000354               0.000891454               0.000000000               0.000000000               0.000000000               0.000000000               0.000628419               0.003109691              -0.000278521              -0.000153054               0.001087571               0.000934517               0.000000000               0.000000000               0.000000000               0.000000000               0.000594523               0.003291882              -0.000246604              -0.000188539               0.001160129               0.000971590               0.000000000               0.000000000               0.000000000               0.000000000               0.000571062               0.003441112              -0.000220653              -0.000215990               0.001219023               0.001003032               0.000000000               0.000000000               0.000000000               0.000000000               0.000555415               0.003556528              -0.000199410              -0.000236285               0.001264259               0.001027974               0.000000000               0.000000000               0.000000000               0.000000000               0.000549069               0.003647455              -0.000177870              -0.000250030               0.001299150               0.001049119               0.000000000               0.000000000               0.000000000               0.000000000               0.000559421               0.003724322              -0.000151248              -0.000255757               0.001326680               0.001070924               0.000000000               0.000000000               0.000000000               0.000000000               0.000591524               0.003785743              -0.000115524              -0.000251396               0.001345700               0.001094304               0.000000000               0.000000000               0.000000000               0.000000000               0.000648359               0.003826588              -0.000066051              -0.000235189               0.001353913               0.001118724               0.000000000               0.000000000               0.000000000               0.000000000               0.000701744               0.003847622              -0.000037526              -0.000217798               0.001355127               0.001137329               0.000000000               0.000000000               0.000000000               0.000000000               0.000000000               0.000000000               0.000000000               0.000000000               0.000000000               0.000000000               0.000000000               0.000000000               0.000000000               0.000000000               0.000000000               0.000000000               0.000000000               0.000000000               0.000000000               0.000000000               0.000000000               0.000000000               0.000000000               0.000000000               0.000000000               0.000000000               0.000000000               0.000000000               0.000000000               0.000000000               0.000000000               0.000000000               0.000000000               0.000000000               0.000000000               0.000000000               0.000000000               0.000000000               0.000000000               0.000000000               0.000000000               0.000000000               0.000000000               0.000000000               0.000000000               0.000000000               0.000000000               0.000000000               0.000000000               0.000000000               0.000000000               0.000000000               0.000000000               0.000000000               0.000000000               0.000000000               0.000000000               0.000000000               0.000000000               0.000000000               0.000000000               0.000000000               0.000000000               0.000000000               0.000000000               0.000000000               0.000000000               0.000000000               0.000000000               0.000000000               0.000000000               0.000000000               0.000000000               0.000000000               0.000000000               0.000000000               0.000000000               0.000000000               0.000000000               0.000000000               0.000000000               0.000000000               0.000000000               0.000000000               0.000000000               0.000000000               0.000000000               0.000000000               0.000000000               0.000000000               0.000000000               0.000000000               0.000000000               0.000000000               0.000000000               0.000000000               0.000000000               0.000000000               0.000000000               0.000000000               0.000000000               0.000000000               0.000000000               0.000000000               0.000000000               0.000000000               0.000000000               0.000000000               0.000000000               0.000000000               0.000000000               0.000000000               0.000000000               0.000000000               0.000000000               0.000000000               0.000000000               0.000000000               0.000000000               0.000000000               0.000000000               0.000000000               0.000000000               0.000000000               0.000000000               0.000000000               0.000000000               0.000000000               0.000000000               0.000000000               0.000000000               0.000000000               0.000000000               0.000000000               0.000000000               0.000000000               0.000000000               0.000000000               0.000000000               0.000000000               0.000000000               0.000000000               0.000000000               0.000000000               0.000000000               0.000000000               0.000000000               0.000000000               0.000000000               0.000000000               0.000000000               0.000000000               0.000000000               0.000000000               0.000000000               0.000000000               0.000000000               0.000000000               0.000000000               0.000000000               0.000000000               0.000000000               0.000000000               0.000000000               0.000000000               0.000000000               0.000000000               0.000000000               0.000000000               0.000000000               0.000000000               0.000000000               0.000000000               0.000000000               0.000000000               0.000000000               0.000000000               0.000000000               0.000000000               0.000000000               0.000000000               0.000000000               0.000000000               0.000000000               0.000000000               0.000000000               0.000000000               0.000000000               0.000000000               0.000000000               0.000000000               0.000000000               0.000000000               0.000000000               0.000000000               0.000000000               0.000000000               0.000000000               0.000000000               0.000000000               0.000000000               0.000000000               0.000000000               0.000000000               0.000000000               0.000000000               0.000000000               0.000000000               0.000000000               0.000000000               0.000000000               0.000000000               0.000000000               0.000000000               0.000000000               0.000000000               0.000000000               0.000000000               0.000000000               0.000000000               0.000000000               0.000000000               0.000000000               0.000000000               0.000000000               0.000000000               0.000000000               0.000000000               0.000000000               0.000000000               0.000000000               0.000000000               0.000000000               0.000000000               0.000000000               0.000000000               0.000000000               0.000000000               0.000000000               0.000000000               0.000000000               0.000000000               0.000000000               0.000000000               0.000000000               0.000000000               0.000000000               0.000000000               0.000000000               0.000000000               0.000000000               0.000000000               0.000000000               0.000000000               0.000000000               0.000000000               0.000000000               0.000000000               0.000000000               0.000000000               0.000000000               0.000000000               0.000000000               0.000000000               0.000000000               0.000000000               0.000000000               0.000000000               0.000000000               0.000000000               0.000000000               0.000000000               0.000000000               0.000000000               0.000000000               0.000000000               0.000000000               0.000000000               0.000000000               0.000000000               0.000000000               0.000000000               0.000000000               0.000000000               0.000000000               0.000000000               0.000000000               0.000000000               0.000000000               0.000000000               0.000000000               0.000000000               0.000000000               0.000000000               0.000000000               0.000000000               0.000000000               0.000000000               0.000000000               0.000000000               0.000000000               0.000000000               0.000000000               0.000000000               0.000000000               0.000000000               0.000000000               0.000000000               0.000000000               0.000000000               0.000000000               0.000000000               0.000000000               0.000000000               0.000000000               0.000000000               0.000000000               0.000000000               0.000000000               0.000000000               0.000000000               0.000000000               0.000000000               0.000000000               0.000000000               0.000000000               0.000000000               0.000000000               0.000000000               0.000000000               0.000000000               0.000000000               0.000000000               0.000000000               0.000000000               0.000000000               0.000000000               0.000000000               0.000000000               0.000000000               0.000000000               0.000000000               0.000000000               0.000000000               0.001005831               0.010597176               0.000789686              -0.000947458               0.003848176               0.002900718               0.000000000               0.000000000               0.000000000               0.000000000               0.001040813               0.008674618               0.000476937              -0.000694021               0.003122851               0.002428830               0.000000000               0.000000000               0.000000000               0.000000000               0.001393472               0.007148724               0.000156603              -0.000371037               0.002506563               0.002135526               0.000000000               0.000000000               0.000000000               0.000000000               0.001422385               0.006308506               0.000009842              -0.000255168               0.002187870               0.001932702               0.000000000               0.000000000               0.000000000               0.000000000               0.001334000               0.005809917              -0.000062099              -0.000225989               0.002011949               0.001785960               0.000000000               0.000000000               0.000000000               0.000000000               0.001204101               0.005502385              -0.000096864              -0.000236260               0.001912863               0.001676604               0.000000000               0.000000000               0.000000000               0.000000000               0.001066421               0.005303736              -0.000109035              -0.000263058               0.001855581               0.001592522               0.000000000               0.000000000               0.000000000               0.000000000               0.000933811               0.005166776              -0.000109130              -0.000295667               0.001820797               0.001525130               0.000000000               0.000000000               0.000000000               0.000000000               0.000810171               0.005067780              -0.000105737              -0.000329658               0.001799129               0.001469471               0.000000000               0.000000000               0.000000000               0.000000000               0.000694678               0.004994547              -0.000103182              -0.000363813               0.001786104               0.001422290               0.000000000               0.000000000               0.000000000               0.000000000               0.000581391               0.004936615              -0.000099675              -0.000399054               0.001778540               0.001379486               0.000000000               0.000000000               0.000000000               0.000000000               0.000471017               0.004887051              -0.000093641              -0.000434249               0.001773750               0.001339501               0.000000000               0.000000000               0.000000000               0.000000000               0.000368213               0.004843552              -0.000086309              -0.000467363               0.001770289               0.001302926               0.000000000               0.000000000               0.000000000               0.000000000               0.000269036               0.004801006              -0.000076494              -0.000499236               0.001766731               0.001267495               0.000000000               0.000000000               0.000000000               0.000000000               0.000172518               0.004754199              -0.000061356              -0.000529579               0.001761243               0.001231664               0.000000000               0.000000000               0.000000000               0.000000000               0.000083629               0.004699503              -0.000036186              -0.000556075               0.001751844               0.001195768               0.000000000               0.000000000               0.000000000               0.000000000               0.000039076               0.004660148              -0.000020058              -0.000567864               0.001742655               0.001174791               0.000000000               0.000000000               0.000000000               0.000000000               0.001147839               0.010057376               0.001489964              -0.000826731               0.003628002               0.002801271               0.000000000               0.000000000               0.000000000               0.000000000               0.001059978               0.008306283               0.000899141              -0.000640792               0.002982331               0.002341538               0.000000000               0.000000000               0.000000000               0.000000000               0.001283458               0.006974444               0.000299585              -0.000390508               0.002454961               0.002064453               0.000000000               0.000000000               0.000000000               0.000000000               0.001261344               0.006240732               0.000033947              -0.000307087               0.002182585               0.001875499               0.000000000               0.000000000               0.000000000               0.000000000               0.001157810               0.005800292              -0.000090921              -0.000290857               0.002030364               0.001739507               0.000000000               0.000000000               0.000000000               0.000000000               0.001028713               0.005519124              -0.000148777              -0.000304122               0.001941064               0.001636941               0.000000000               0.000000000               0.000000000               0.000000000               0.000902094               0.005329706              -0.000168527              -0.000327927               0.001885860               0.001557933               0.000000000               0.000000000               0.000000000               0.000000000               0.000786450               0.005193932              -0.000169515              -0.000354322               0.001849401               0.001495079               0.000000000               0.000000000               0.000000000               0.000000000               0.000682173               0.005093565              -0.000165588              -0.000380880               0.001824798               0.001443918               0.000000000               0.000000000               0.000000000               0.000000000               0.000587197               0.005019944              -0.000160752              -0.000407293               0.001809062               0.001401769               0.000000000               0.000000000               0.000000000               0.000000000               0.000493694               0.004962683              -0.000153014              -0.000435199               0.001799277               0.001364078               0.000000000               0.000000000               0.000000000               0.000000000               0.000399163               0.004916933              -0.000142955              -0.000464929               0.001793937               0.001329008               0.000000000               0.000000000               0.000000000               0.000000000               0.000309631               0.004882589              -0.000131236              -0.000494211               0.001792250               0.001298040               0.000000000               0.000000000               0.000000000               0.000000000               0.000224011               0.004856072              -0.000113984              -0.000523004               0.001793009               0.001270005               0.000000000               0.000000000               0.000000000               0.000000000               0.000141693               0.004832200              -0.000088643              -0.000550889               0.001794347               0.001243458               0.000000000               0.000000000               0.000000000               0.000000000               0.000068170               0.004809999              -0.000051073              -0.000575685               0.001795212               0.001219527               0.000000000               0.000000000               0.000000000               0.000000000               0.000035416               0.004800411              -0.000027520              -0.000586769               0.001795711               0.001208942               0.000000000               0.000000000               0.000000000               0.000000000               0.001329366               0.009221981               0.002026311              -0.000654235               0.003292041               0.002637806               0.000000000               0.000000000               0.000000000               0.000000000               0.001066466               0.007748539               0.001227680              -0.000568642               0.002772368               0.002203726               0.000000000               0.000000000               0.000000000               0.000000000               0.001104511               0.006705013               0.000427931              -0.000423934               0.002376293               0.001952359               0.000000000               0.000000000               0.000000000               0.000000000               0.001015289               0.006115100               0.000088744              -0.000383653               0.002166231               0.001782577               0.000000000               0.000000000               0.000000000               0.000000000               0.000897321               0.005749301              -0.000064061              -0.000382166               0.002043803               0.001661637               0.000000000               0.000000000               0.000000000               0.000000000               0.000779957               0.005503805              -0.000133379              -0.000395491               0.001966414               0.001570923               0.000000000               0.000000000               0.000000000               0.000000000               0.000677407               0.005329438              -0.000157571              -0.000412151               0.001913845               0.001501694               0.000000000               0.000000000               0.000000000               0.000000000               0.000590229               0.005199007              -0.000158556              -0.000428539               0.001875831               0.001447292               0.000000000               0.000000000               0.000000000               0.000000000               0.000511793               0.005098891              -0.000154846              -0.000445438               0.001848093               0.001402655               0.000000000               0.000000000               0.000000000               0.000000000               0.000438757               0.005023722              -0.000150261              -0.000463430               0.001829034               0.001365604               0.000000000               0.000000000               0.000000000               0.000000000               0.000369315               0.004966166              -0.000142016              -0.000482276               0.001816131               0.001333854               0.000000000               0.000000000               0.000000000               0.000000000               0.000299292               0.004922628              -0.000132224              -0.000503093               0.001808557               0.001305464               0.000000000               0.000000000               0.000000000               0.000000000               0.000228810               0.004891518              -0.000121973              -0.000525634               0.001805701               0.001280067               0.000000000               0.000000000               0.000000000               0.000000000               0.000161456               0.004870453              -0.000105850              -0.000548259               0.001806221               0.001257962               0.000000000               0.000000000               0.000000000               0.000000000               0.000101679               0.004857293              -0.000079975              -0.000569031               0.001808758               0.001239728               0.000000000               0.000000000               0.000000000               0.000000000               0.000049225               0.004850125              -0.000043960              -0.000587805               0.001812627               0.001224823               0.000000000               0.000000000               0.000000000               0.000000000               0.000026502               0.004852456              -0.000022379              -0.000596617               0.001816342               0.001219724               0.000000000               0.000000000               0.000000000               0.000000000               0.001498096               0.008175936               0.002362946              -0.000460207               0.002878687               0.002418479               0.000000000               0.000000000               0.000000000               0.000000000               0.001043122               0.007061750               0.001453587              -0.000491548               0.002517742               0.002026194               0.000000000               0.000000000               0.000000000               0.000000000               0.000876423               0.006367848               0.000552733              -0.000467321               0.002278369               0.001811047               0.000000000               0.000000000               0.000000000               0.000000000               0.000729911               0.005938182               0.000186324              -0.000468555               0.002135559               0.001667004               0.000000000               0.000000000               0.000000000               0.000000000               0.000612775               0.005650236               0.000024458              -0.000476488               0.002042223               0.001565735               0.000000000               0.000000000               0.000000000               0.000000000               0.000520152               0.005441570              -0.000051234              -0.000485138               0.001975551               0.001490413               0.000000000               0.000000000               0.000000000               0.000000000               0.000447818               0.005281990              -0.000081095              -0.000492316               0.001924751               0.001432435               0.000000000               0.000000000               0.000000000               0.000000000               0.000390971               0.005157661              -0.000087310              -0.000498092               0.001885234               0.001387142               0.000000000               0.000000000               0.000000000               0.000000000               0.000341317               0.005062626              -0.000089236              -0.000504833               0.001855803               0.001350970               0.000000000               0.000000000               0.000000000               0.000000000               0.000291580               0.004987201              -0.000091117              -0.000514056               0.001833736               0.001319680               0.000000000               0.000000000               0.000000000               0.000000000               0.000242446               0.004927052              -0.000089834              -0.000524963               0.001817322               0.001292359               0.000000000               0.000000000               0.000000000               0.000000000               0.000193640               0.004880045              -0.000089057              -0.000537389               0.001805795               0.001268406               0.000000000               0.000000000               0.000000000               0.000000000               0.000145755               0.004847048              -0.000087242              -0.000551222               0.001799407               0.001248185               0.000000000               0.000000000               0.000000000               0.000000000               0.000099846               0.004821310              -0.000078572              -0.000565220               0.001795494               0.001230274               0.000000000               0.000000000               0.000000000               0.000000000               0.000060818               0.004801657              -0.000059787              -0.000577399               0.001793003               0.001215604               0.000000000               0.000000000               0.000000000               0.000000000               0.000028082               0.004788572              -0.000032350              -0.000588039               0.001792188               0.001204149               0.000000000               0.000000000               0.000000000               0.000000000               0.000013571               0.004785270              -0.000016825              -0.000593068               0.001792763               0.001199695               0.000000000               0.000000000               0.000000000               0.000000000               0.001599856               0.007028921               0.002497742              -0.000278671               0.002435840               0.002157169               0.000000000               0.000000000               0.000000000               0.000000000               0.000983443               0.006318585               0.001584808              -0.000421032               0.002246518               0.001825485               0.000000000               0.000000000               0.000000000               0.000000000               0.000637009               0.005994546               0.000682660              -0.000510439               0.002168308               0.001657869               0.000000000               0.000000000               0.000000000               0.000000000               0.000461239               0.005723317               0.000324385              -0.000542449               0.002088569               0.001546121               0.000000000               0.000000000               0.000000000               0.000000000               0.000362637               0.005507177               0.000161145              -0.000552407               0.002019843               0.001467436               0.000000000               0.000000000               0.000000000               0.000000000               0.000303109               0.005331927               0.000077087              -0.000552824               0.001961566               0.001408742               0.000000000               0.000000000               0.000000000               0.000000000               0.000261788               0.005189291               0.000035483              -0.000550490               0.001913243               0.001362753               0.000000000               0.000000000               0.000000000               0.000000000               0.000232284               0.005076386               0.000016417              -0.000547440               0.001874592               0.001327151               0.000000000               0.000000000               0.000000000               0.000000000               0.000205594               0.004985687               0.000003216              -0.000546112               0.001843916               0.001297805               0.000000000               0.000000000               0.000000000               0.000000000               0.000174957               0.004907017              -0.000010083              -0.000547767               0.001818245               0.001270478               0.000000000               0.000000000               0.000000000               0.000000000               0.000141867               0.004839809              -0.000021182              -0.000551775               0.001797178               0.001245404               0.000000000               0.000000000               0.000000000               0.000000000               0.000107961               0.004785720              -0.000034085              -0.000557728               0.001781134               0.001223405               0.000000000               0.000000000               0.000000000               0.000000000               0.000078164               0.004743010              -0.000044534              -0.000563564               0.001768842               0.001205279               0.000000000               0.000000000               0.000000000               0.000000000               0.000051799               0.004705082              -0.000043825              -0.000568709               0.001757915               0.001189205               0.000000000               0.000000000               0.000000000               0.000000000               0.000030013               0.004670259              -0.000033517              -0.000572526               0.001747579               0.001175053               0.000000000               0.000000000               0.000000000               0.000000000               0.000013750               0.004639725              -0.000017049              -0.000574808               0.001738162               0.001163354               0.000000000               0.000000000               0.000000000               0.000000000               0.000005235               0.004622743              -0.000008726              -0.000575878               0.001732859               0.001156980               0.000000000               0.000000000               0.000000000               0.000000000               0.001602522               0.005871687               0.002457923              -0.000133018               0.002001548               0.001868530               0.000000000               0.000000000               0.000000000               0.000000000               0.000887925               0.005578372               0.001639824              -0.000364325               0.001980880               0.001616555               0.000000000               0.000000000               0.000000000               0.000000000               0.000413803               0.005609824               0.000817245              -0.000546051               0.002051939               0.001505889               0.000000000               0.000000000               0.000000000               0.000000000               0.000242677               0.005482417               0.000481835              -0.000594297               0.002025553               0.001431256               0.000000000               0.000000000               0.000000000               0.000000000               0.000173716               0.005331631               0.000316390              -0.000601309               0.001977629               0.001376320               0.000000000               0.000000000               0.000000000               0.000000000               0.000149241               0.005190178               0.000221331              -0.000592806               0.001927644               0.001334838               0.000000000               0.000000000               0.000000000               0.000000000               0.000139885               0.005065357               0.000163226              -0.000580711               0.001882006               0.001301295               0.000000000               0.000000000               0.000000000               0.000000000               0.000133081               0.004959377               0.000127196              -0.000570015               0.001843114               0.001273099               0.000000000               0.000000000               0.000000000               0.000000000               0.000120714               0.004867709               0.000099269              -0.000563194               0.001810285               0.001247090               0.000000000               0.000000000               0.000000000               0.000000000               0.000099442               0.004784049               0.000072515              -0.000560714               0.001781572               0.001220858               0.000000000               0.000000000               0.000000000               0.000000000               0.000075480               0.004711925               0.000047213              -0.000560684               0.001757521               0.001196836               0.000000000               0.000000000               0.000000000               0.000000000               0.000051818               0.004650704               0.000021809              -0.000561905               0.001737521               0.001175616               0.000000000               0.000000000               0.000000000               0.000000000               0.000030546               0.004593793               0.000001580              -0.000562768               0.001718838               0.001156070               0.000000000               0.000000000               0.000000000               0.000000000               0.000018347               0.004538927              -0.000006476              -0.000560484               0.001699789               0.001139304               0.000000000               0.000000000               0.000000000               0.000000000               0.000011596               0.004483104              -0.000005902              -0.000556038               0.001679699               0.001123661               0.000000000               0.000000000               0.000000000               0.000000000               0.000005006               0.004427815              -0.000002240              -0.000551598               0.001659790               0.001108192               0.000000000               0.000000000               0.000000000               0.000000000              -0.000003956               0.004390613              -0.000003994              -0.000550309               0.001646959               0.001096651               0.000000000               0.000000000               0.000000000               0.000000000               0.001517094               0.004776003               0.002276805              -0.000028093               0.001601349               0.001573255               0.000000000               0.000000000               0.000000000               0.000000000               0.000768672               0.004886226               0.001630988              -0.000322527               0.001736234               0.001413707               0.000000000               0.000000000               0.000000000               0.000000000               0.000230751               0.005230974               0.000947292              -0.000567339               0.001932753               0.001365414               0.000000000               0.000000000               0.000000000               0.000000000               0.000088450               0.005223479               0.000635893              -0.000619765               0.001947730               0.001327966               0.000000000               0.000000000               0.000000000               0.000000000               0.000056808               0.005130884               0.000466744              -0.000620056               0.001916963               0.001296907               0.000000000               0.000000000               0.000000000               0.000000000               0.000060819               0.005019448               0.000358920              -0.000604623               0.001874673               0.001270051               0.000000000               0.000000000               0.000000000               0.000000000               0.000073173               0.004909430               0.000282243              -0.000586237               0.001831873               0.001245635               0.000000000               0.000000000               0.000000000               0.000000000               0.000080485               0.004809108               0.000224610              -0.000570955               0.001793339               0.001222383               0.000000000               0.000000000               0.000000000               0.000000000               0.000074758               0.004718168               0.000178995              -0.000561735               0.001759952               0.001198217               0.000000000               0.000000000               0.000000000               0.000000000               0.000056852               0.004636619               0.000139461              -0.000558257               0.001731610               0.001173353               0.000000000               0.000000000               0.000000000               0.000000000               0.000033643               0.004564230               0.000102636              -0.000557911               0.001707365               0.001149454               0.000000000               0.000000000               0.000000000               0.000000000               0.000011742               0.004494333               0.000067942              -0.000557387               0.001683892               0.001126505               0.000000000               0.000000000               0.000000000               0.000000000              -0.000003773               0.004420868               0.000037920              -0.000554022               0.001658282               0.001104260               0.000000000               0.000000000               0.000000000               0.000000000              -0.000011080               0.004342965               0.000019158              -0.000547024               0.001629982               0.001082958               0.000000000               0.000000000               0.000000000               0.000000000              -0.000010937               0.004265024               0.000008438              -0.000537228               0.001600737               0.001063509               0.000000000               0.000000000               0.000000000               0.000000000              -0.000007981               0.004191177               0.000001875              -0.000526889               0.001572675               0.001045786               0.000000000               0.000000000               0.000000000               0.000000000              -0.000013377               0.004142251              -0.000004954              -0.000522796               0.001555002               0.001032206               0.000000000               0.000000000               0.000000000               0.000000000               0.001375222               0.003831066               0.002001581               0.000036822               0.001264734               0.001301556               0.000000000               0.000000000               0.000000000               0.000000000               0.000664998               0.004267415               0.001586539              -0.000284054               0.001517142               0.001233088               0.000000000               0.000000000               0.000000000               0.000000000               0.000121795               0.004868752               0.001088709              -0.000562920               0.001810541               0.001247621               0.000000000               0.000000000               0.000000000               0.000000000               0.000009727               0.004974376               0.000797337              -0.000618148               0.001864158               0.001246010               0.000000000               0.000000000               0.000000000               0.000000000               0.000004712               0.004946056               0.000620063              -0.000616489               0.001854165               0.001237676               0.000000000               0.000000000               0.000000000               0.000000000               0.000028220               0.004872585               0.000496108              -0.000598489               0.001823675               0.001225186               0.000000000               0.000000000               0.000000000               0.000000000               0.000052679               0.004785229               0.000397560              -0.000578398               0.001787859               0.001209462               0.000000000               0.000000000               0.000000000               0.000000000               0.000064019               0.004694521               0.000317452              -0.000562807               0.001752427               0.001189620               0.000000000               0.000000000               0.000000000               0.000000000               0.000057864               0.004608306               0.000256013              -0.000554338               0.001720866               0.001166528               0.000000000               0.000000000               0.000000000               0.000000000               0.000040939               0.004532974               0.000205248              -0.000551268               0.001694732               0.001143464               0.000000000               0.000000000               0.000000000               0.000000000               0.000017569               0.004461235               0.000158523              -0.000551064               0.001670752               0.001119687               0.000000000               0.000000000               0.000000000               0.000000000              -0.000006786               0.004385893               0.000117404              -0.000550780               0.001645543               0.001094763               0.000000000               0.000000000               0.000000000               0.000000000              -0.000024005               0.004298619               0.000079204              -0.000546328               0.001614968               0.001068640               0.000000000               0.000000000               0.000000000               0.000000000              -0.000035577               0.004201765               0.000046636              -0.000538561               0.001580094               0.001041534               0.000000000               0.000000000               0.000000000               0.000000000              -0.000047261               0.004103904               0.000021965              -0.000530709               0.001544857               0.001014148               0.000000000               0.000000000               0.000000000               0.000000000              -0.000056105               0.004012641               0.000005041              -0.000522618               0.001511740               0.000989121               0.000000000               0.000000000               0.000000000               0.000000000              -0.000059273               0.003962792              -0.000003230              -0.000517575               0.001493443               0.000975867               0.000000000               0.000000000               0.000000000               0.000000000               0.001165035               0.002925113               0.001686378               0.000071246               0.000951278               0.001022525               0.000000000               0.000000000               0.000000000               0.000000000               0.000602990               0.003544505               0.001527411              -0.000216943               0.001253804               0.001036861               0.000000000               0.000000000               0.000000000               0.000000000               0.000112983               0.004325332               0.001250061              -0.000498298               0.001607862               0.001109564               0.000000000               0.000000000               0.000000000               0.000000000               0.000011585               0.004584186               0.000986256              -0.000568678               0.001717606               0.001148928               0.000000000               0.000000000               0.000000000               0.000000000               0.000006109               0.004658402               0.000794606              -0.000580008               0.001746121               0.001166113               0.000000000               0.000000000               0.000000000               0.000000000               0.000028283               0.004652706               0.000652368              -0.000570981               0.001741213               0.001170232               0.000000000               0.000000000               0.000000000               0.000000000               0.000053071               0.004609344               0.000535980              -0.000556265               0.001721854               0.001165589               0.000000000               0.000000000               0.000000000               0.000000000               0.000069062               0.004549238               0.000438759              -0.000542755               0.001697316               0.001154560               0.000000000               0.000000000               0.000000000               0.000000000               0.000070584               0.004487335               0.000360952              -0.000534447               0.001673912               0.001139466               0.000000000               0.000000000               0.000000000               0.000000000               0.000054318               0.004424675               0.000294382              -0.000532714               0.001652448               0.001119734               0.000000000               0.000000000               0.000000000               0.000000000               0.000026680               0.004364130               0.000235569              -0.000535510               0.001633199               0.001097689               0.000000000               0.000000000               0.000000000               0.000000000              -0.000007523               0.004297803               0.000184283              -0.000540045               0.001612602               0.001072557               0.000000000               0.000000000               0.000000000               0.000000000              -0.000042331               0.004219346               0.000136039              -0.000543291               0.001587532               0.001044240               0.000000000               0.000000000               0.000000000               0.000000000              -0.000071229               0.004131950               0.000089506              -0.000543203               0.001558371               0.001015167               0.000000000               0.000000000               0.000000000               0.000000000              -0.000101585               0.004037021               0.000047628              -0.000542721               0.001526567               0.000983847               0.000000000               0.000000000               0.000000000               0.000000000              -0.000135204               0.003941958               0.000017057              -0.000543445               0.001495121               0.000951676               0.000000000               0.000000000               0.000000000               0.000000000              -0.000153784               0.003891709               0.000003717              -0.000544131               0.001478601               0.000934469               0.000000000               0.000000000               0.000000000               0.000000000               0.000850126               0.002084899               0.001342988               0.000058182               0.000675565               0.000733747               0.000000000               0.000000000               0.000000000               0.000000000               0.000532479               0.002816987               0.001422844              -0.000152445               0.000989800               0.000837356               0.000000000               0.000000000               0.000000000               0.000000000               0.000162782               0.003710123               0.001368191              -0.000402722               0.001370936               0.000968213               0.000000000               0.000000000               0.000000000               0.000000000               0.000068299               0.004115285               0.001160869              -0.000488798               0.001534680               0.001045882               0.000000000               0.000000000               0.000000000               0.000000000               0.000047523               0.004304500               0.000968684              -0.000520241               0.001608232               0.001087992               0.000000000               0.000000000               0.000000000               0.000000000               0.000061575               0.004382549               0.000816561              -0.000524727               0.001635744               0.001111017               0.000000000               0.000000000               0.000000000               0.000000000               0.000085949               0.004397810               0.000690409              -0.000517494               0.001638420               0.001120926               0.000000000               0.000000000               0.000000000               0.000000000               0.000104644               0.004384542               0.000582460              -0.000508825               0.001631108               0.001122283               0.000000000               0.000000000               0.000000000               0.000000000               0.000108746               0.004359303               0.000489417              -0.000504132               0.001621130               0.001116998               0.000000000               0.000000000               0.000000000               0.000000000               0.000095045               0.004327287               0.000407484              -0.000505268               0.001610837               0.001105569               0.000000000               0.000000000               0.000000000               0.000000000               0.000065967               0.004287413               0.000336660              -0.000511188               0.001599519               0.001088332               0.000000000               0.000000000               0.000000000               0.000000000               0.000024601               0.004236292               0.000274888              -0.000520310               0.001585520               0.001065210               0.000000000               0.000000000               0.000000000               0.000000000              -0.000021633               0.004174912               0.000219174              -0.000529975               0.001568282               0.001038307               0.000000000               0.000000000               0.000000000               0.000000000              -0.000066907               0.004104920               0.000162078              -0.000538204               0.001547694               0.001009490               0.000000000               0.000000000               0.000000000               0.000000000              -0.000115025               0.004026299               0.000100889              -0.000546421               0.001524226               0.000977806               0.000000000               0.000000000               0.000000000               0.000000000              -0.000175774               0.003941154               0.000045170              -0.000558558               0.001499891               0.000941333               0.000000000               0.000000000               0.000000000               0.000000000              -0.000221146               0.003890128               0.000015150              -0.000569194               0.001486428               0.000917233               0.000000000               0.000000000               0.000000000               0.000000000               0.000447316               0.001365980               0.000989328              -0.000003005               0.000456323               0.000453318               0.000000000               0.000000000               0.000000000               0.000000000               0.000414249               0.002125912               0.001252276              -0.000110397               0.000745428               0.000635032               0.000000000               0.000000000               0.000000000               0.000000000               0.000228945               0.003036259               0.001382871              -0.000293679               0.001109968               0.000816290               0.000000000               0.000000000               0.000000000               0.000000000               0.000171923               0.003546640               0.001251593              -0.000378859               0.001308487               0.000929629               0.000000000               0.000000000               0.000000000               0.000000000               0.000146828               0.003841274               0.001086481              -0.000425098               0.001422111               0.000997013               0.000000000               0.000000000               0.000000000               0.000000000               0.000146827               0.004008961               0.000941532              -0.000446059               0.001484993               0.001038934               0.000000000               0.000000000               0.000000000               0.000000000               0.000161073               0.004098733               0.000811928              -0.000451938               0.001516877               0.001064938               0.000000000               0.000000000               0.000000000               0.000000000               0.000172540               0.004145517               0.000697206              -0.000453486               0.001532987               0.001079501               0.000000000               0.000000000               0.000000000               0.000000000               0.000174969               0.004169336               0.000596460              -0.000455553               0.001541615               0.001086063               0.000000000               0.000000000               0.000000000               0.000000000               0.000164140               0.004177333               0.000507007              -0.000460613               0.001545968               0.001085355               0.000000000               0.000000000               0.000000000               0.000000000               0.000137403               0.004166258               0.000428713              -0.000469255               0.001545157               0.001075902               0.000000000               0.000000000               0.000000000               0.000000000               0.000097777               0.004138546               0.000361908              -0.000480651               0.001539719               0.001059068               0.000000000               0.000000000               0.000000000               0.000000000               0.000049928               0.004099536               0.000301382              -0.000493718               0.001531071               0.001037353               0.000000000               0.000000000               0.000000000               0.000000000              -0.000005147               0.004050604               0.000237699              -0.000508254               0.001519606               0.001011352               0.000000000               0.000000000               0.000000000               0.000000000              -0.000066612               0.003991379               0.000162134              -0.000523900               0.001505080               0.000981179               0.000000000               0.000000000               0.000000000               0.000000000              -0.000142018               0.003926252               0.000080584              -0.000544037               0.001490083               0.000946046               0.000000000               0.000000000               0.000000000               0.000000000              -0.000203480               0.003880557               0.000033436              -0.000561373               0.001480631               0.000919257               0.000000000               0.000000000               0.000000000               0.000000000              -0.000006226               0.000801185               0.000661298              -0.000102483               0.000301219               0.000198736               0.000000000               0.000000000               0.000000000               0.000000000               0.000260214               0.001509197               0.001030136              -0.000091070               0.000533417               0.000442346               0.000000000               0.000000000               0.000000000               0.000000000               0.000300371               0.002357649               0.001283872              -0.000182068               0.000846564               0.000664496               0.000000000               0.000000000               0.000000000               0.000000000               0.000309431               0.002921389               0.001229932              -0.000249138               0.001056832               0.000807694               0.000000000               0.000000000               0.000000000               0.000000000               0.000301003               0.003301310               0.001110334              -0.000299788               0.001200355               0.000900567               0.000000000               0.000000000               0.000000000               0.000000000               0.000287206               0.003557227               0.000987672              -0.000336951               0.001298047               0.000961096               0.000000000               0.000000000               0.000000000               0.000000000               0.000282881               0.003725645               0.000866133              -0.000359625               0.001361744               0.001002119               0.000000000               0.000000000               0.000000000               0.000000000               0.000280069               0.003835913               0.000752695              -0.000374463               0.001403446               0.001028983               0.000000000               0.000000000               0.000000000               0.000000000               0.000276109               0.003914022               0.000652092              -0.000385711               0.001433231               0.001047520               0.000000000               0.000000000               0.000000000               0.000000000               0.000265168               0.003965037               0.000562055              -0.000396191               0.001453729               0.001057538               0.000000000               0.000000000               0.000000000               0.000000000               0.000244068               0.003988507               0.000484777              -0.000407037               0.001465168               0.001058131               0.000000000               0.000000000               0.000000000               0.000000000               0.000212711               0.003991917               0.000419402              -0.000419222               0.001470366               0.001051144               0.000000000               0.000000000               0.000000000               0.000000000               0.000171683               0.003983942               0.000357157              -0.000433611               0.001472504               0.001038894               0.000000000               0.000000000               0.000000000               0.000000000               0.000118602               0.003967895               0.000288891              -0.000451510               0.001473122               0.001021612               0.000000000               0.000000000               0.000000000               0.000000000               0.000053961               0.003939855               0.000207460              -0.000472246               0.001470687               0.000998442               0.000000000               0.000000000               0.000000000               0.000000000              -0.000022081               0.003899776               0.000109554              -0.000495751               0.001465163               0.000969412               0.000000000               0.000000000               0.000000000               0.000000000              -0.000083544               0.003865732               0.000050606              -0.000514544               0.001460079               0.000945535               0.000000000               0.000000000               0.000000000               0.000000000              -0.000455710               0.000401328               0.000391143              -0.000221057               0.000207460              -0.000013597               0.000000000               0.000000000               0.000000000               0.000000000               0.000090419               0.001001918               0.000777730              -0.000091333               0.000364413               0.000273080               0.000000000               0.000000000               0.000000000               0.000000000               0.000367425               0.001735366               0.001076339              -0.000079137               0.000604828               0.000525691               0.000000000               0.000000000               0.000000000               0.000000000               0.000460766               0.002313308               0.001080778              -0.000116377               0.000809887               0.000693510               0.000000000               0.000000000               0.000000000               0.000000000               0.000480828               0.002748846               0.001007306              -0.000163296               0.000970704               0.000807409               0.000000000               0.000000000               0.000000000               0.000000000               0.000464729               0.003072018               0.000916570              -0.000209729               0.001093905               0.000884176               0.000000000               0.000000000               0.000000000               0.000000000               0.000441598               0.003306223               0.000815952              -0.000247679               0.001184623               0.000936944               0.000000000               0.000000000               0.000000000               0.000000000               0.000419586               0.003477860               0.000715577              -0.000277387               0.001251737               0.000974350               0.000000000               0.000000000               0.000000000               0.000000000               0.000401574               0.003611094               0.000624754              -0.000300796               0.001303951               0.001003155               0.000000000               0.000000000               0.000000000               0.000000000               0.000385542               0.003709715               0.000544570              -0.000319136               0.001342938               0.001023802               0.000000000               0.000000000               0.000000000               0.000000000               0.000368623               0.003778397               0.000477391              -0.000334066               0.001370808               0.001036743               0.000000000               0.000000000               0.000000000               0.000000000               0.000345663               0.003820983               0.000420096              -0.000347999               0.001389648               0.001041649               0.000000000               0.000000000               0.000000000               0.000000000               0.000317076               0.003847938               0.000362865              -0.000362088               0.001403329               0.001041241               0.000000000               0.000000000               0.000000000               0.000000000               0.000282688               0.003869119               0.000295951              -0.000377631               0.001415570               0.001037939               0.000000000               0.000000000               0.000000000               0.000000000               0.000238616               0.003876312               0.000216298              -0.000395057               0.001423777               0.001028720               0.000000000               0.000000000               0.000000000               0.000000000               0.000186826               0.003867745               0.000117278              -0.000413407               0.001427038               0.001013631               0.000000000               0.000000000               0.000000000               0.000000000               0.000148715               0.003854606               0.000058484              -0.000426057               0.001426875               0.001000818               0.000000000               0.000000000               0.000000000               0.000000000              -0.000842493               0.000151165               0.000198235              -0.000334830               0.000161997              -0.000172833               0.000000000               0.000000000               0.000000000               0.000000000              -0.000068729               0.000631426               0.000515291              -0.000104702               0.000245374               0.000140672               0.000000000               0.000000000               0.000000000               0.000000000               0.000417483               0.001237082               0.000776257               0.000001920               0.000411716               0.000413636               0.000000000               0.000000000               0.000000000               0.000000000               0.000597687               0.001797886               0.000808357              -0.000000604               0.000599491               0.000598886               0.000000000               0.000000000               0.000000000               0.000000000               0.000650235               0.002257679               0.000770775              -0.000038372               0.000765343               0.000726970               0.000000000               0.000000000               0.000000000               0.000000000               0.000641035               0.002624860               0.000713492              -0.000087720               0.000904184               0.000816465               0.000000000               0.000000000               0.000000000               0.000000000               0.000604401               0.002911519               0.000641912              -0.000137289               0.001016260               0.000878970               0.000000000               0.000000000               0.000000000               0.000000000               0.000563712               0.003137371               0.000566806              -0.000180779               0.001106040               0.000925260               0.000000000               0.000000000               0.000000000               0.000000000               0.000529197               0.003320650               0.000498581              -0.000216632               0.001179083               0.000962451               0.000000000               0.000000000               0.000000000               0.000000000               0.000503718               0.003468247               0.000438651              -0.000244636               0.001237616               0.000992980               0.000000000               0.000000000               0.000000000               0.000000000               0.000483349               0.003580171               0.000388576              -0.000266265               0.001282133               0.001015868               0.000000000               0.000000000               0.000000000               0.000000000               0.000466185               0.003662973               0.000346372              -0.000283052               0.001315329               0.001032277               0.000000000               0.000000000               0.000000000               0.000000000               0.000452049               0.003726808               0.000304013              -0.000296332               0.001341034               0.001044702               0.000000000               0.000000000               0.000000000               0.000000000               0.000443515               0.003776839               0.000251958              -0.000305786               0.001360862               0.001055076               0.000000000               0.000000000               0.000000000               0.000000000               0.000439731               0.003813862               0.000186705              -0.000311833               0.001375219               0.001063386               0.000000000               0.000000000               0.000000000               0.000000000               0.000439866               0.003837861               0.000103523              -0.000314782               0.001384202               0.001069420               0.000000000               0.000000000               0.000000000               0.000000000               0.000442718               0.003846124               0.000055449              -0.000314746               0.001386944               0.001072198               0.000000000               0.000000000               0.000000000               0.000000000              -0.001105517               0.000021792               0.000076721              -0.000417292               0.000146361              -0.000270932               0.000000000               0.000000000               0.000000000               0.000000000              -0.000185075               0.000409364               0.000254426              -0.000120573               0.000176644               0.000056071               0.000000000               0.000000000               0.000000000               0.000000000               0.000448669               0.000915276               0.000405981               0.000053840               0.000287142               0.000340982               0.000000000               0.000000000               0.000000000               0.000000000               0.000697771               0.001448694               0.000433342               0.000080576               0.000456034               0.000536610               0.000000000               0.000000000               0.000000000               0.000000000               0.000778000               0.001916090               0.000419728               0.000052238               0.000621278               0.000673515               0.000000000               0.000000000               0.000000000               0.000000000               0.000772137               0.002309101               0.000392379               0.000000913               0.000769388               0.000770301               0.000000000               0.000000000               0.000000000               0.000000000               0.000725744               0.002629658               0.000355258              -0.000056553               0.000895395               0.000838842               0.000000000               0.000000000               0.000000000               0.000000000               0.000673664               0.002892191               0.000315179              -0.000108900               0.001000354               0.000891454               0.000000000               0.000000000               0.000000000               0.000000000               0.000628419               0.003109691               0.000278521              -0.000153054               0.001087571               0.000934517               0.000000000               0.000000000               0.000000000               0.000000000               0.000594523               0.003291882               0.000246604              -0.000188539               0.001160129               0.000971590               0.000000000               0.000000000               0.000000000               0.000000000               0.000571062               0.003441112               0.000220653              -0.000215990               0.001219023               0.001003032               0.000000000               0.000000000               0.000000000               0.000000000               0.000555415               0.003556528               0.000199410              -0.000236285               0.001264259               0.001027974               0.000000000               0.000000000               0.000000000               0.000000000               0.000549069               0.003647455               0.000177870              -0.000250030               0.001299150               0.001049119               0.000000000               0.000000000               0.000000000               0.000000000               0.000559421               0.003724322               0.000151248              -0.000255757               0.001326680               0.001070924               0.000000000               0.000000000               0.000000000               0.000000000               0.000591524               0.003785743               0.000115524              -0.000251396               0.001345700               0.001094304               0.000000000               0.000000000               0.000000000               0.000000000               0.000648359               0.003826588               0.000066051              -0.000235189               0.001353913               0.001118724               0.000000000               0.000000000               0.000000000               0.000000000               0.000701744               0.003847622               0.000037526              -0.000217798               0.001355127               0.001137329               0.000000000               0.000000000               0.000000000               0.000000000               0.000000000               0.000000000               0.000000000               0.000000000               0.000000000               0.000000000               0.000000000               0.000000000               0.000000000               0.000000000               0.000000000               0.000000000               0.000000000               0.000000000               0.000000000               0.000000000               0.000000000               0.000000000               0.000000000               0.000000000               0.000000000               0.000000000               0.000000000               0.000000000               0.000000000               0.000000000               0.000000000               0.000000000               0.000000000               0.000000000               0.000000000               0.000000000               0.000000000               0.000000000               0.000000000               0.000000000               0.000000000               0.000000000               0.000000000               0.000000000               0.000000000               0.000000000               0.000000000               0.000000000               0.000000000               0.000000000               0.000000000               0.000000000               0.000000000               0.000000000               0.000000000               0.000000000               0.000000000               0.000000000               0.000000000               0.000000000               0.000000000               0.000000000               0.000000000               0.000000000               0.000000000               0.000000000               0.000000000               0.000000000               0.000000000               0.000000000               0.000000000               0.000000000               0.000000000               0.000000000               0.000000000               0.000000000               0.000000000               0.000000000               0.000000000               0.000000000               0.000000000               0.000000000               0.000000000               0.000000000               0.000000000               0.000000000               0.000000000               0.000000000               0.000000000               0.000000000               0.000000000               0.000000000               0.000000000               0.000000000               0.000000000               0.000000000               0.000000000               0.000000000               0.000000000               0.000000000               0.000000000               0.000000000               0.000000000               0.000000000               0.000000000               0.000000000               0.000000000               0.000000000               0.000000000               0.000000000               0.000000000               0.000000000               0.000000000               0.000000000               0.000000000               0.000000000               0.000000000               0.000000000               0.000000000               0.000000000               0.000000000               0.000000000               0.000000000               0.000000000               0.000000000               0.000000000               0.000000000               0.000000000               0.000000000               0.000000000               0.000000000               0.000000000               0.000000000               0.000000000               0.000000000               0.000000000               0.000000000               0.000000000               0.000000000               0.000000000               0.000000000               0.000000000               0.000000000               0.000000000               0.000000000               0.000000000               0.000000000               0.000000000               0.000000000               0.000000000               0.000000000               0.000000000               0.000000000               0.000000000               0.000000000               0.000000000               0.000000000               0.000000000               0.000000000               0.000000000               0.000000000               0.000000000               0.000000000               0.000000000               0.000000000               0.000000000               0.000000000               0.000000000               0.000000000               0.000000000               0.000000000               0.000000000               0.000000000               0.000000000 </DataArray>
</PointData>
</Piece>
</UnstructuredGrid> </VTKFile>
