<?xml version="1.0"?>
<VTKFile type="UnstructuredGrid" version="0.1">
<UnstructuredGrid>
<Piece NumberOfPoints="      1156" NumberOfCells="      1024">
<Points>
<DataArray type="Float64"                                    Name="coordinates"                                                      NumberOfComponents=" 3" format="ascii">
              0.133000000               0.000000000               0.000000000               0.155937500               0.000000000               0.000000000               0.178875000               0.000000000               0.000000000               0.201812500               0.000000000               0.000000000               0.224750000               0.000000000               0.000000000               0.247687500               0.000000000               0.000000000               0.270625000               0.000000000               0.000000000               0.293562500               0.000000000               0.000000000               0.316500000               0.000000000               0.000000000               0.339437500               0.000000000               0.000000000               0.362375000               0.000000000               0.000000000               0.385312500               0.000000000               0.000000000               0.408250000               0.000000000               0.000000000               0.431187500               0.000000000               0.000000000               0.454125000               0.000000000               0.000000000               0.477062500               0.000000000               0.000000000               0.500000000               0.000000000               0.000000000               0.132359569               0.013036280               0.000000000               0.155337096               0.016127762               0.000000000               0.178314623               0.019219245               0.000000000               0.201292150               0.022310727               0.000000000               0.224269676               0.025402210               0.000000000               0.247247203               0.028493692               0.000000000               0.270224730               0.031585175               0.000000000               0.293202257               0.034676657               0.000000000               0.316179784               0.037768140               0.000000000               0.339157311               0.040859622               0.000000000               0.362134838               0.043951105               0.000000000               0.385112365               0.047042587               0.000000000               0.408089892               0.050134070               0.000000000               0.431067419               0.053225552               0.000000000               0.454044946               0.056317035               0.000000000               0.477022473               0.059408517               0.000000000               0.500000000               0.062500000               0.000000000               0.130444442               0.025947013               0.000000000               0.153541665               0.032137825               0.000000000               0.176638887               0.038328636               0.000000000               0.199736109               0.044519448               0.000000000               0.222833332               0.050710260               0.000000000               0.245930554               0.056901071               0.000000000               0.269027776               0.063091883               0.000000000               0.292124999               0.069282695               0.000000000               0.315222221               0.075473506               0.000000000               0.338319444               0.081664318               0.000000000               0.361416666               0.087855130               0.000000000               0.384513888               0.094045942               0.000000000               0.407611111               0.100236753               0.000000000               0.430708333               0.106427565               0.000000000               0.453805555               0.112618377               0.000000000               0.476902778               0.118809188               0.000000000               0.500000000               0.125000000               0.000000000               0.127273065               0.038607862               0.000000000               0.150568498               0.047913621               0.000000000               0.173863932               0.057219379               0.000000000               0.197159365               0.066525138               0.000000000               0.220454798               0.075830897               0.000000000               0.243750232               0.085136655               0.000000000               0.267045665               0.094442414               0.000000000               0.290341099               0.103748172               0.000000000               0.313636532               0.113053931               0.000000000               0.336931966               0.122359690               0.000000000               0.360227399               0.131665448               0.000000000               0.383522833               0.140971207               0.000000000               0.406818266               0.150276966               0.000000000               0.430113700               0.159582724               0.000000000               0.453409133               0.168888483               0.000000000               0.476704567               0.178194241               0.000000000               0.500000000               0.187500000               0.000000000               0.122875978               0.050896897               0.000000000               0.146446229               0.063340840               0.000000000               0.170016481               0.075784784               0.000000000               0.193586732               0.088228728               0.000000000               0.217156983               0.100672672               0.000000000               0.240727235               0.113116616               0.000000000               0.264297486               0.125560560               0.000000000               0.287867738               0.138004504               0.000000000               0.311437989               0.150448448               0.000000000               0.335008240               0.162892392               0.000000000               0.358578492               0.175336336               0.000000000               0.382148743               0.187780280               0.000000000               0.405718994               0.200224224               0.000000000               0.429289246               0.212668168               0.000000000               0.452859497               0.225112112               0.000000000               0.476429749               0.237556056               0.000000000               0.500000000               0.250000000               0.000000000               0.117295528               0.062695766               0.000000000               0.141214558               0.078308531               0.000000000               0.165133587               0.093921295               0.000000000               0.189052617               0.109534060               0.000000000               0.212971646               0.125146824               0.000000000               0.236890676               0.140759589               0.000000000               0.260809705               0.156372354               0.000000000               0.284728735               0.171985118               0.000000000               0.308647764               0.187597883               0.000000000               0.332566794               0.203210648               0.000000000               0.356485823               0.218823412               0.000000000               0.380404853               0.234436177               0.000000000               0.404323882               0.250048941               0.000000000               0.428242912               0.265661706               0.000000000               0.452161941               0.281274471               0.000000000               0.476080971               0.296887235               0.000000000               0.500000000               0.312500000               0.000000000               0.110585458               0.073890841               0.000000000               0.134923867               0.092710163               0.000000000               0.159262276               0.111529486               0.000000000               0.183600685               0.130348808               0.000000000               0.207939094               0.149168131               0.000000000               0.232277503               0.167987453               0.000000000               0.256615912               0.186806776               0.000000000               0.280954320               0.205626098               0.000000000               0.305292729               0.224445420               0.000000000               0.329631138               0.243264743               0.000000000               0.353969547               0.262084065               0.000000000               0.378307956               0.280903388               0.000000000               0.402646365               0.299722710               0.000000000               0.426984773               0.318542033               0.000000000               0.451323182               0.337361355               0.000000000               0.475661591               0.356180678               0.000000000               0.500000000               0.375000000               0.000000000               0.102810390               0.084374307               0.000000000               0.127634741               0.106444663               0.000000000               0.152459092               0.128515018               0.000000000               0.177283442               0.150585374               0.000000000               0.202107793               0.172655730               0.000000000               0.226932143               0.194726086               0.000000000               0.251756494               0.216796442               0.000000000               0.276580845               0.238866798               0.000000000               0.301405195               0.260937153               0.000000000               0.326229546               0.283007509               0.000000000               0.351053896               0.305077865               0.000000000               0.375878247               0.327148221               0.000000000               0.400702598               0.349218577               0.000000000               0.425526948               0.371288933               0.000000000               0.450351299               0.393359288               0.000000000               0.475175649               0.415429644               0.000000000               0.500000000               0.437500000               0.000000000               0.094045202               0.094045202               0.000000000               0.119417377               0.119417377               0.000000000               0.144789552               0.144789552               0.000000000               0.170161727               0.170161727               0.000000000               0.195533901               0.195533901               0.000000000               0.220906076               0.220906076               0.000000000               0.246278251               0.246278251               0.000000000               0.271650426               0.271650426               0.000000000               0.297022601               0.297022601               0.000000000               0.322394776               0.322394776               0.000000000               0.347766951               0.347766951               0.000000000               0.373139126               0.373139126               0.000000000               0.398511300               0.398511300               0.000000000               0.423883475               0.423883475               0.000000000               0.449255650               0.449255650               0.000000000               0.474627825               0.474627825               0.000000000               0.500000000               0.500000000               0.000000000               0.084374307               0.102810390               0.000000000               0.106444663               0.127634741               0.000000000               0.128515018               0.152459092               0.000000000               0.150585374               0.177283442               0.000000000               0.172655730               0.202107793               0.000000000               0.194726086               0.226932143               0.000000000               0.216796442               0.251756494               0.000000000               0.238866798               0.276580845               0.000000000               0.260937153               0.301405195               0.000000000               0.283007509               0.326229546               0.000000000               0.305077865               0.351053896               0.000000000               0.327148221               0.375878247               0.000000000               0.349218577               0.400702598               0.000000000               0.371288933               0.425526948               0.000000000               0.393359288               0.450351299               0.000000000               0.415429644               0.475175649               0.000000000               0.437500000               0.500000000               0.000000000               0.073890841               0.110585458               0.000000000               0.092710163               0.134923867               0.000000000               0.111529486               0.159262276               0.000000000               0.130348808               0.183600685               0.000000000               0.149168131               0.207939094               0.000000000               0.167987453               0.232277503               0.000000000               0.186806776               0.256615912               0.000000000               0.205626098               0.280954320               0.000000000               0.224445420               0.305292729               0.000000000               0.243264743               0.329631138               0.000000000               0.262084065               0.353969547               0.000000000               0.280903388               0.378307956               0.000000000               0.299722710               0.402646365               0.000000000               0.318542033               0.426984773               0.000000000               0.337361355               0.451323182               0.000000000               0.356180678               0.475661591               0.000000000               0.375000000               0.500000000               0.000000000               0.062695766               0.117295528               0.000000000               0.078308531               0.141214558               0.000000000               0.093921295               0.165133587               0.000000000               0.109534060               0.189052617               0.000000000               0.125146824               0.212971646               0.000000000               0.140759589               0.236890676               0.000000000               0.156372354               0.260809705               0.000000000               0.171985118               0.284728735               0.000000000               0.187597883               0.308647764               0.000000000               0.203210648               0.332566794               0.000000000               0.218823412               0.356485823               0.000000000               0.234436177               0.380404853               0.000000000               0.250048941               0.404323882               0.000000000               0.265661706               0.428242912               0.000000000               0.281274471               0.452161941               0.000000000               0.296887235               0.476080971               0.000000000               0.312500000               0.500000000               0.000000000               0.050896897               0.122875978               0.000000000               0.063340840               0.146446229               0.000000000               0.075784784               0.170016481               0.000000000               0.088228728               0.193586732               0.000000000               0.100672672               0.217156983               0.000000000               0.113116616               0.240727235               0.000000000               0.125560560               0.264297486               0.000000000               0.138004504               0.287867738               0.000000000               0.150448448               0.311437989               0.000000000               0.162892392               0.335008240               0.000000000               0.175336336               0.358578492               0.000000000               0.187780280               0.382148743               0.000000000               0.200224224               0.405718994               0.000000000               0.212668168               0.429289246               0.000000000               0.225112112               0.452859497               0.000000000               0.237556056               0.476429749               0.000000000               0.250000000               0.500000000               0.000000000               0.038607862               0.127273065               0.000000000               0.047913621               0.150568498               0.000000000               0.057219379               0.173863932               0.000000000               0.066525138               0.197159365               0.000000000               0.075830897               0.220454798               0.000000000               0.085136655               0.243750232               0.000000000               0.094442414               0.267045665               0.000000000               0.103748172               0.290341099               0.000000000               0.113053931               0.313636532               0.000000000               0.122359690               0.336931966               0.000000000               0.131665448               0.360227399               0.000000000               0.140971207               0.383522833               0.000000000               0.150276966               0.406818266               0.000000000               0.159582724               0.430113700               0.000000000               0.168888483               0.453409133               0.000000000               0.178194241               0.476704567               0.000000000               0.187500000               0.500000000               0.000000000               0.025947013               0.130444442               0.000000000               0.032137825               0.153541665               0.000000000               0.038328636               0.176638887               0.000000000               0.044519448               0.199736109               0.000000000               0.050710260               0.222833332               0.000000000               0.056901071               0.245930554               0.000000000               0.063091883               0.269027776               0.000000000               0.069282695               0.292124999               0.000000000               0.075473506               0.315222221               0.000000000               0.081664318               0.338319444               0.000000000               0.087855130               0.361416666               0.000000000               0.094045942               0.384513888               0.000000000               0.100236753               0.407611111               0.000000000               0.106427565               0.430708333               0.000000000               0.112618377               0.453805555               0.000000000               0.118809188               0.476902778               0.000000000               0.125000000               0.500000000               0.000000000               0.013036280               0.132359569               0.000000000               0.016127762               0.155337096               0.000000000               0.019219245               0.178314623               0.000000000               0.022310727               0.201292150               0.000000000               0.025402210               0.224269676               0.000000000               0.028493692               0.247247203               0.000000000               0.031585175               0.270224730               0.000000000               0.034676657               0.293202257               0.000000000               0.037768140               0.316179784               0.000000000               0.040859622               0.339157311               0.000000000               0.043951105               0.362134838               0.000000000               0.047042587               0.385112365               0.000000000               0.050134070               0.408089892               0.000000000               0.053225552               0.431067419               0.000000000               0.056317035               0.454044946               0.000000000               0.059408517               0.477022473               0.000000000               0.062500000               0.500000000               0.000000000               0.000000000               0.133000000               0.000000000               0.000000000               0.155937500               0.000000000               0.000000000               0.178875000               0.000000000               0.000000000               0.201812500               0.000000000               0.000000000               0.224750000               0.000000000               0.000000000               0.247687500               0.000000000               0.000000000               0.270625000               0.000000000               0.000000000               0.293562500               0.000000000               0.000000000               0.316500000               0.000000000               0.000000000               0.339437500               0.000000000               0.000000000               0.362375000               0.000000000               0.000000000               0.385312500               0.000000000               0.000000000               0.408250000               0.000000000               0.000000000               0.431187500               0.000000000               0.000000000               0.454125000               0.000000000               0.000000000               0.477062500               0.000000000               0.000000000               0.500000000               0.000000000               0.133000000               0.000000000               0.000000000               0.155937500               0.000000000               0.000000000               0.178875000               0.000000000               0.000000000               0.201812500               0.000000000               0.000000000               0.224750000               0.000000000               0.000000000               0.247687500               0.000000000               0.000000000               0.270625000               0.000000000               0.000000000               0.293562500               0.000000000               0.000000000               0.316500000               0.000000000               0.000000000               0.339437500               0.000000000               0.000000000               0.362375000               0.000000000               0.000000000               0.385312500               0.000000000               0.000000000               0.408250000               0.000000000               0.000000000               0.431187500               0.000000000               0.000000000               0.454125000               0.000000000               0.000000000               0.477062500               0.000000000               0.000000000               0.500000000               0.000000000               0.000000000               0.132359569              -0.013036280               0.000000000               0.155337096              -0.016127762               0.000000000               0.178314623              -0.019219245               0.000000000               0.201292150              -0.022310727               0.000000000               0.224269676              -0.025402210               0.000000000               0.247247203              -0.028493692               0.000000000               0.270224730              -0.031585175               0.000000000               0.293202257              -0.034676657               0.000000000               0.316179784              -0.037768140               0.000000000               0.339157311              -0.040859622               0.000000000               0.362134838              -0.043951105               0.000000000               0.385112365              -0.047042587               0.000000000               0.408089892              -0.050134070               0.000000000               0.431067419              -0.053225552               0.000000000               0.454044946              -0.056317035               0.000000000               0.477022473              -0.059408517               0.000000000               0.500000000              -0.062500000               0.000000000               0.130444442              -0.025947013               0.000000000               0.153541665              -0.032137825               0.000000000               0.176638887              -0.038328636               0.000000000               0.199736109              -0.044519448               0.000000000               0.222833332              -0.050710260               0.000000000               0.245930554              -0.056901071               0.000000000               0.269027776              -0.063091883               0.000000000               0.292124999              -0.069282695               0.000000000               0.315222221              -0.075473506               0.000000000               0.338319444              -0.081664318               0.000000000               0.361416666              -0.087855130               0.000000000               0.384513888              -0.094045942               0.000000000               0.407611111              -0.100236753               0.000000000               0.430708333              -0.106427565               0.000000000               0.453805555              -0.112618377               0.000000000               0.476902778              -0.118809188               0.000000000               0.500000000              -0.125000000               0.000000000               0.127273065              -0.038607862               0.000000000               0.150568498              -0.047913621               0.000000000               0.173863932              -0.057219379               0.000000000               0.197159365              -0.066525138               0.000000000               0.220454798              -0.075830897               0.000000000               0.243750232              -0.085136655               0.000000000               0.267045665              -0.094442414               0.000000000               0.290341099              -0.103748172               0.000000000               0.313636532              -0.113053931               0.000000000               0.336931966              -0.122359690               0.000000000               0.360227399              -0.131665448               0.000000000               0.383522833              -0.140971207               0.000000000               0.406818266              -0.150276966               0.000000000               0.430113700              -0.159582724               0.000000000               0.453409133              -0.168888483               0.000000000               0.476704567              -0.178194241               0.000000000               0.500000000              -0.187500000               0.000000000               0.122875978              -0.050896897               0.000000000               0.146446229              -0.063340840               0.000000000               0.170016481              -0.075784784               0.000000000               0.193586732              -0.088228728               0.000000000               0.217156983              -0.100672672               0.000000000               0.240727235              -0.113116616               0.000000000               0.264297486              -0.125560560               0.000000000               0.287867738              -0.138004504               0.000000000               0.311437989              -0.150448448               0.000000000               0.335008240              -0.162892392               0.000000000               0.358578492              -0.175336336               0.000000000               0.382148743              -0.187780280               0.000000000               0.405718994              -0.200224224               0.000000000               0.429289246              -0.212668168               0.000000000               0.452859497              -0.225112112               0.000000000               0.476429749              -0.237556056               0.000000000               0.500000000              -0.250000000               0.000000000               0.117295528              -0.062695766               0.000000000               0.141214558              -0.078308531               0.000000000               0.165133587              -0.093921295               0.000000000               0.189052617              -0.109534060               0.000000000               0.212971646              -0.125146824               0.000000000               0.236890676              -0.140759589               0.000000000               0.260809705              -0.156372354               0.000000000               0.284728735              -0.171985118               0.000000000               0.308647764              -0.187597883               0.000000000               0.332566794              -0.203210648               0.000000000               0.356485823              -0.218823412               0.000000000               0.380404853              -0.234436177               0.000000000               0.404323882              -0.250048941               0.000000000               0.428242912              -0.265661706               0.000000000               0.452161941              -0.281274471               0.000000000               0.476080971              -0.296887235               0.000000000               0.500000000              -0.312500000               0.000000000               0.110585458              -0.073890841               0.000000000               0.134923867              -0.092710163               0.000000000               0.159262276              -0.111529486               0.000000000               0.183600685              -0.130348808               0.000000000               0.207939094              -0.149168131               0.000000000               0.232277503              -0.167987453               0.000000000               0.256615912              -0.186806776               0.000000000               0.280954320              -0.205626098               0.000000000               0.305292729              -0.224445420               0.000000000               0.329631138              -0.243264743               0.000000000               0.353969547              -0.262084065               0.000000000               0.378307956              -0.280903388               0.000000000               0.402646365              -0.299722710               0.000000000               0.426984773              -0.318542033               0.000000000               0.451323182              -0.337361355               0.000000000               0.475661591              -0.356180678               0.000000000               0.500000000              -0.375000000               0.000000000               0.102810390              -0.084374307               0.000000000               0.127634741              -0.106444663               0.000000000               0.152459092              -0.128515018               0.000000000               0.177283442              -0.150585374               0.000000000               0.202107793              -0.172655730               0.000000000               0.226932143              -0.194726086               0.000000000               0.251756494              -0.216796442               0.000000000               0.276580845              -0.238866798               0.000000000               0.301405195              -0.260937153               0.000000000               0.326229546              -0.283007509               0.000000000               0.351053896              -0.305077865               0.000000000               0.375878247              -0.327148221               0.000000000               0.400702598              -0.349218577               0.000000000               0.425526948              -0.371288933               0.000000000               0.450351299              -0.393359288               0.000000000               0.475175649              -0.415429644               0.000000000               0.500000000              -0.437500000               0.000000000               0.094045202              -0.094045202               0.000000000               0.119417377              -0.119417377               0.000000000               0.144789552              -0.144789552               0.000000000               0.170161727              -0.170161727               0.000000000               0.195533901              -0.195533901               0.000000000               0.220906076              -0.220906076               0.000000000               0.246278251              -0.246278251               0.000000000               0.271650426              -0.271650426               0.000000000               0.297022601              -0.297022601               0.000000000               0.322394776              -0.322394776               0.000000000               0.347766951              -0.347766951               0.000000000               0.373139126              -0.373139126               0.000000000               0.398511300              -0.398511300               0.000000000               0.423883475              -0.423883475               0.000000000               0.449255650              -0.449255650               0.000000000               0.474627825              -0.474627825               0.000000000               0.500000000              -0.500000000               0.000000000               0.084374307              -0.102810390               0.000000000               0.106444663              -0.127634741               0.000000000               0.128515018              -0.152459092               0.000000000               0.150585374              -0.177283442               0.000000000               0.172655730              -0.202107793               0.000000000               0.194726086              -0.226932143               0.000000000               0.216796442              -0.251756494               0.000000000               0.238866798              -0.276580845               0.000000000               0.260937153              -0.301405195               0.000000000               0.283007509              -0.326229546               0.000000000               0.305077865              -0.351053896               0.000000000               0.327148221              -0.375878247               0.000000000               0.349218577              -0.400702598               0.000000000               0.371288933              -0.425526948               0.000000000               0.393359288              -0.450351299               0.000000000               0.415429644              -0.475175649               0.000000000               0.437500000              -0.500000000               0.000000000               0.073890841              -0.110585458               0.000000000               0.092710163              -0.134923867               0.000000000               0.111529486              -0.159262276               0.000000000               0.130348808              -0.183600685               0.000000000               0.149168131              -0.207939094               0.000000000               0.167987453              -0.232277503               0.000000000               0.186806776              -0.256615912               0.000000000               0.205626098              -0.280954320               0.000000000               0.224445420              -0.305292729               0.000000000               0.243264743              -0.329631138               0.000000000               0.262084065              -0.353969547               0.000000000               0.280903388              -0.378307956               0.000000000               0.299722710              -0.402646365               0.000000000               0.318542033              -0.426984773               0.000000000               0.337361355              -0.451323182               0.000000000               0.356180678              -0.475661591               0.000000000               0.375000000              -0.500000000               0.000000000               0.062695766              -0.117295528               0.000000000               0.078308531              -0.141214558               0.000000000               0.093921295              -0.165133587               0.000000000               0.109534060              -0.189052617               0.000000000               0.125146824              -0.212971646               0.000000000               0.140759589              -0.236890676               0.000000000               0.156372354              -0.260809705               0.000000000               0.171985118              -0.284728735               0.000000000               0.187597883              -0.308647764               0.000000000               0.203210648              -0.332566794               0.000000000               0.218823412              -0.356485823               0.000000000               0.234436177              -0.380404853               0.000000000               0.250048941              -0.404323882               0.000000000               0.265661706              -0.428242912               0.000000000               0.281274471              -0.452161941               0.000000000               0.296887235              -0.476080971               0.000000000               0.312500000              -0.500000000               0.000000000               0.050896897              -0.122875978               0.000000000               0.063340840              -0.146446229               0.000000000               0.075784784              -0.170016481               0.000000000               0.088228728              -0.193586732               0.000000000               0.100672672              -0.217156983               0.000000000               0.113116616              -0.240727235               0.000000000               0.125560560              -0.264297486               0.000000000               0.138004504              -0.287867738               0.000000000               0.150448448              -0.311437989               0.000000000               0.162892392              -0.335008240               0.000000000               0.175336336              -0.358578492               0.000000000               0.187780280              -0.382148743               0.000000000               0.200224224              -0.405718994               0.000000000               0.212668168              -0.429289246               0.000000000               0.225112112              -0.452859497               0.000000000               0.237556056              -0.476429749               0.000000000               0.250000000              -0.500000000               0.000000000               0.038607862              -0.127273065               0.000000000               0.047913621              -0.150568498               0.000000000               0.057219379              -0.173863932               0.000000000               0.066525138              -0.197159365               0.000000000               0.075830897              -0.220454798               0.000000000               0.085136655              -0.243750232               0.000000000               0.094442414              -0.267045665               0.000000000               0.103748172              -0.290341099               0.000000000               0.113053931              -0.313636532               0.000000000               0.122359690              -0.336931966               0.000000000               0.131665448              -0.360227399               0.000000000               0.140971207              -0.383522833               0.000000000               0.150276966              -0.406818266               0.000000000               0.159582724              -0.430113700               0.000000000               0.168888483              -0.453409133               0.000000000               0.178194241              -0.476704567               0.000000000               0.187500000              -0.500000000               0.000000000               0.025947013              -0.130444442               0.000000000               0.032137825              -0.153541665               0.000000000               0.038328636              -0.176638887               0.000000000               0.044519448              -0.199736109               0.000000000               0.050710260              -0.222833332               0.000000000               0.056901071              -0.245930554               0.000000000               0.063091883              -0.269027776               0.000000000               0.069282695              -0.292124999               0.000000000               0.075473506              -0.315222221               0.000000000               0.081664318              -0.338319444               0.000000000               0.087855130              -0.361416666               0.000000000               0.094045942              -0.384513888               0.000000000               0.100236753              -0.407611111               0.000000000               0.106427565              -0.430708333               0.000000000               0.112618377              -0.453805555               0.000000000               0.118809188              -0.476902778               0.000000000               0.125000000              -0.500000000               0.000000000               0.013036280              -0.132359569               0.000000000               0.016127762              -0.155337096               0.000000000               0.019219245              -0.178314623               0.000000000               0.022310727              -0.201292150               0.000000000               0.025402210              -0.224269676               0.000000000               0.028493692              -0.247247203               0.000000000               0.031585175              -0.270224730               0.000000000               0.034676657              -0.293202257               0.000000000               0.037768140              -0.316179784               0.000000000               0.040859622              -0.339157311               0.000000000               0.043951105              -0.362134838               0.000000000               0.047042587              -0.385112365               0.000000000               0.050134070              -0.408089892               0.000000000               0.053225552              -0.431067419               0.000000000               0.056317035              -0.454044946               0.000000000               0.059408517              -0.477022473               0.000000000               0.062500000              -0.500000000               0.000000000               0.000000000              -0.133000000               0.000000000               0.000000000              -0.155937500               0.000000000               0.000000000              -0.178875000               0.000000000               0.000000000              -0.201812500               0.000000000               0.000000000              -0.224750000               0.000000000               0.000000000              -0.247687500               0.000000000               0.000000000              -0.270625000               0.000000000               0.000000000              -0.293562500               0.000000000               0.000000000              -0.316500000               0.000000000               0.000000000              -0.339437500               0.000000000               0.000000000              -0.362375000               0.000000000               0.000000000              -0.385312500               0.000000000               0.000000000              -0.408250000               0.000000000               0.000000000              -0.431187500               0.000000000               0.000000000              -0.454125000               0.000000000               0.000000000              -0.477062500               0.000000000               0.000000000              -0.500000000               0.000000000              -0.133000000               0.000000000               0.000000000              -0.155937500               0.000000000               0.000000000              -0.178875000               0.000000000               0.000000000              -0.201812500               0.000000000               0.000000000              -0.224750000               0.000000000               0.000000000              -0.247687500               0.000000000               0.000000000              -0.270625000               0.000000000               0.000000000              -0.293562500               0.000000000               0.000000000              -0.316500000               0.000000000               0.000000000              -0.339437500               0.000000000               0.000000000              -0.362375000               0.000000000               0.000000000              -0.385312500               0.000000000               0.000000000              -0.408250000               0.000000000               0.000000000              -0.431187500               0.000000000               0.000000000              -0.454125000               0.000000000               0.000000000              -0.477062500               0.000000000               0.000000000              -0.500000000               0.000000000               0.000000000              -0.132359569              -0.013036280               0.000000000              -0.155337096              -0.016127762               0.000000000              -0.178314623              -0.019219245               0.000000000              -0.201292150              -0.022310727               0.000000000              -0.224269676              -0.025402210               0.000000000              -0.247247203              -0.028493692               0.000000000              -0.270224730              -0.031585175               0.000000000              -0.293202257              -0.034676657               0.000000000              -0.316179784              -0.037768140               0.000000000              -0.339157311              -0.040859622               0.000000000              -0.362134838              -0.043951105               0.000000000              -0.385112365              -0.047042587               0.000000000              -0.408089892              -0.050134070               0.000000000              -0.431067419              -0.053225552               0.000000000              -0.454044946              -0.056317035               0.000000000              -0.477022473              -0.059408517               0.000000000              -0.500000000              -0.062500000               0.000000000              -0.130444442              -0.025947013               0.000000000              -0.153541665              -0.032137825               0.000000000              -0.176638887              -0.038328636               0.000000000              -0.199736109              -0.044519448               0.000000000              -0.222833332              -0.050710260               0.000000000              -0.245930554              -0.056901071               0.000000000              -0.269027776              -0.063091883               0.000000000              -0.292124999              -0.069282695               0.000000000              -0.315222221              -0.075473506               0.000000000              -0.338319444              -0.081664318               0.000000000              -0.361416666              -0.087855130               0.000000000              -0.384513888              -0.094045942               0.000000000              -0.407611111              -0.100236753               0.000000000              -0.430708333              -0.106427565               0.000000000              -0.453805555              -0.112618377               0.000000000              -0.476902778              -0.118809188               0.000000000              -0.500000000              -0.125000000               0.000000000              -0.127273065              -0.038607862               0.000000000              -0.150568498              -0.047913621               0.000000000              -0.173863932              -0.057219379               0.000000000              -0.197159365              -0.066525138               0.000000000              -0.220454798              -0.075830897               0.000000000              -0.243750232              -0.085136655               0.000000000              -0.267045665              -0.094442414               0.000000000              -0.290341099              -0.103748172               0.000000000              -0.313636532              -0.113053931               0.000000000              -0.336931966              -0.122359690               0.000000000              -0.360227399              -0.131665448               0.000000000              -0.383522833              -0.140971207               0.000000000              -0.406818266              -0.150276966               0.000000000              -0.430113700              -0.159582724               0.000000000              -0.453409133              -0.168888483               0.000000000              -0.476704567              -0.178194241               0.000000000              -0.500000000              -0.187500000               0.000000000              -0.122875978              -0.050896897               0.000000000              -0.146446229              -0.063340840               0.000000000              -0.170016481              -0.075784784               0.000000000              -0.193586732              -0.088228728               0.000000000              -0.217156983              -0.100672672               0.000000000              -0.240727235              -0.113116616               0.000000000              -0.264297486              -0.125560560               0.000000000              -0.287867738              -0.138004504               0.000000000              -0.311437989              -0.150448448               0.000000000              -0.335008240              -0.162892392               0.000000000              -0.358578492              -0.175336336               0.000000000              -0.382148743              -0.187780280               0.000000000              -0.405718994              -0.200224224               0.000000000              -0.429289246              -0.212668168               0.000000000              -0.452859497              -0.225112112               0.000000000              -0.476429749              -0.237556056               0.000000000              -0.500000000              -0.250000000               0.000000000              -0.117295528              -0.062695766               0.000000000              -0.141214558              -0.078308531               0.000000000              -0.165133587              -0.093921295               0.000000000              -0.189052617              -0.109534060               0.000000000              -0.212971646              -0.125146824               0.000000000              -0.236890676              -0.140759589               0.000000000              -0.260809705              -0.156372354               0.000000000              -0.284728735              -0.171985118               0.000000000              -0.308647764              -0.187597883               0.000000000              -0.332566794              -0.203210648               0.000000000              -0.356485823              -0.218823412               0.000000000              -0.380404853              -0.234436177               0.000000000              -0.404323882              -0.250048941               0.000000000              -0.428242912              -0.265661706               0.000000000              -0.452161941              -0.281274471               0.000000000              -0.476080971              -0.296887235               0.000000000              -0.500000000              -0.312500000               0.000000000              -0.110585458              -0.073890841               0.000000000              -0.134923867              -0.092710163               0.000000000              -0.159262276              -0.111529486               0.000000000              -0.183600685              -0.130348808               0.000000000              -0.207939094              -0.149168131               0.000000000              -0.232277503              -0.167987453               0.000000000              -0.256615912              -0.186806776               0.000000000              -0.280954320              -0.205626098               0.000000000              -0.305292729              -0.224445420               0.000000000              -0.329631138              -0.243264743               0.000000000              -0.353969547              -0.262084065               0.000000000              -0.378307956              -0.280903388               0.000000000              -0.402646365              -0.299722710               0.000000000              -0.426984773              -0.318542033               0.000000000              -0.451323182              -0.337361355               0.000000000              -0.475661591              -0.356180678               0.000000000              -0.500000000              -0.375000000               0.000000000              -0.102810390              -0.084374307               0.000000000              -0.127634741              -0.106444663               0.000000000              -0.152459092              -0.128515018               0.000000000              -0.177283442              -0.150585374               0.000000000              -0.202107793              -0.172655730               0.000000000              -0.226932143              -0.194726086               0.000000000              -0.251756494              -0.216796442               0.000000000              -0.276580845              -0.238866798               0.000000000              -0.301405195              -0.260937153               0.000000000              -0.326229546              -0.283007509               0.000000000              -0.351053896              -0.305077865               0.000000000              -0.375878247              -0.327148221               0.000000000              -0.400702598              -0.349218577               0.000000000              -0.425526948              -0.371288933               0.000000000              -0.450351299              -0.393359288               0.000000000              -0.475175649              -0.415429644               0.000000000              -0.500000000              -0.437500000               0.000000000              -0.094045202              -0.094045202               0.000000000              -0.119417377              -0.119417377               0.000000000              -0.144789552              -0.144789552               0.000000000              -0.170161727              -0.170161727               0.000000000              -0.195533901              -0.195533901               0.000000000              -0.220906076              -0.220906076               0.000000000              -0.246278251              -0.246278251               0.000000000              -0.271650426              -0.271650426               0.000000000              -0.297022601              -0.297022601               0.000000000              -0.322394776              -0.322394776               0.000000000              -0.347766951              -0.347766951               0.000000000              -0.373139126              -0.373139126               0.000000000              -0.398511300              -0.398511300               0.000000000              -0.423883475              -0.423883475               0.000000000              -0.449255650              -0.449255650               0.000000000              -0.474627825              -0.474627825               0.000000000              -0.500000000              -0.500000000               0.000000000              -0.084374307              -0.102810390               0.000000000              -0.106444663              -0.127634741               0.000000000              -0.128515018              -0.152459092               0.000000000              -0.150585374              -0.177283442               0.000000000              -0.172655730              -0.202107793               0.000000000              -0.194726086              -0.226932143               0.000000000              -0.216796442              -0.251756494               0.000000000              -0.238866798              -0.276580845               0.000000000              -0.260937153              -0.301405195               0.000000000              -0.283007509              -0.326229546               0.000000000              -0.305077865              -0.351053896               0.000000000              -0.327148221              -0.375878247               0.000000000              -0.349218577              -0.400702598               0.000000000              -0.371288933              -0.425526948               0.000000000              -0.393359288              -0.450351299               0.000000000              -0.415429644              -0.475175649               0.000000000              -0.437500000              -0.500000000               0.000000000              -0.073890841              -0.110585458               0.000000000              -0.092710163              -0.134923867               0.000000000              -0.111529486              -0.159262276               0.000000000              -0.130348808              -0.183600685               0.000000000              -0.149168131              -0.207939094               0.000000000              -0.167987453              -0.232277503               0.000000000              -0.186806776              -0.256615912               0.000000000              -0.205626098              -0.280954320               0.000000000              -0.224445420              -0.305292729               0.000000000              -0.243264743              -0.329631138               0.000000000              -0.262084065              -0.353969547               0.000000000              -0.280903388              -0.378307956               0.000000000              -0.299722710              -0.402646365               0.000000000              -0.318542033              -0.426984773               0.000000000              -0.337361355              -0.451323182               0.000000000              -0.356180678              -0.475661591               0.000000000              -0.375000000              -0.500000000               0.000000000              -0.062695766              -0.117295528               0.000000000              -0.078308531              -0.141214558               0.000000000              -0.093921295              -0.165133587               0.000000000              -0.109534060              -0.189052617               0.000000000              -0.125146824              -0.212971646               0.000000000              -0.140759589              -0.236890676               0.000000000              -0.156372354              -0.260809705               0.000000000              -0.171985118              -0.284728735               0.000000000              -0.187597883              -0.308647764               0.000000000              -0.203210648              -0.332566794               0.000000000              -0.218823412              -0.356485823               0.000000000              -0.234436177              -0.380404853               0.000000000              -0.250048941              -0.404323882               0.000000000              -0.265661706              -0.428242912               0.000000000              -0.281274471              -0.452161941               0.000000000              -0.296887235              -0.476080971               0.000000000              -0.312500000              -0.500000000               0.000000000              -0.050896897              -0.122875978               0.000000000              -0.063340840              -0.146446229               0.000000000              -0.075784784              -0.170016481               0.000000000              -0.088228728              -0.193586732               0.000000000              -0.100672672              -0.217156983               0.000000000              -0.113116616              -0.240727235               0.000000000              -0.125560560              -0.264297486               0.000000000              -0.138004504              -0.287867738               0.000000000              -0.150448448              -0.311437989               0.000000000              -0.162892392              -0.335008240               0.000000000              -0.175336336              -0.358578492               0.000000000              -0.187780280              -0.382148743               0.000000000              -0.200224224              -0.405718994               0.000000000              -0.212668168              -0.429289246               0.000000000              -0.225112112              -0.452859497               0.000000000              -0.237556056              -0.476429749               0.000000000              -0.250000000              -0.500000000               0.000000000              -0.038607862              -0.127273065               0.000000000              -0.047913621              -0.150568498               0.000000000              -0.057219379              -0.173863932               0.000000000              -0.066525138              -0.197159365               0.000000000              -0.075830897              -0.220454798               0.000000000              -0.085136655              -0.243750232               0.000000000              -0.094442414              -0.267045665               0.000000000              -0.103748172              -0.290341099               0.000000000              -0.113053931              -0.313636532               0.000000000              -0.122359690              -0.336931966               0.000000000              -0.131665448              -0.360227399               0.000000000              -0.140971207              -0.383522833               0.000000000              -0.150276966              -0.406818266               0.000000000              -0.159582724              -0.430113700               0.000000000              -0.168888483              -0.453409133               0.000000000              -0.178194241              -0.476704567               0.000000000              -0.187500000              -0.500000000               0.000000000              -0.025947013              -0.130444442               0.000000000              -0.032137825              -0.153541665               0.000000000              -0.038328636              -0.176638887               0.000000000              -0.044519448              -0.199736109               0.000000000              -0.050710260              -0.222833332               0.000000000              -0.056901071              -0.245930554               0.000000000              -0.063091883              -0.269027776               0.000000000              -0.069282695              -0.292124999               0.000000000              -0.075473506              -0.315222221               0.000000000              -0.081664318              -0.338319444               0.000000000              -0.087855130              -0.361416666               0.000000000              -0.094045942              -0.384513888               0.000000000              -0.100236753              -0.407611111               0.000000000              -0.106427565              -0.430708333               0.000000000              -0.112618377              -0.453805555               0.000000000              -0.118809188              -0.476902778               0.000000000              -0.125000000              -0.500000000               0.000000000              -0.013036280              -0.132359569               0.000000000              -0.016127762              -0.155337096               0.000000000              -0.019219245              -0.178314623               0.000000000              -0.022310727              -0.201292150               0.000000000              -0.025402210              -0.224269676               0.000000000              -0.028493692              -0.247247203               0.000000000              -0.031585175              -0.270224730               0.000000000              -0.034676657              -0.293202257               0.000000000              -0.037768140              -0.316179784               0.000000000              -0.040859622              -0.339157311               0.000000000              -0.043951105              -0.362134838               0.000000000              -0.047042587              -0.385112365               0.000000000              -0.050134070              -0.408089892               0.000000000              -0.053225552              -0.431067419               0.000000000              -0.056317035              -0.454044946               0.000000000              -0.059408517              -0.477022473               0.000000000              -0.062500000              -0.500000000               0.000000000               0.000000000              -0.133000000               0.000000000               0.000000000              -0.155937500               0.000000000               0.000000000              -0.178875000               0.000000000               0.000000000              -0.201812500               0.000000000               0.000000000              -0.224750000               0.000000000               0.000000000              -0.247687500               0.000000000               0.000000000              -0.270625000               0.000000000               0.000000000              -0.293562500               0.000000000               0.000000000              -0.316500000               0.000000000               0.000000000              -0.339437500               0.000000000               0.000000000              -0.362375000               0.000000000               0.000000000              -0.385312500               0.000000000               0.000000000              -0.408250000               0.000000000               0.000000000              -0.431187500               0.000000000               0.000000000              -0.454125000               0.000000000               0.000000000              -0.477062500               0.000000000               0.000000000              -0.500000000               0.000000000              -0.133000000               0.000000000               0.000000000              -0.155937500               0.000000000               0.000000000              -0.178875000               0.000000000               0.000000000              -0.201812500               0.000000000               0.000000000              -0.224750000               0.000000000               0.000000000              -0.247687500               0.000000000               0.000000000              -0.270625000               0.000000000               0.000000000              -0.293562500               0.000000000               0.000000000              -0.316500000               0.000000000               0.000000000              -0.339437500               0.000000000               0.000000000              -0.362375000               0.000000000               0.000000000              -0.385312500               0.000000000               0.000000000              -0.408250000               0.000000000               0.000000000              -0.431187500               0.000000000               0.000000000              -0.454125000               0.000000000               0.000000000              -0.477062500               0.000000000               0.000000000              -0.500000000               0.000000000               0.000000000              -0.132359569               0.013036280               0.000000000              -0.155337096               0.016127762               0.000000000              -0.178314623               0.019219245               0.000000000              -0.201292150               0.022310727               0.000000000              -0.224269676               0.025402210               0.000000000              -0.247247203               0.028493692               0.000000000              -0.270224730               0.031585175               0.000000000              -0.293202257               0.034676657               0.000000000              -0.316179784               0.037768140               0.000000000              -0.339157311               0.040859622               0.000000000              -0.362134838               0.043951105               0.000000000              -0.385112365               0.047042587               0.000000000              -0.408089892               0.050134070               0.000000000              -0.431067419               0.053225552               0.000000000              -0.454044946               0.056317035               0.000000000              -0.477022473               0.059408517               0.000000000              -0.500000000               0.062500000               0.000000000              -0.130444442               0.025947013               0.000000000              -0.153541665               0.032137825               0.000000000              -0.176638887               0.038328636               0.000000000              -0.199736109               0.044519448               0.000000000              -0.222833332               0.050710260               0.000000000              -0.245930554               0.056901071               0.000000000              -0.269027776               0.063091883               0.000000000              -0.292124999               0.069282695               0.000000000              -0.315222221               0.075473506               0.000000000              -0.338319444               0.081664318               0.000000000              -0.361416666               0.087855130               0.000000000              -0.384513888               0.094045942               0.000000000              -0.407611111               0.100236753               0.000000000              -0.430708333               0.106427565               0.000000000              -0.453805555               0.112618377               0.000000000              -0.476902778               0.118809188               0.000000000              -0.500000000               0.125000000               0.000000000              -0.127273065               0.038607862               0.000000000              -0.150568498               0.047913621               0.000000000              -0.173863932               0.057219379               0.000000000              -0.197159365               0.066525138               0.000000000              -0.220454798               0.075830897               0.000000000              -0.243750232               0.085136655               0.000000000              -0.267045665               0.094442414               0.000000000              -0.290341099               0.103748172               0.000000000              -0.313636532               0.113053931               0.000000000              -0.336931966               0.122359690               0.000000000              -0.360227399               0.131665448               0.000000000              -0.383522833               0.140971207               0.000000000              -0.406818266               0.150276966               0.000000000              -0.430113700               0.159582724               0.000000000              -0.453409133               0.168888483               0.000000000              -0.476704567               0.178194241               0.000000000              -0.500000000               0.187500000               0.000000000              -0.122875978               0.050896897               0.000000000              -0.146446229               0.063340840               0.000000000              -0.170016481               0.075784784               0.000000000              -0.193586732               0.088228728               0.000000000              -0.217156983               0.100672672               0.000000000              -0.240727235               0.113116616               0.000000000              -0.264297486               0.125560560               0.000000000              -0.287867738               0.138004504               0.000000000              -0.311437989               0.150448448               0.000000000              -0.335008240               0.162892392               0.000000000              -0.358578492               0.175336336               0.000000000              -0.382148743               0.187780280               0.000000000              -0.405718994               0.200224224               0.000000000              -0.429289246               0.212668168               0.000000000              -0.452859497               0.225112112               0.000000000              -0.476429749               0.237556056               0.000000000              -0.500000000               0.250000000               0.000000000              -0.117295528               0.062695766               0.000000000              -0.141214558               0.078308531               0.000000000              -0.165133587               0.093921295               0.000000000              -0.189052617               0.109534060               0.000000000              -0.212971646               0.125146824               0.000000000              -0.236890676               0.140759589               0.000000000              -0.260809705               0.156372354               0.000000000              -0.284728735               0.171985118               0.000000000              -0.308647764               0.187597883               0.000000000              -0.332566794               0.203210648               0.000000000              -0.356485823               0.218823412               0.000000000              -0.380404853               0.234436177               0.000000000              -0.404323882               0.250048941               0.000000000              -0.428242912               0.265661706               0.000000000              -0.452161941               0.281274471               0.000000000              -0.476080971               0.296887235               0.000000000              -0.500000000               0.312500000               0.000000000              -0.110585458               0.073890841               0.000000000              -0.134923867               0.092710163               0.000000000              -0.159262276               0.111529486               0.000000000              -0.183600685               0.130348808               0.000000000              -0.207939094               0.149168131               0.000000000              -0.232277503               0.167987453               0.000000000              -0.256615912               0.186806776               0.000000000              -0.280954320               0.205626098               0.000000000              -0.305292729               0.224445420               0.000000000              -0.329631138               0.243264743               0.000000000              -0.353969547               0.262084065               0.000000000              -0.378307956               0.280903388               0.000000000              -0.402646365               0.299722710               0.000000000              -0.426984773               0.318542033               0.000000000              -0.451323182               0.337361355               0.000000000              -0.475661591               0.356180678               0.000000000              -0.500000000               0.375000000               0.000000000              -0.102810390               0.084374307               0.000000000              -0.127634741               0.106444663               0.000000000              -0.152459092               0.128515018               0.000000000              -0.177283442               0.150585374               0.000000000              -0.202107793               0.172655730               0.000000000              -0.226932143               0.194726086               0.000000000              -0.251756494               0.216796442               0.000000000              -0.276580845               0.238866798               0.000000000              -0.301405195               0.260937153               0.000000000              -0.326229546               0.283007509               0.000000000              -0.351053896               0.305077865               0.000000000              -0.375878247               0.327148221               0.000000000              -0.400702598               0.349218577               0.000000000              -0.425526948               0.371288933               0.000000000              -0.450351299               0.393359288               0.000000000              -0.475175649               0.415429644               0.000000000              -0.500000000               0.437500000               0.000000000              -0.094045202               0.094045202               0.000000000              -0.119417377               0.119417377               0.000000000              -0.144789552               0.144789552               0.000000000              -0.170161727               0.170161727               0.000000000              -0.195533901               0.195533901               0.000000000              -0.220906076               0.220906076               0.000000000              -0.246278251               0.246278251               0.000000000              -0.271650426               0.271650426               0.000000000              -0.297022601               0.297022601               0.000000000              -0.322394776               0.322394776               0.000000000              -0.347766951               0.347766951               0.000000000              -0.373139126               0.373139126               0.000000000              -0.398511300               0.398511300               0.000000000              -0.423883475               0.423883475               0.000000000              -0.449255650               0.449255650               0.000000000              -0.474627825               0.474627825               0.000000000              -0.500000000               0.500000000               0.000000000              -0.084374307               0.102810390               0.000000000              -0.106444663               0.127634741               0.000000000              -0.128515018               0.152459092               0.000000000              -0.150585374               0.177283442               0.000000000              -0.172655730               0.202107793               0.000000000              -0.194726086               0.226932143               0.000000000              -0.216796442               0.251756494               0.000000000              -0.238866798               0.276580845               0.000000000              -0.260937153               0.301405195               0.000000000              -0.283007509               0.326229546               0.000000000              -0.305077865               0.351053896               0.000000000              -0.327148221               0.375878247               0.000000000              -0.349218577               0.400702598               0.000000000              -0.371288933               0.425526948               0.000000000              -0.393359288               0.450351299               0.000000000              -0.415429644               0.475175649               0.000000000              -0.437500000               0.500000000               0.000000000              -0.073890841               0.110585458               0.000000000              -0.092710163               0.134923867               0.000000000              -0.111529486               0.159262276               0.000000000              -0.130348808               0.183600685               0.000000000              -0.149168131               0.207939094               0.000000000              -0.167987453               0.232277503               0.000000000              -0.186806776               0.256615912               0.000000000              -0.205626098               0.280954320               0.000000000              -0.224445420               0.305292729               0.000000000              -0.243264743               0.329631138               0.000000000              -0.262084065               0.353969547               0.000000000              -0.280903388               0.378307956               0.000000000              -0.299722710               0.402646365               0.000000000              -0.318542033               0.426984773               0.000000000              -0.337361355               0.451323182               0.000000000              -0.356180678               0.475661591               0.000000000              -0.375000000               0.500000000               0.000000000              -0.062695766               0.117295528               0.000000000              -0.078308531               0.141214558               0.000000000              -0.093921295               0.165133587               0.000000000              -0.109534060               0.189052617               0.000000000              -0.125146824               0.212971646               0.000000000              -0.140759589               0.236890676               0.000000000              -0.156372354               0.260809705               0.000000000              -0.171985118               0.284728735               0.000000000              -0.187597883               0.308647764               0.000000000              -0.203210648               0.332566794               0.000000000              -0.218823412               0.356485823               0.000000000              -0.234436177               0.380404853               0.000000000              -0.250048941               0.404323882               0.000000000              -0.265661706               0.428242912               0.000000000              -0.281274471               0.452161941               0.000000000              -0.296887235               0.476080971               0.000000000              -0.312500000               0.500000000               0.000000000              -0.050896897               0.122875978               0.000000000              -0.063340840               0.146446229               0.000000000              -0.075784784               0.170016481               0.000000000              -0.088228728               0.193586732               0.000000000              -0.100672672               0.217156983               0.000000000              -0.113116616               0.240727235               0.000000000              -0.125560560               0.264297486               0.000000000              -0.138004504               0.287867738               0.000000000              -0.150448448               0.311437989               0.000000000              -0.162892392               0.335008240               0.000000000              -0.175336336               0.358578492               0.000000000              -0.187780280               0.382148743               0.000000000              -0.200224224               0.405718994               0.000000000              -0.212668168               0.429289246               0.000000000              -0.225112112               0.452859497               0.000000000              -0.237556056               0.476429749               0.000000000              -0.250000000               0.500000000               0.000000000              -0.038607862               0.127273065               0.000000000              -0.047913621               0.150568498               0.000000000              -0.057219379               0.173863932               0.000000000              -0.066525138               0.197159365               0.000000000              -0.075830897               0.220454798               0.000000000              -0.085136655               0.243750232               0.000000000              -0.094442414               0.267045665               0.000000000              -0.103748172               0.290341099               0.000000000              -0.113053931               0.313636532               0.000000000              -0.122359690               0.336931966               0.000000000              -0.131665448               0.360227399               0.000000000              -0.140971207               0.383522833               0.000000000              -0.150276966               0.406818266               0.000000000              -0.159582724               0.430113700               0.000000000              -0.168888483               0.453409133               0.000000000              -0.178194241               0.476704567               0.000000000              -0.187500000               0.500000000               0.000000000              -0.025947013               0.130444442               0.000000000              -0.032137825               0.153541665               0.000000000              -0.038328636               0.176638887               0.000000000              -0.044519448               0.199736109               0.000000000              -0.050710260               0.222833332               0.000000000              -0.056901071               0.245930554               0.000000000              -0.063091883               0.269027776               0.000000000              -0.069282695               0.292124999               0.000000000              -0.075473506               0.315222221               0.000000000              -0.081664318               0.338319444               0.000000000              -0.087855130               0.361416666               0.000000000              -0.094045942               0.384513888               0.000000000              -0.100236753               0.407611111               0.000000000              -0.106427565               0.430708333               0.000000000              -0.112618377               0.453805555               0.000000000              -0.118809188               0.476902778               0.000000000              -0.125000000               0.500000000               0.000000000              -0.013036280               0.132359569               0.000000000              -0.016127762               0.155337096               0.000000000              -0.019219245               0.178314623               0.000000000              -0.022310727               0.201292150               0.000000000              -0.025402210               0.224269676               0.000000000              -0.028493692               0.247247203               0.000000000              -0.031585175               0.270224730               0.000000000              -0.034676657               0.293202257               0.000000000              -0.037768140               0.316179784               0.000000000              -0.040859622               0.339157311               0.000000000              -0.043951105               0.362134838               0.000000000              -0.047042587               0.385112365               0.000000000              -0.050134070               0.408089892               0.000000000              -0.053225552               0.431067419               0.000000000              -0.056317035               0.454044946               0.000000000              -0.059408517               0.477022473               0.000000000              -0.062500000               0.500000000               0.000000000               0.000000000               0.133000000               0.000000000               0.000000000               0.155937500               0.000000000               0.000000000               0.178875000               0.000000000               0.000000000               0.201812500               0.000000000               0.000000000               0.224750000               0.000000000               0.000000000               0.247687500               0.000000000               0.000000000               0.270625000               0.000000000               0.000000000               0.293562500               0.000000000               0.000000000               0.316500000               0.000000000               0.000000000               0.339437500               0.000000000               0.000000000               0.362375000               0.000000000               0.000000000               0.385312500               0.000000000               0.000000000               0.408250000               0.000000000               0.000000000               0.431187500               0.000000000               0.000000000               0.454125000               0.000000000               0.000000000               0.477062500               0.000000000               0.000000000               0.500000000               0.000000000 </DataArray>
</Points>
<Cells>
<DataArray type="Int32"                                    Name="connectivity"                                                      NumberOfComponents=" 1" format="ascii">
         0          1         18         17          1          2         19         18          2          3         20         19          3          4         21         20          4          5         22         21          5          6         23         22          6          7         24         23          7          8         25         24          8          9         26         25          9         10         27         26         10         11         28         27         11         12         29         28         12         13         30         29         13         14         31         30         14         15         32         31         15         16         33         32         17         18         35         34         18         19         36         35         19         20         37         36         20         21         38         37         21         22         39         38         22         23         40         39         23         24         41         40         24         25         42         41         25         26         43         42         26         27         44         43         27         28         45         44         28         29         46         45         29         30         47         46         30         31         48         47         31         32         49         48         32         33         50         49         34         35         52         51         35         36         53         52         36         37         54         53         37         38         55         54         38         39         56         55         39         40         57         56         40         41         58         57         41         42         59         58         42         43         60         59         43         44         61         60         44         45         62         61         45         46         63         62         46         47         64         63         47         48         65         64         48         49         66         65         49         50         67         66         51         52         69         68         52         53         70         69         53         54         71         70         54         55         72         71         55         56         73         72         56         57         74         73         57         58         75         74         58         59         76         75         59         60         77         76         60         61         78         77         61         62         79         78         62         63         80         79         63         64         81         80         64         65         82         81         65         66         83         82         66         67         84         83         68         69         86         85         69         70         87         86         70         71         88         87         71         72         89         88         72         73         90         89         73         74         91         90         74         75         92         91         75         76         93         92         76         77         94         93         77         78         95         94         78         79         96         95         79         80         97         96         80         81         98         97         81         82         99         98         82         83        100         99         83         84        101        100         85         86        103        102         86         87        104        103         87         88        105        104         88         89        106        105         89         90        107        106         90         91        108        107         91         92        109        108         92         93        110        109         93         94        111        110         94         95        112        111         95         96        113        112         96         97        114        113         97         98        115        114         98         99        116        115         99        100        117        116        100        101        118        117        102        103        120        119        103        104        121        120        104        105        122        121        105        106        123        122        106        107        124        123        107        108        125        124        108        109        126        125        109        110        127        126        110        111        128        127        111        112        129        128        112        113        130        129        113        114        131        130        114        115        132        131        115        116        133        132        116        117        134        133        117        118        135        134        119        120        137        136        120        121        138        137        121        122        139        138        122        123        140        139        123        124        141        140        124        125        142        141        125        126        143        142        126        127        144        143        127        128        145        144        128        129        146        145        129        130        147        146        130        131        148        147        131        132        149        148        132        133        150        149        133        134        151        150        134        135        152        151        136        137        154        153        137        138        155        154        138        139        156        155        139        140        157        156        140        141        158        157        141        142        159        158        142        143        160        159        143        144        161        160        144        145        162        161        145        146        163        162        146        147        164        163        147        148        165        164        148        149        166        165        149        150        167        166        150        151        168        167        151        152        169        168        153        154        171        170        154        155        172        171        155        156        173        172        156        157        174        173        157        158        175        174        158        159        176        175        159        160        177        176        160        161        178        177        161        162        179        178        162        163        180        179        163        164        181        180        164        165        182        181        165        166        183        182        166        167        184        183        167        168        185        184        168        169        186        185        170        171        188        187        171        172        189        188        172        173        190        189        173        174        191        190        174        175        192        191        175        176        193        192        176        177        194        193        177        178        195        194        178        179        196        195        179        180        197        196        180        181        198        197        181        182        199        198        182        183        200        199        183        184        201        200        184        185        202        201        185        186        203        202        187        188        205        204        188        189        206        205        189        190        207        206        190        191        208        207        191        192        209        208        192        193        210        209        193        194        211        210        194        195        212        211        195        196        213        212        196        197        214        213        197        198        215        214        198        199        216        215        199        200        217        216        200        201        218        217        201        202        219        218        202        203        220        219        204        205        222        221        205        206        223        222        206        207        224        223        207        208        225        224        208        209        226        225        209        210        227        226        210        211        228        227        211        212        229        228        212        213        230        229        213        214        231        230        214        215        232        231        215        216        233        232        216        217        234        233        217        218        235        234        218        219        236        235        219        220        237        236        221        222        239        238        222        223        240        239        223        224        241        240        224        225        242        241        225        226        243        242        226        227        244        243        227        228        245        244        228        229        246        245        229        230        247        246        230        231        248        247        231        232        249        248        232        233        250        249        233        234        251        250        234        235        252        251        235        236        253        252        236        237        254        253        238        239        256        255        239        240        257        256        240        241        258        257        241        242        259        258        242        243        260        259        243        244        261        260        244        245        262        261        245        246        263        262        246        247        264        263        247        248        265        264        248        249        266        265        249        250        267        266        250        251        268        267        251        252        269        268        252        253        270        269        253        254        271        270        255        256        273        272        256        257        274        273        257        258        275        274        258        259        276        275        259        260        277        276        260        261        278        277        261        262        279        278        262        263        280        279        263        264        281        280        264        265        282        281        265        266        283        282        266        267        284        283        267        268        285        284        268        269        286        285        269        270        287        286        270        271        288        287        306        307          1          0        307        308          2          1        308        309          3          2        309        310          4          3        310        311          5          4        311        312          6          5        312        313          7          6        313        314          8          7        314        315          9          8        315        316         10          9        316        317         11         10        317        318         12         11        318        319         13         12        319        320         14         13        320        321         15         14        321        322         16         15        323        324        307        306        324        325        308        307        325        326        309        308        326        327        310        309        327        328        311        310        328        329        312        311        329        330        313        312        330        331        314        313        331        332        315        314        332        333        316        315        333        334        317        316        334        335        318        317        335        336        319        318        336        337        320        319        337        338        321        320        338        339        322        321        340        341        324        323        341        342        325        324        342        343        326        325        343        344        327        326        344        345        328        327        345        346        329        328        346        347        330        329        347        348        331        330        348        349        332        331        349        350        333        332        350        351        334        333        351        352        335        334        352        353        336        335        353        354        337        336        354        355        338        337        355        356        339        338        357        358        341        340        358        359        342        341        359        360        343        342        360        361        344        343        361        362        345        344        362        363        346        345        363        364        347        346        364        365        348        347        365        366        349        348        366        367        350        349        367        368        351        350        368        369        352        351        369        370        353        352        370        371        354        353        371        372        355        354        372        373        356        355        374        375        358        357        375        376        359        358        376        377        360        359        377        378        361        360        378        379        362        361        379        380        363        362        380        381        364        363        381        382        365        364        382        383        366        365        383        384        367        366        384        385        368        367        385        386        369        368        386        387        370        369        387        388        371        370        388        389        372        371        389        390        373        372        391        392        375        374        392        393        376        375        393        394        377        376        394        395        378        377        395        396        379        378        396        397        380        379        397        398        381        380        398        399        382        381        399        400        383        382        400        401        384        383        401        402        385        384        402        403        386        385        403        404        387        386        404        405        388        387        405        406        389        388        406        407        390        389        408        409        392        391        409        410        393        392        410        411        394        393        411        412        395        394        412        413        396        395        413        414        397        396        414        415        398        397        415        416        399        398        416        417        400        399        417        418        401        400        418        419        402        401        419        420        403        402        420        421        404        403        421        422        405        404        422        423        406        405        423        424        407        406        425        426        409        408        426        427        410        409        427        428        411        410        428        429        412        411        429        430        413        412        430        431        414        413        431        432        415        414        432        433        416        415        433        434        417        416        434        435        418        417        435        436        419        418        436        437        420        419        437        438        421        420        438        439        422        421        439        440        423        422        440        441        424        423        442        443        426        425        443        444        427        426        444        445        428        427        445        446        429        428        446        447        430        429        447        448        431        430        448        449        432        431        449        450        433        432        450        451        434        433        451        452        435        434        452        453        436        435        453        454        437        436        454        455        438        437        455        456        439        438        456        457        440        439        457        458        441        440        459        460        443        442        460        461        444        443        461        462        445        444        462        463        446        445        463        464        447        446        464        465        448        447        465        466        449        448        466        467        450        449        467        468        451        450        468        469        452        451        469        470        453        452        470        471        454        453        471        472        455        454        472        473        456        455        473        474        457        456        474        475        458        457        476        477        460        459        477        478        461        460        478        479        462        461        479        480        463        462        480        481        464        463        481        482        465        464        482        483        466        465        483        484        467        466        484        485        468        467        485        486        469        468        486        487        470        469        487        488        471        470        488        489        472        471        489        490        473        472        490        491        474        473        491        492        475        474        493        494        477        476        494        495        478        477        495        496        479        478        496        497        480        479        497        498        481        480        498        499        482        481        499        500        483        482        500        501        484        483        501        502        485        484        502        503        486        485        503        504        487        486        504        505        488        487        505        506        489        488        506        507        490        489        507        508        491        490        508        509        492        491        510        511        494        493        511        512        495        494        512        513        496        495        513        514        497        496        514        515        498        497        515        516        499        498        516        517        500        499        517        518        501        500        518        519        502        501        519        520        503        502        520        521        504        503        521        522        505        504        522        523        506        505        523        524        507        506        524        525        508        507        525        526        509        508        527        528        511        510        528        529        512        511        529        530        513        512        530        531        514        513        531        532        515        514        532        533        516        515        533        534        517        516        534        535        518        517        535        536        519        518        536        537        520        519        537        538        521        520        538        539        522        521        539        540        523        522        540        541        524        523        541        542        525        524        542        543        526        525        544        545        528        527        545        546        529        528        546        547        530        529        547        548        531        530        548        549        532        531        549        550        533        532        550        551        534        533        551        552        535        534        552        553        536        535        553        554        537        536        554        555        538        537        555        556        539        538        556        557        540        539        557        558        541        540        558        559        542        541        559        560        543        542        561        562        545        544        562        563        546        545        563        564        547        546        564        565        548        547        565        566        549        548        566        567        550        549        567        568        551        550        568        569        552        551        569        570        553        552        570        571        554        553        571        572        555        554        572        573        556        555        573        574        557        556        574        575        558        557        575        576        559        558        576        577        560        559        578        579        596        595        579        580        597        596        580        581        598        597        581        582        599        598        582        583        600        599        583        584        601        600        584        585        602        601        585        586        603        602        586        587        604        603        587        588        605        604        588        589        606        605        589        590        607        606        590        591        608        607        591        592        609        608        592        593        610        609        593        594        611        610        595        596        613        612        596        597        614        613        597        598        615        614        598        599        616        615        599        600        617        616        600        601        618        617        601        602        619        618        602        603        620        619        603        604        621        620        604        605        622        621        605        606        623        622        606        607        624        623        607        608        625        624        608        609        626        625        609        610        627        626        610        611        628        627        612        613        630        629        613        614        631        630        614        615        632        631        615        616        633        632        616        617        634        633        617        618        635        634        618        619        636        635        619        620        637        636        620        621        638        637        621        622        639        638        622        623        640        639        623        624        641        640        624        625        642        641        625        626        643        642        626        627        644        643        627        628        645        644        629        630        647        646        630        631        648        647        631        632        649        648        632        633        650        649        633        634        651        650        634        635        652        651        635        636        653        652        636        637        654        653        637        638        655        654        638        639        656        655        639        640        657        656        640        641        658        657        641        642        659        658        642        643        660        659        643        644        661        660        644        645        662        661        646        647        664        663        647        648        665        664        648        649        666        665        649        650        667        666        650        651        668        667        651        652        669        668        652        653        670        669        653        654        671        670        654        655        672        671        655        656        673        672        656        657        674        673        657        658        675        674        658        659        676        675        659        660        677        676        660        661        678        677        661        662        679        678        663        664        681        680        664        665        682        681        665        666        683        682        666        667        684        683        667        668        685        684        668        669        686        685        669        670        687        686        670        671        688        687        671        672        689        688        672        673        690        689        673        674        691        690        674        675        692        691        675        676        693        692        676        677        694        693        677        678        695        694        678        679        696        695        680        681        698        697        681        682        699        698        682        683        700        699        683        684        701        700        684        685        702        701        685        686        703        702        686        687        704        703        687        688        705        704        688        689        706        705        689        690        707        706        690        691        708        707        691        692        709        708        692        693        710        709        693        694        711        710        694        695        712        711        695        696        713        712        697        698        715        714        698        699        716        715        699        700        717        716        700        701        718        717        701        702        719        718        702        703        720        719        703        704        721        720        704        705        722        721        705        706        723        722        706        707        724        723        707        708        725        724        708        709        726        725        709        710        727        726        710        711        728        727        711        712        729        728        712        713        730        729        714        715        732        731        715        716        733        732        716        717        734        733        717        718        735        734        718        719        736        735        719        720        737        736        720        721        738        737        721        722        739        738        722        723        740        739        723        724        741        740        724        725        742        741        725        726        743        742        726        727        744        743        727        728        745        744        728        729        746        745        729        730        747        746        731        732        749        748        732        733        750        749        733        734        751        750        734        735        752        751        735        736        753        752        736        737        754        753        737        738        755        754        738        739        756        755        739        740        757        756        740        741        758        757        741        742        759        758        742        743        760        759        743        744        761        760        744        745        762        761        745        746        763        762        746        747        764        763        748        749        766        765        749        750        767        766        750        751        768        767        751        752        769        768        752        753        770        769        753        754        771        770        754        755        772        771        755        756        773        772        756        757        774        773        757        758        775        774        758        759        776        775        759        760        777        776        760        761        778        777        761        762        779        778        762        763        780        779        763        764        781        780        765        766        783        782        766        767        784        783        767        768        785        784        768        769        786        785        769        770        787        786        770        771        788        787        771        772        789        788        772        773        790        789        773        774        791        790        774        775        792        791        775        776        793        792        776        777        794        793        777        778        795        794        778        779        796        795        779        780        797        796        780        781        798        797        782        783        800        799        783        784        801        800        784        785        802        801        785        786        803        802        786        787        804        803        787        788        805        804        788        789        806        805        789        790        807        806        790        791        808        807        791        792        809        808        792        793        810        809        793        794        811        810        794        795        812        811        795        796        813        812        796        797        814        813        797        798        815        814        799        800        817        816        800        801        818        817        801        802        819        818        802        803        820        819        803        804        821        820        804        805        822        821        805        806        823        822        806        807        824        823        807        808        825        824        808        809        826        825        809        810        827        826        810        811        828        827        811        812        829        828        812        813        830        829        813        814        831        830        814        815        832        831        816        817        834        833        817        818        835        834        818        819        836        835        819        820        837        836        820        821        838        837        821        822        839        838        822        823        840        839        823        824        841        840        824        825        842        841        825        826        843        842        826        827        844        843        827        828        845        844        828        829        846        845        829        830        847        846        830        831        848        847        831        832        849        848        833        834        562        561        834        835        563        562        835        836        564        563        836        837        565        564        837        838        566        565        838        839        567        566        839        840        568        567        840        841        569        568        841        842        570        569        842        843        571        570        843        844        572        571        844        845        573        572        845        846        574        573        846        847        575        574        847        848        576        575        848        849        577        576        884        885        579        578        885        886        580        579        886        887        581        580        887        888        582        581        888        889        583        582        889        890        584        583        890        891        585        584        891        892        586        585        892        893        587        586        893        894        588        587        894        895        589        588        895        896        590        589        896        897        591        590        897        898        592        591        898        899        593        592        899        900        594        593        901        902        885        884        902        903        886        885        903        904        887        886        904        905        888        887        905        906        889        888        906        907        890        889        907        908        891        890        908        909        892        891        909        910        893        892        910        911        894        893        911        912        895        894        912        913        896        895        913        914        897        896        914        915        898        897        915        916        899        898        916        917        900        899        918        919        902        901        919        920        903        902        920        921        904        903        921        922        905        904        922        923        906        905        923        924        907        906        924        925        908        907        925        926        909        908        926        927        910        909        927        928        911        910        928        929        912        911        929        930        913        912        930        931        914        913        931        932        915        914        932        933        916        915        933        934        917        916        935        936        919        918        936        937        920        919        937        938        921        920        938        939        922        921        939        940        923        922        940        941        924        923        941        942        925        924        942        943        926        925        943        944        927        926        944        945        928        927        945        946        929        928        946        947        930        929        947        948        931        930        948        949        932        931        949        950        933        932        950        951        934        933        952        953        936        935        953        954        937        936        954        955        938        937        955        956        939        938        956        957        940        939        957        958        941        940        958        959        942        941        959        960        943        942        960        961        944        943        961        962        945        944        962        963        946        945        963        964        947        946        964        965        948        947        965        966        949        948        966        967        950        949        967        968        951        950        969        970        953        952        970        971        954        953        971        972        955        954        972        973        956        955        973        974        957        956        974        975        958        957        975        976        959        958        976        977        960        959        977        978        961        960        978        979        962        961        979        980        963        962        980        981        964        963        981        982        965        964        982        983        966        965        983        984        967        966        984        985        968        967        986        987        970        969        987        988        971        970        988        989        972        971        989        990        973        972        990        991        974        973        991        992        975        974        992        993        976        975        993        994        977        976        994        995        978        977        995        996        979        978        996        997        980        979        997        998        981        980        998        999        982        981        999       1000        983        982       1000       1001        984        983       1001       1002        985        984       1003       1004        987        986       1004       1005        988        987       1005       1006        989        988       1006       1007        990        989       1007       1008        991        990       1008       1009        992        991       1009       1010        993        992       1010       1011        994        993       1011       1012        995        994       1012       1013        996        995       1013       1014        997        996       1014       1015        998        997       1015       1016        999        998       1016       1017       1000        999       1017       1018       1001       1000       1018       1019       1002       1001       1020       1021       1004       1003       1021       1022       1005       1004       1022       1023       1006       1005       1023       1024       1007       1006       1024       1025       1008       1007       1025       1026       1009       1008       1026       1027       1010       1009       1027       1028       1011       1010       1028       1029       1012       1011       1029       1030       1013       1012       1030       1031       1014       1013       1031       1032       1015       1014       1032       1033       1016       1015       1033       1034       1017       1016       1034       1035       1018       1017       1035       1036       1019       1018       1037       1038       1021       1020       1038       1039       1022       1021       1039       1040       1023       1022       1040       1041       1024       1023       1041       1042       1025       1024       1042       1043       1026       1025       1043       1044       1027       1026       1044       1045       1028       1027       1045       1046       1029       1028       1046       1047       1030       1029       1047       1048       1031       1030       1048       1049       1032       1031       1049       1050       1033       1032       1050       1051       1034       1033       1051       1052       1035       1034       1052       1053       1036       1035       1054       1055       1038       1037       1055       1056       1039       1038       1056       1057       1040       1039       1057       1058       1041       1040       1058       1059       1042       1041       1059       1060       1043       1042       1060       1061       1044       1043       1061       1062       1045       1044       1062       1063       1046       1045       1063       1064       1047       1046       1064       1065       1048       1047       1065       1066       1049       1048       1066       1067       1050       1049       1067       1068       1051       1050       1068       1069       1052       1051       1069       1070       1053       1052       1071       1072       1055       1054       1072       1073       1056       1055       1073       1074       1057       1056       1074       1075       1058       1057       1075       1076       1059       1058       1076       1077       1060       1059       1077       1078       1061       1060       1078       1079       1062       1061       1079       1080       1063       1062       1080       1081       1064       1063       1081       1082       1065       1064       1082       1083       1066       1065       1083       1084       1067       1066       1084       1085       1068       1067       1085       1086       1069       1068       1086       1087       1070       1069       1088       1089       1072       1071       1089       1090       1073       1072       1090       1091       1074       1073       1091       1092       1075       1074       1092       1093       1076       1075       1093       1094       1077       1076       1094       1095       1078       1077       1095       1096       1079       1078       1096       1097       1080       1079       1097       1098       1081       1080       1098       1099       1082       1081       1099       1100       1083       1082       1100       1101       1084       1083       1101       1102       1085       1084       1102       1103       1086       1085       1103       1104       1087       1086       1105       1106       1089       1088       1106       1107       1090       1089       1107       1108       1091       1090       1108       1109       1092       1091       1109       1110       1093       1092       1110       1111       1094       1093       1111       1112       1095       1094       1112       1113       1096       1095       1113       1114       1097       1096       1114       1115       1098       1097       1115       1116       1099       1098       1116       1117       1100       1099       1117       1118       1101       1100       1118       1119       1102       1101       1119       1120       1103       1102       1120       1121       1104       1103       1122       1123       1106       1105       1123       1124       1107       1106       1124       1125       1108       1107       1125       1126       1109       1108       1126       1127       1110       1109       1127       1128       1111       1110       1128       1129       1112       1111       1129       1130       1113       1112       1130       1131       1114       1113       1131       1132       1115       1114       1132       1133       1116       1115       1133       1134       1117       1116       1134       1135       1118       1117       1135       1136       1119       1118       1136       1137       1120       1119       1137       1138       1121       1120        272        273       1123       1122        273        274       1124       1123        274        275       1125       1124        275        276       1126       1125        276        277       1127       1126        277        278       1128       1127        278        279       1129       1128        279        280       1130       1129        280        281       1131       1130        281        282       1132       1131        282        283       1133       1132        283        284       1134       1133        284        285       1135       1134        285        286       1136       1135        286        287       1137       1136        287        288       1138       1137 </DataArray>
<DataArray type="Int32"                                    Name="offsets"                                                      NumberOfComponents=" 1" format="ascii">
         4          8         12         16         20         24         28         32         36         40         44         48         52         56         60         64         68         72         76         80         84         88         92         96        100        104        108        112        116        120        124        128        132        136        140        144        148        152        156        160        164        168        172        176        180        184        188        192        196        200        204        208        212        216        220        224        228        232        236        240        244        248        252        256        260        264        268        272        276        280        284        288        292        296        300        304        308        312        316        320        324        328        332        336        340        344        348        352        356        360        364        368        372        376        380        384        388        392        396        400        404        408        412        416        420        424        428        432        436        440        444        448        452        456        460        464        468        472        476        480        484        488        492        496        500        504        508        512        516        520        524        528        532        536        540        544        548        552        556        560        564        568        572        576        580        584        588        592        596        600        604        608        612        616        620        624        628        632        636        640        644        648        652        656        660        664        668        672        676        680        684        688        692        696        700        704        708        712        716        720        724        728        732        736        740        744        748        752        756        760        764        768        772        776        780        784        788        792        796        800        804        808        812        816        820        824        828        832        836        840        844        848        852        856        860        864        868        872        876        880        884        888        892        896        900        904        908        912        916        920        924        928        932        936        940        944        948        952        956        960        964        968        972        976        980        984        988        992        996       1000       1004       1008       1012       1016       1020       1024       1028       1032       1036       1040       1044       1048       1052       1056       1060       1064       1068       1072       1076       1080       1084       1088       1092       1096       1100       1104       1108       1112       1116       1120       1124       1128       1132       1136       1140       1144       1148       1152       1156       1160       1164       1168       1172       1176       1180       1184       1188       1192       1196       1200       1204       1208       1212       1216       1220       1224       1228       1232       1236       1240       1244       1248       1252       1256       1260       1264       1268       1272       1276       1280       1284       1288       1292       1296       1300       1304       1308       1312       1316       1320       1324       1328       1332       1336       1340       1344       1348       1352       1356       1360       1364       1368       1372       1376       1380       1384       1388       1392       1396       1400       1404       1408       1412       1416       1420       1424       1428       1432       1436       1440       1444       1448       1452       1456       1460       1464       1468       1472       1476       1480       1484       1488       1492       1496       1500       1504       1508       1512       1516       1520       1524       1528       1532       1536       1540       1544       1548       1552       1556       1560       1564       1568       1572       1576       1580       1584       1588       1592       1596       1600       1604       1608       1612       1616       1620       1624       1628       1632       1636       1640       1644       1648       1652       1656       1660       1664       1668       1672       1676       1680       1684       1688       1692       1696       1700       1704       1708       1712       1716       1720       1724       1728       1732       1736       1740       1744       1748       1752       1756       1760       1764       1768       1772       1776       1780       1784       1788       1792       1796       1800       1804       1808       1812       1816       1820       1824       1828       1832       1836       1840       1844       1848       1852       1856       1860       1864       1868       1872       1876       1880       1884       1888       1892       1896       1900       1904       1908       1912       1916       1920       1924       1928       1932       1936       1940       1944       1948       1952       1956       1960       1964       1968       1972       1976       1980       1984       1988       1992       1996       2000       2004       2008       2012       2016       2020       2024       2028       2032       2036       2040       2044       2048       2052       2056       2060       2064       2068       2072       2076       2080       2084       2088       2092       2096       2100       2104       2108       2112       2116       2120       2124       2128       2132       2136       2140       2144       2148       2152       2156       2160       2164       2168       2172       2176       2180       2184       2188       2192       2196       2200       2204       2208       2212       2216       2220       2224       2228       2232       2236       2240       2244       2248       2252       2256       2260       2264       2268       2272       2276       2280       2284       2288       2292       2296       2300       2304       2308       2312       2316       2320       2324       2328       2332       2336       2340       2344       2348       2352       2356       2360       2364       2368       2372       2376       2380       2384       2388       2392       2396       2400       2404       2408       2412       2416       2420       2424       2428       2432       2436       2440       2444       2448       2452       2456       2460       2464       2468       2472       2476       2480       2484       2488       2492       2496       2500       2504       2508       2512       2516       2520       2524       2528       2532       2536       2540       2544       2548       2552       2556       2560       2564       2568       2572       2576       2580       2584       2588       2592       2596       2600       2604       2608       2612       2616       2620       2624       2628       2632       2636       2640       2644       2648       2652       2656       2660       2664       2668       2672       2676       2680       2684       2688       2692       2696       2700       2704       2708       2712       2716       2720       2724       2728       2732       2736       2740       2744       2748       2752       2756       2760       2764       2768       2772       2776       2780       2784       2788       2792       2796       2800       2804       2808       2812       2816       2820       2824       2828       2832       2836       2840       2844       2848       2852       2856       2860       2864       2868       2872       2876       2880       2884       2888       2892       2896       2900       2904       2908       2912       2916       2920       2924       2928       2932       2936       2940       2944       2948       2952       2956       2960       2964       2968       2972       2976       2980       2984       2988       2992       2996       3000       3004       3008       3012       3016       3020       3024       3028       3032       3036       3040       3044       3048       3052       3056       3060       3064       3068       3072       3076       3080       3084       3088       3092       3096       3100       3104       3108       3112       3116       3120       3124       3128       3132       3136       3140       3144       3148       3152       3156       3160       3164       3168       3172       3176       3180       3184       3188       3192       3196       3200       3204       3208       3212       3216       3220       3224       3228       3232       3236       3240       3244       3248       3252       3256       3260       3264       3268       3272       3276       3280       3284       3288       3292       3296       3300       3304       3308       3312       3316       3320       3324       3328       3332       3336       3340       3344       3348       3352       3356       3360       3364       3368       3372       3376       3380       3384       3388       3392       3396       3400       3404       3408       3412       3416       3420       3424       3428       3432       3436       3440       3444       3448       3452       3456       3460       3464       3468       3472       3476       3480       3484       3488       3492       3496       3500       3504       3508       3512       3516       3520       3524       3528       3532       3536       3540       3544       3548       3552       3556       3560       3564       3568       3572       3576       3580       3584       3588       3592       3596       3600       3604       3608       3612       3616       3620       3624       3628       3632       3636       3640       3644       3648       3652       3656       3660       3664       3668       3672       3676       3680       3684       3688       3692       3696       3700       3704       3708       3712       3716       3720       3724       3728       3732       3736       3740       3744       3748       3752       3756       3760       3764       3768       3772       3776       3780       3784       3788       3792       3796       3800       3804       3808       3812       3816       3820       3824       3828       3832       3836       3840       3844       3848       3852       3856       3860       3864       3868       3872       3876       3880       3884       3888       3892       3896       3900       3904       3908       3912       3916       3920       3924       3928       3932       3936       3940       3944       3948       3952       3956       3960       3964       3968       3972       3976       3980       3984       3988       3992       3996       4000       4004       4008       4012       4016       4020       4024       4028       4032       4036       4040       4044       4048       4052       4056       4060       4064       4068       4072       4076       4080       4084       4088       4092       4096 </DataArray>
<DataArray type="UInt8"                                    Name="types"                                                      NumberOfComponents=" 1" format="ascii">
         9          9          9          9          9          9          9          9          9          9          9          9          9          9          9          9          9          9          9          9          9          9          9          9          9          9          9          9          9          9          9          9          9          9          9          9          9          9          9          9          9          9          9          9          9          9          9          9          9          9          9          9          9          9          9          9          9          9          9          9          9          9          9          9          9          9          9          9          9          9          9          9          9          9          9          9          9          9          9          9          9          9          9          9          9          9          9          9          9          9          9          9          9          9          9          9          9          9          9          9          9          9          9          9          9          9          9          9          9          9          9          9          9          9          9          9          9          9          9          9          9          9          9          9          9          9          9          9          9          9          9          9          9          9          9          9          9          9          9          9          9          9          9          9          9          9          9          9          9          9          9          9          9          9          9          9          9          9          9          9          9          9          9          9          9          9          9          9          9          9          9          9          9          9          9          9          9          9          9          9          9          9          9          9          9          9          9          9          9          9          9          9          9          9          9          9          9          9          9          9          9          9          9          9          9          9          9          9          9          9          9          9          9          9          9          9          9          9          9          9          9          9          9          9          9          9          9          9          9          9          9          9          9          9          9          9          9          9          9          9          9          9          9          9          9          9          9          9          9          9          9          9          9          9          9          9          9          9          9          9          9          9          9          9          9          9          9          9          9          9          9          9          9          9          9          9          9          9          9          9          9          9          9          9          9          9          9          9          9          9          9          9          9          9          9          9          9          9          9          9          9          9          9          9          9          9          9          9          9          9          9          9          9          9          9          9          9          9          9          9          9          9          9          9          9          9          9          9          9          9          9          9          9          9          9          9          9          9          9          9          9          9          9          9          9          9          9          9          9          9          9          9          9          9          9          9          9          9          9          9          9          9          9          9          9          9          9          9          9          9          9          9          9          9          9          9          9          9          9          9          9          9          9          9          9          9          9          9          9          9          9          9          9          9          9          9          9          9          9          9          9          9          9          9          9          9          9          9          9          9          9          9          9          9          9          9          9          9          9          9          9          9          9          9          9          9          9          9          9          9          9          9          9          9          9          9          9          9          9          9          9          9          9          9          9          9          9          9          9          9          9          9          9          9          9          9          9          9          9          9          9          9          9          9          9          9          9          9          9          9          9          9          9          9          9          9          9          9          9          9          9          9          9          9          9          9          9          9          9          9          9          9          9          9          9          9          9          9          9          9          9          9          9          9          9          9          9          9          9          9          9          9          9          9          9          9          9          9          9          9          9          9          9          9          9          9          9          9          9          9          9          9          9          9          9          9          9          9          9          9          9          9          9          9          9          9          9          9          9          9          9          9          9          9          9          9          9          9          9          9          9          9          9          9          9          9          9          9          9          9          9          9          9          9          9          9          9          9          9          9          9          9          9          9          9          9          9          9          9          9          9          9          9          9          9          9          9          9          9          9          9          9          9          9          9          9          9          9          9          9          9          9          9          9          9          9          9          9          9          9          9          9          9          9          9          9          9          9          9          9          9          9          9          9          9          9          9          9          9          9          9          9          9          9          9          9          9          9          9          9          9          9          9          9          9          9          9          9          9          9          9          9          9          9          9          9          9          9          9          9          9          9          9          9          9          9          9          9          9          9          9          9          9          9          9          9          9          9          9          9          9          9          9          9          9          9          9          9          9          9          9          9          9          9          9          9          9          9          9          9          9          9          9          9          9          9          9          9          9          9          9          9          9          9          9          9          9          9          9          9          9          9          9          9          9          9          9          9          9          9          9          9          9          9          9          9          9          9          9          9          9          9          9          9          9          9          9          9          9          9          9          9          9          9          9          9          9          9          9          9          9          9          9          9          9          9          9          9          9          9          9          9          9          9          9          9          9          9          9          9          9          9          9          9          9          9          9          9          9          9          9          9          9          9          9          9          9          9          9          9          9          9          9          9          9          9          9          9          9          9          9          9          9          9          9          9          9          9          9          9          9          9          9          9          9          9          9          9          9          9          9          9          9          9          9          9          9          9          9          9          9          9          9          9          9          9          9          9          9          9          9          9          9          9          9          9          9          9          9          9          9          9          9          9          9          9          9          9          9          9          9          9          9          9          9          9          9          9          9          9          9          9          9          9          9          9          9          9          9          9          9          9          9          9          9          9          9          9          9          9          9          9          9          9          9          9          9          9          9          9          9          9          9          9          9          9          9          9          9          9          9          9          9          9          9          9          9          9          9          9          9          9          9          9          9          9          9          9          9          9          9          9          9          9          9          9          9          9          9          9          9          9          9          9          9          9          9          9          9          9          9          9          9          9          9          9          9          9          9          9          9          9          9          9          9          9          9          9          9          9          9          9          9          9          9          9          9          9          9          9          9          9          9          9          9          9          9          9          9          9          9          9          9          9          9          9          9          9          9          9          9          9          9          9 </DataArray>
</Cells>
<CellData>
<DataArray type="Int32"                                    Name="material"                                                      NumberOfComponents=" 1" format="ascii">
         1          1          1          1          1          1          1          1          1          1          1          1          1          1          1          1          1          1          1          1          1          1          1          1          1          1          1          1          1          1          1          1          1          1          1          1          1          1          1          1          1          1          1          1          1          1          1          1          1          1          1          1          1          1          1          1          1          1          1          1          1          1          1          1          1          1          1          1          1          1          1          1          1          1          1          1          1          1          1          1          1          1          1          1          1          1          1          1          1          1          1          1          1          1          1          1          1          1          1          1          1          1          1          1          1          1          1          1          1          1          1          1          1          1          1          1          1          1          1          1          1          1          1          1          1          1          1          1          1          1          1          1          1          1          1          1          1          1          1          1          1          1          1          1          1          1          1          1          1          1          1          1          1          1          1          1          1          1          1          1          1          1          1          1          1          1          1          1          1          1          1          1          1          1          1          1          1          1          1          1          1          1          1          1          1          1          1          1          1          1          1          1          1          1          1          1          1          1          1          1          1          1          1          1          1          1          1          1          1          1          1          1          1          1          1          1          1          1          1          1          1          1          1          1          1          1          1          1          1          1          1          1          1          1          1          1          1          1          1          1          1          1          1          1          1          1          1          1          1          1          1          1          1          1          1          1          1          1          1          1          1          1          1          1          1          1          1          1          1          1          1          1          1          1          1          1          1          1          1          1          1          1          1          1          1          1          1          1          1          1          1          1          1          1          1          1          1          1          1          1          1          1          1          1          1          1          1          1          1          1          1          1          1          1          1          1          1          1          1          1          1          1          1          1          1          1          1          1          1          1          1          1          1          1          1          1          1          1          1          1          1          1          1          1          1          1          1          1          1          1          1          1          1          1          1          1          1          1          1          1          1          1          1          1          1          1          1          1          1          1          1          1          1          1          1          1          1          1          1          1          1          1          1          1          1          1          1          1          1          1          1          1          1          1          1          1          1          1          1          1          1          1          1          1          1          1          1          1          1          1          1          1          1          1          1          1          1          1          1          1          1          1          1          1          1          1          1          1          1          1          1          1          1          1          1          1          1          1          1          1          1          1          1          1          1          1          1          1          1          1          1          1          1          1          1          1          1          1          1          1          1          1          1          1          1          1          1          1          1          1          1          1          1          1          1          1          1          1          1          1          1          1          1          1          1          1          1          1          1          1          1          1          1          1          1          1          1          1          1          1          1          1          1          1          1          1          1          1          1          1          1          1          1          1          1          1          1          1          1          1          1          1          1          1          1          1          1          1          1          1          1          1          1          1          1          1          1          1          1          1          1          1          1          1          1          1          1          1          1          1          1          1          1          1          1          1          1          1          1          1          1          1          1          1          1          1          1          1          1          1          1          1          1          1          1          1          1          1          1          1          1          1          1          1          1          1          1          1          1          1          1          1          1          1          1          1          1          1          1          1          1          1          1          1          1          1          1          1          1          1          1          1          1          1          1          1          1          1          1          1          1          1          1          1          1          1          1          1          1          1          1          1          1          1          1          1          1          1          1          1          1          1          1          1          1          1          1          1          1          1          1          1          1          1          1          1          1          1          1          1          1          1          1          1          1          1          1          1          1          1          1          1          1          1          1          1          1          1          1          1          1          1          1          1          1          1          1          1          1          1          1          1          1          1          1          1          1          1          1          1          1          1          1          1          1          1          1          1          1          1          1          1          1          1          1          1          1          1          1          1          1          1          1          1          1          1          1          1          1          1          1          1          1          1          1          1          1          1          1          1          1          1          1          1          1          1          1          1          1          1          1          1          1          1          1          1          1          1          1          1          1          1          1          1          1          1          1          1          1          1          1          1          1          1          1          1          1          1          1          1          1          1          1          1          1          1          1          1          1          1          1          1          1          1          1          1          1          1          1          1          1          1          1          1          1          1          1          1          1          1          1          1          1          1          1          1          1          1          1          1          1          1          1          1          1          1          1          1          1          1          1          1          1          1          1          1          1          1          1          1          1          1          1          1          1          1          1          1          1          1          1          1          1          1          1          1          1          1          1          1          1          1          1          1          1          1          1          1          1          1          1          1          1          1          1          1          1          1          1          1          1          1          1          1          1          1          1          1          1          1          1          1          1          1          1          1          1          1          1          1          1          1          1          1          1          1          1          1          1          1          1          1          1          1          1          1          1          1          1          1          1          1          1          1          1          1          1          1          1          1          1          1          1          1          1          1          1          1          1          1          1          1          1          1          1          1          1          1          1          1          1          1          1          1          1          1          1          1          1          1          1          1          1          1          1          1          1          1          1          1          1          1          1          1          1          1          1          1          1          1          1          1          1          1          1          1          1          1          1          1          1          1          1          1          1          1          1          1          1          1          1          1          1          1          1          1          1          1          1          1          1          1          1          1          1          1          1          1          1          1          1          1          1          1 </DataArray>
</CellData>
<PointData>
<DataArray type="Float64"                                    Name="u"                                                      NumberOfComponents=" 3" format="ascii">
             -0.000018459              -0.000000000               0.999999996              -0.000033680               0.000000000               0.999999996              -0.000041338              -0.000000000               0.999999996              -0.000046067               0.000000000               0.999999996              -0.000049821              -0.000000000               0.999999996              -0.000053443              -0.000000000               0.999999996              -0.000057293              -0.000000000               0.999999996              -0.000061573              -0.000000000               0.999999996              -0.000066449              -0.000000000               0.999999996              -0.000071950              -0.000000000               0.999999996              -0.000077955              -0.000000000               0.999999996              -0.000084573               0.000000000               0.999999996              -0.000091816               0.000000000               0.999999996              -0.000099668               0.000000000               0.999999996              -0.000108102               0.000000000               0.999999996              -0.000117091               0.000000000               0.999999996              -0.000126620               0.000000000               0.999999996              -0.000018367               0.000037441               0.999999996              -0.000032974               0.000033309               0.999999996              -0.000040263               0.000032344               0.999999996              -0.000044796               0.000033120               0.999999996              -0.000048452               0.000034892               0.999999996              -0.000052097               0.000037317               0.999999996              -0.000056052               0.000040239               0.999999996              -0.000060499               0.000043549               0.999999996              -0.000065509               0.000047158               0.999999996              -0.000071062               0.000050877               0.999999996              -0.000077164               0.000054774               0.999999996              -0.000083872               0.000058879               0.999999996              -0.000091209               0.000063104               0.999999996              -0.000099157               0.000067415               0.999999996              -0.000107700               0.000071700               0.999999996              -0.000116796               0.000075928               0.999999996              -0.000126390               0.000079911               0.999999996              -0.000018026               0.000074454               0.999999996              -0.000030834               0.000066209               0.999999996              -0.000037134               0.000064417               0.999999996              -0.000041236               0.000066065               0.999999996              -0.000044798               0.000069758               0.999999996              -0.000048578               0.000074786               0.999999996              -0.000052799               0.000080715               0.999999996              -0.000057536               0.000087365               0.999999996              -0.000062883               0.000094544               0.999999996              -0.000068800               0.000101992               0.999999996              -0.000075268               0.000109825               0.999999996              -0.000082348               0.000118056               0.999999996              -0.000090040               0.000126575               0.999999996              -0.000098317               0.000135235               0.999999996              -0.000107150               0.000143881               0.999999996              -0.000116479               0.000152467               0.999999996              -0.000126308               0.000160869               0.999999996              -0.000017480               0.000110572               0.999999996              -0.000027388               0.000098319               0.999999996              -0.000032277               0.000095988               0.999999996              -0.000035897               0.000098852               0.999999996              -0.000039478               0.000104659               0.999999996              -0.000043539               0.000112390               0.999999996              -0.000048223               0.000121422               0.999999996              -0.000053528               0.000131397               0.999999996              -0.000059454               0.000142181               0.999999996              -0.000066052               0.000153374               0.999999996              -0.000073280               0.000165065               0.999999996              -0.000081105               0.000177395               0.999999996              -0.000089508               0.000190169               0.999999996              -0.000098415               0.000203162               0.999999996              -0.000107809               0.000216236               0.999999996              -0.000117689               0.000229462               0.999999996              -0.000128124               0.000242937               0.999999996              -0.000016696               0.000145394               0.999999996              -0.000022864               0.000129386               0.999999996              -0.000026291               0.000126918               0.999999996              -0.000029543               0.000131241               0.999999996              -0.000033319               0.000139373               0.999999996              -0.000037903               0.000149900               0.999999996              -0.000043223               0.000162040               0.999999996              -0.000049355               0.000175397               0.999999996              -0.000056282               0.000189758               0.999999996              -0.000063957               0.000204807               0.999999996              -0.000072293               0.000220400               0.999999996              -0.000081215               0.000236744               0.999999996              -0.000090640               0.000253675               0.999999996              -0.000100530               0.000271033               0.999999996              -0.000110897               0.000288781               0.999999996              -0.000121828               0.000307041               0.999999996              -0.000133425               0.000326043               0.999999996              -0.000015740               0.000178573               0.999999996              -0.000017663               0.000159234               0.999999996              -0.000019720               0.000157045               0.999999996              -0.000022895               0.000163023               0.999999996              -0.000027243               0.000173605               0.999999996              -0.000032618               0.000186924               0.999999996              -0.000038998               0.000202206               0.999999996              -0.000046321               0.000218991               0.999999996              -0.000054459               0.000236971               0.999999996              -0.000063395               0.000255981               0.999999996              -0.000073033               0.000275593               0.999999996              -0.000083269               0.000295951               0.999999996              -0.000094046               0.000317113               0.999999996              -0.000105313               0.000338917               0.999999996              -0.000117171               0.000361514               0.999999996              -0.000129695               0.000384972               0.999999996              -0.000142807               0.000409464               0.999999996              -0.000014717               0.000209768               0.999999996              -0.000012109               0.000187746               0.999999996              -0.000013131               0.000186133               0.999999996              -0.000016636               0.000193972               0.999999996              -0.000021910               0.000206965               0.999999996              -0.000028420               0.000223065               0.999999996              -0.000036087               0.000241677               0.999999996              -0.000044739               0.000261989               0.999999996              -0.000054328               0.000283716               0.999999996              -0.000064767               0.000306657               0.999999996              -0.000075995               0.000330325               0.999999996              -0.000087829               0.000354753               0.999999996              -0.000100276               0.000380176               0.999999996              -0.000113293               0.000406570               0.999999996              -0.000126898               0.000433977               0.999999996              -0.000140943               0.000462334               0.999999996              -0.000155168               0.000491220               0.999999996              -0.000013583               0.000238678               0.999999996              -0.000006513               0.000214856               0.999999996              -0.000007048               0.000214051               0.999999996              -0.000011366               0.000223675               0.999999996              -0.000017789               0.000239123               0.999999996              -0.000025620               0.000258170               0.999999996              -0.000034696               0.000280131               0.999999996              -0.000044864               0.000304078               0.999999996              -0.000056177               0.000329608               0.999999996              -0.000068352               0.000356549               0.999999996              -0.000081215               0.000384370               0.999999996              -0.000094651               0.000413018               0.999999996              -0.000108625               0.000442784               0.999999996              -0.000123044               0.000473667               0.999999996              -0.000137790               0.000505541               0.999999996              -0.000152566               0.000538007               0.999999996              -0.000167109               0.000570409               0.999999996              -0.000012539               0.000264821               0.999999996              -0.000001227               0.000240467               0.999999996              -0.000001924               0.000240564               0.999999996              -0.000007271               0.000252001               0.999999996              -0.000015040               0.000269900               0.999999996              -0.000024233               0.000291986               0.999999996              -0.000034892               0.000317346               0.999999996              -0.000046837               0.000345093               0.999999996              -0.000059853               0.000374645               0.999999996              -0.000073552               0.000405546               0.999999996              -0.000087707               0.000437466               0.999999996              -0.000102269               0.000470357               0.999999996              -0.000117246               0.000504465               0.999999996              -0.000132528               0.000539571               0.999999996              -0.000147934               0.000575383               0.999999996              -0.000163344               0.000611394               0.999999996              -0.000178618               0.000647137               0.999999996              -0.000011883               0.000289155               0.999999996               0.000002394               0.000266969               0.999999996               0.000003208               0.000264628               0.999999996              -0.000001114               0.000273148               0.999999996              -0.000007897               0.000288145               0.999999996              -0.000016073               0.000307444               0.999999996              -0.000025574               0.000330017               0.999999996              -0.000036361               0.000355263               0.999999996              -0.000048005               0.000382484               0.999999996              -0.000060186               0.000411156               0.999999996              -0.000072605               0.000440846               0.999999996              -0.000085210               0.000471331               0.999999996              -0.000098040               0.000502669               0.999999996              -0.000111035               0.000534898               0.999999996              -0.000124255               0.000567979               0.999999996              -0.000137838               0.000601617               0.999999996              -0.000151770               0.000635527               0.999999996              -0.000010918               0.000311070               0.999999996               0.000004801               0.000292126               0.999999996               0.000007099               0.000288821               0.999999996               0.000004026               0.000295084               0.999999996              -0.000001572               0.000307477               0.999999996              -0.000008694               0.000324169               0.999999996              -0.000016993               0.000344164               0.999999996              -0.000026416               0.000366919               0.999999996              -0.000036576               0.000391809               0.999999996              -0.000047251               0.000418306               0.999999996              -0.000058100               0.000445887               0.999999996              -0.000068940               0.000474283               0.999999996              -0.000079710               0.000503270               0.999999996              -0.000090412               0.000532923               0.999999996              -0.000101208               0.000563283               0.999999996              -0.000112213               0.000594372               0.999999996              -0.000123619               0.000626031               0.999999996              -0.000009734               0.000330182               0.999999996               0.000006055               0.000315402               0.999999996               0.000009480               0.000312212               0.999999996               0.000007704               0.000317078               0.999999996               0.000003355               0.000327446               0.999999996              -0.000002455               0.000341953               0.999999996              -0.000009419               0.000359712               0.999999996              -0.000017411               0.000380168               0.999999996              -0.000026025               0.000402863               0.999999996              -0.000035031               0.000427310               0.999999996              -0.000044201               0.000453048               0.999999996              -0.000053441               0.000479524               0.999999996              -0.000062404               0.000506564               0.999999996              -0.000070916               0.000534124               0.999999996              -0.000079158               0.000562262               0.999999996              -0.000087350               0.000591016               0.999999996              -0.000095486               0.000620421               0.999999996              -0.000008278               0.000346250               0.999999996               0.000006233               0.000336056               0.999999996               0.000010265               0.000333806               0.999999996               0.000009602               0.000338016               0.999999996               0.000006607               0.000347092               0.999999996               0.000002095               0.000359920               0.999999996              -0.000003486               0.000375898               0.999999996              -0.000009897               0.000394556               0.999999996              -0.000016815               0.000415466               0.999999996              -0.000023947               0.000438121               0.999999996              -0.000031401               0.000462170               0.999999996              -0.000038903               0.000487180               0.999999996              -0.000046067               0.000512859               0.999999996              -0.000052650               0.000538918               0.999999996              -0.000058642               0.000565371               0.999999996              -0.000063990               0.000592330               0.999999996              -0.000068637               0.000619889               0.999999996              -0.000006541               0.000359040               0.999999996               0.000005463               0.000353195               0.999999996               0.000009446               0.000352371               0.999999996               0.000009595               0.000356609               0.999999996               0.000007719               0.000364989               0.999999996               0.000004533               0.000376803               0.999999996               0.000000406               0.000391496               0.999999996              -0.000004248               0.000408801               0.999999996              -0.000009408               0.000428350               0.999999996              -0.000014832               0.000449632               0.999999996              -0.000020352               0.000472351               0.999999996              -0.000025903               0.000496316               0.999999996              -0.000031357               0.000521093               0.999999996              -0.000036232               0.000546333               0.999999996              -0.000040265               0.000571937               0.999999996              -0.000043251               0.000597898               0.999999996              -0.000044940               0.000624247               0.999999996              -0.000004550               0.000368331               0.999999996               0.000004032               0.000366127               0.999999996               0.000007216               0.000366807               0.999999996               0.000007719               0.000371417               0.999999996               0.000006652               0.000379620               0.999999996               0.000004648               0.000390878               0.999999996               0.000002054               0.000404797               0.999999996              -0.000000911               0.000421152               0.999999996              -0.000004402               0.000439611               0.999999996              -0.000008060               0.000459895               0.999999996              -0.000011608               0.000481764               0.999999996              -0.000015341               0.000504874               0.999999996              -0.000019166               0.000528968               0.999999996              -0.000022486               0.000553833               0.999999996              -0.000024800               0.000579229               0.999999996              -0.000026052               0.000604940               0.999999996              -0.000026002               0.000630829               0.999999996              -0.000002342               0.000373975               0.999999996               0.000002146               0.000374145               0.999999996               0.000003877               0.000375952               0.999999996               0.000004293               0.000380977               0.999999996               0.000003820               0.000389226               0.999999996               0.000002874               0.000400271               0.999999996               0.000001693               0.000413748               0.999999996               0.000000242               0.000429423               0.999999996              -0.000001590               0.000447222               0.999999996              -0.000003444               0.000466972               0.999999996              -0.000005208               0.000488363               0.999999996              -0.000007142               0.000511061               0.999999996              -0.000009075               0.000534876               0.999999996              -0.000010691               0.000559627               0.999999996              -0.000011698               0.000585009               0.999999996              -0.000011949               0.000610735               0.999999996              -0.000011408               0.000636557               0.999999996               0.000000000               0.000375902               0.999999996               0.000000000               0.000376881               0.999999996               0.000000000               0.000379122               0.999999996              -0.000000000               0.000384365               0.999999996              -0.000000000               0.000392621               0.999999996              -0.000000000               0.000403581               0.999999996              -0.000000000               0.000416909               0.999999996              -0.000000000               0.000432296               0.999999996               0.000000000               0.000449867               0.999999996              -0.000000000               0.000469449               0.999999996               0.000000000               0.000490679               0.999999996               0.000000000               0.000513389               0.999999996               0.000000000               0.000537233               0.999999996               0.000000000               0.000561960               0.999999996              -0.000000000               0.000587293               0.999999996              -0.000000000               0.000612953               0.999999996               0.000000000               0.000638737               0.999999996              -0.000018459              -0.000000000               0.999999996              -0.000033680               0.000000000               0.999999996              -0.000041338              -0.000000000               0.999999996              -0.000046067               0.000000000               0.999999996              -0.000049821              -0.000000000               0.999999996              -0.000053443              -0.000000000               0.999999996              -0.000057293              -0.000000000               0.999999996              -0.000061573              -0.000000000               0.999999996              -0.000066449              -0.000000000               0.999999996              -0.000071950              -0.000000000               0.999999996              -0.000077955              -0.000000000               0.999999996              -0.000084573               0.000000000               0.999999996              -0.000091816               0.000000000               0.999999996              -0.000099668               0.000000000               0.999999996              -0.000108102               0.000000000               0.999999996              -0.000117091               0.000000000               0.999999996              -0.000126620               0.000000000               0.999999996              -0.000018367              -0.000037441               0.999999996              -0.000032974              -0.000033309               0.999999996              -0.000040263              -0.000032344               0.999999996              -0.000044796              -0.000033120               0.999999996              -0.000048452              -0.000034892               0.999999996              -0.000052097              -0.000037317               0.999999996              -0.000056052              -0.000040239               0.999999996              -0.000060499              -0.000043549               0.999999996              -0.000065509              -0.000047158               0.999999996              -0.000071062              -0.000050877               0.999999996              -0.000077164              -0.000054774               0.999999996              -0.000083872              -0.000058879               0.999999996              -0.000091209              -0.000063104               0.999999996              -0.000099157              -0.000067415               0.999999996              -0.000107700              -0.000071700               0.999999996              -0.000116796              -0.000075928               0.999999996              -0.000126390              -0.000079911               0.999999996              -0.000018026              -0.000074454               0.999999996              -0.000030834              -0.000066209               0.999999996              -0.000037134              -0.000064417               0.999999996              -0.000041236              -0.000066065               0.999999996              -0.000044798              -0.000069758               0.999999996              -0.000048578              -0.000074786               0.999999996              -0.000052799              -0.000080715               0.999999996              -0.000057536              -0.000087365               0.999999996              -0.000062883              -0.000094544               0.999999996              -0.000068800              -0.000101992               0.999999996              -0.000075268              -0.000109825               0.999999996              -0.000082348              -0.000118056               0.999999996              -0.000090040              -0.000126575               0.999999996              -0.000098317              -0.000135235               0.999999996              -0.000107150              -0.000143881               0.999999996              -0.000116479              -0.000152467               0.999999996              -0.000126308              -0.000160869               0.999999996              -0.000017480              -0.000110572               0.999999996              -0.000027388              -0.000098319               0.999999996              -0.000032277              -0.000095988               0.999999996              -0.000035897              -0.000098852               0.999999996              -0.000039478              -0.000104659               0.999999996              -0.000043539              -0.000112390               0.999999996              -0.000048223              -0.000121422               0.999999996              -0.000053528              -0.000131397               0.999999996              -0.000059454              -0.000142181               0.999999996              -0.000066052              -0.000153374               0.999999996              -0.000073280              -0.000165065               0.999999996              -0.000081105              -0.000177395               0.999999996              -0.000089508              -0.000190169               0.999999996              -0.000098415              -0.000203162               0.999999996              -0.000107809              -0.000216236               0.999999996              -0.000117689              -0.000229462               0.999999996              -0.000128124              -0.000242937               0.999999996              -0.000016696              -0.000145394               0.999999996              -0.000022864              -0.000129386               0.999999996              -0.000026291              -0.000126918               0.999999996              -0.000029543              -0.000131241               0.999999996              -0.000033319              -0.000139373               0.999999996              -0.000037903              -0.000149900               0.999999996              -0.000043223              -0.000162040               0.999999996              -0.000049355              -0.000175397               0.999999996              -0.000056282              -0.000189758               0.999999996              -0.000063957              -0.000204807               0.999999996              -0.000072293              -0.000220400               0.999999996              -0.000081215              -0.000236744               0.999999996              -0.000090640              -0.000253675               0.999999996              -0.000100530              -0.000271033               0.999999996              -0.000110897              -0.000288781               0.999999996              -0.000121828              -0.000307041               0.999999996              -0.000133425              -0.000326043               0.999999996              -0.000015740              -0.000178573               0.999999996              -0.000017663              -0.000159234               0.999999996              -0.000019720              -0.000157045               0.999999996              -0.000022895              -0.000163023               0.999999996              -0.000027243              -0.000173605               0.999999996              -0.000032618              -0.000186924               0.999999996              -0.000038998              -0.000202206               0.999999996              -0.000046321              -0.000218991               0.999999996              -0.000054459              -0.000236971               0.999999996              -0.000063395              -0.000255981               0.999999996              -0.000073033              -0.000275593               0.999999996              -0.000083269              -0.000295951               0.999999996              -0.000094046              -0.000317113               0.999999996              -0.000105313              -0.000338917               0.999999996              -0.000117171              -0.000361514               0.999999996              -0.000129695              -0.000384972               0.999999996              -0.000142807              -0.000409464               0.999999996              -0.000014717              -0.000209768               0.999999996              -0.000012109              -0.000187746               0.999999996              -0.000013131              -0.000186133               0.999999996              -0.000016636              -0.000193972               0.999999996              -0.000021910              -0.000206965               0.999999996              -0.000028420              -0.000223065               0.999999996              -0.000036087              -0.000241677               0.999999996              -0.000044739              -0.000261989               0.999999996              -0.000054328              -0.000283716               0.999999996              -0.000064767              -0.000306657               0.999999996              -0.000075995              -0.000330325               0.999999996              -0.000087829              -0.000354753               0.999999996              -0.000100276              -0.000380176               0.999999996              -0.000113293              -0.000406570               0.999999996              -0.000126898              -0.000433977               0.999999996              -0.000140943              -0.000462334               0.999999996              -0.000155168              -0.000491220               0.999999996              -0.000013583              -0.000238678               0.999999996              -0.000006513              -0.000214856               0.999999996              -0.000007048              -0.000214051               0.999999996              -0.000011366              -0.000223675               0.999999996              -0.000017789              -0.000239123               0.999999996              -0.000025620              -0.000258170               0.999999996              -0.000034696              -0.000280131               0.999999996              -0.000044864              -0.000304078               0.999999996              -0.000056177              -0.000329608               0.999999996              -0.000068352              -0.000356549               0.999999996              -0.000081215              -0.000384370               0.999999996              -0.000094651              -0.000413018               0.999999996              -0.000108625              -0.000442784               0.999999996              -0.000123044              -0.000473667               0.999999996              -0.000137790              -0.000505541               0.999999996              -0.000152566              -0.000538007               0.999999996              -0.000167109              -0.000570409               0.999999996              -0.000012539              -0.000264821               0.999999996              -0.000001227              -0.000240467               0.999999996              -0.000001924              -0.000240564               0.999999996              -0.000007271              -0.000252001               0.999999996              -0.000015040              -0.000269900               0.999999996              -0.000024233              -0.000291986               0.999999996              -0.000034892              -0.000317346               0.999999996              -0.000046837              -0.000345093               0.999999996              -0.000059853              -0.000374645               0.999999996              -0.000073552              -0.000405546               0.999999996              -0.000087707              -0.000437466               0.999999996              -0.000102269              -0.000470357               0.999999996              -0.000117246              -0.000504465               0.999999996              -0.000132528              -0.000539571               0.999999996              -0.000147934              -0.000575383               0.999999996              -0.000163344              -0.000611394               0.999999996              -0.000178618              -0.000647137               0.999999996              -0.000011883              -0.000289155               0.999999996               0.000002394              -0.000266969               0.999999996               0.000003208              -0.000264628               0.999999996              -0.000001114              -0.000273148               0.999999996              -0.000007897              -0.000288145               0.999999996              -0.000016073              -0.000307444               0.999999996              -0.000025574              -0.000330017               0.999999996              -0.000036361              -0.000355263               0.999999996              -0.000048005              -0.000382484               0.999999996              -0.000060186              -0.000411156               0.999999996              -0.000072605              -0.000440846               0.999999996              -0.000085210              -0.000471331               0.999999996              -0.000098040              -0.000502669               0.999999996              -0.000111035              -0.000534898               0.999999996              -0.000124255              -0.000567979               0.999999996              -0.000137838              -0.000601617               0.999999996              -0.000151770              -0.000635527               0.999999996              -0.000010918              -0.000311070               0.999999996               0.000004801              -0.000292126               0.999999996               0.000007099              -0.000288821               0.999999996               0.000004026              -0.000295084               0.999999996              -0.000001572              -0.000307477               0.999999996              -0.000008694              -0.000324169               0.999999996              -0.000016993              -0.000344164               0.999999996              -0.000026416              -0.000366919               0.999999996              -0.000036576              -0.000391809               0.999999996              -0.000047251              -0.000418306               0.999999996              -0.000058100              -0.000445887               0.999999996              -0.000068940              -0.000474283               0.999999996              -0.000079710              -0.000503270               0.999999996              -0.000090412              -0.000532923               0.999999996              -0.000101208              -0.000563283               0.999999996              -0.000112213              -0.000594372               0.999999996              -0.000123619              -0.000626031               0.999999996              -0.000009734              -0.000330182               0.999999996               0.000006055              -0.000315402               0.999999996               0.000009480              -0.000312212               0.999999996               0.000007704              -0.000317078               0.999999996               0.000003355              -0.000327446               0.999999996              -0.000002455              -0.000341953               0.999999996              -0.000009419              -0.000359712               0.999999996              -0.000017411              -0.000380168               0.999999996              -0.000026025              -0.000402863               0.999999996              -0.000035031              -0.000427310               0.999999996              -0.000044201              -0.000453048               0.999999996              -0.000053441              -0.000479524               0.999999996              -0.000062404              -0.000506564               0.999999996              -0.000070916              -0.000534124               0.999999996              -0.000079158              -0.000562262               0.999999996              -0.000087350              -0.000591016               0.999999996              -0.000095486              -0.000620421               0.999999996              -0.000008278              -0.000346250               0.999999996               0.000006233              -0.000336056               0.999999996               0.000010265              -0.000333806               0.999999996               0.000009602              -0.000338016               0.999999996               0.000006607              -0.000347092               0.999999996               0.000002095              -0.000359920               0.999999996              -0.000003486              -0.000375898               0.999999996              -0.000009897              -0.000394556               0.999999996              -0.000016815              -0.000415466               0.999999996              -0.000023947              -0.000438121               0.999999996              -0.000031401              -0.000462170               0.999999996              -0.000038903              -0.000487180               0.999999996              -0.000046067              -0.000512859               0.999999996              -0.000052650              -0.000538918               0.999999996              -0.000058642              -0.000565371               0.999999996              -0.000063990              -0.000592330               0.999999996              -0.000068637              -0.000619889               0.999999996              -0.000006541              -0.000359040               0.999999996               0.000005463              -0.000353195               0.999999996               0.000009446              -0.000352371               0.999999996               0.000009595              -0.000356609               0.999999996               0.000007719              -0.000364989               0.999999996               0.000004533              -0.000376803               0.999999996               0.000000406              -0.000391496               0.999999996              -0.000004248              -0.000408801               0.999999996              -0.000009408              -0.000428350               0.999999996              -0.000014832              -0.000449632               0.999999996              -0.000020352              -0.000472351               0.999999996              -0.000025903              -0.000496316               0.999999996              -0.000031357              -0.000521093               0.999999996              -0.000036232              -0.000546333               0.999999996              -0.000040265              -0.000571937               0.999999996              -0.000043251              -0.000597898               0.999999996              -0.000044940              -0.000624247               0.999999996              -0.000004550              -0.000368331               0.999999996               0.000004032              -0.000366127               0.999999996               0.000007216              -0.000366807               0.999999996               0.000007719              -0.000371417               0.999999996               0.000006652              -0.000379620               0.999999996               0.000004648              -0.000390878               0.999999996               0.000002054              -0.000404797               0.999999996              -0.000000911              -0.000421152               0.999999996              -0.000004402              -0.000439611               0.999999996              -0.000008060              -0.000459895               0.999999996              -0.000011608              -0.000481764               0.999999996              -0.000015341              -0.000504874               0.999999996              -0.000019166              -0.000528968               0.999999996              -0.000022486              -0.000553833               0.999999996              -0.000024800              -0.000579229               0.999999996              -0.000026052              -0.000604940               0.999999996              -0.000026002              -0.000630829               0.999999996              -0.000002342              -0.000373975               0.999999996               0.000002146              -0.000374145               0.999999996               0.000003877              -0.000375952               0.999999996               0.000004293              -0.000380977               0.999999996               0.000003820              -0.000389226               0.999999996               0.000002874              -0.000400271               0.999999996               0.000001693              -0.000413748               0.999999996               0.000000242              -0.000429423               0.999999996              -0.000001590              -0.000447222               0.999999996              -0.000003444              -0.000466972               0.999999996              -0.000005208              -0.000488363               0.999999996              -0.000007142              -0.000511061               0.999999996              -0.000009075              -0.000534876               0.999999996              -0.000010691              -0.000559627               0.999999996              -0.000011698              -0.000585009               0.999999996              -0.000011949              -0.000610735               0.999999996              -0.000011408              -0.000636557               0.999999996              -0.000000000              -0.000375902               0.999999996              -0.000000000              -0.000376881               0.999999996              -0.000000000              -0.000379122               0.999999996              -0.000000000              -0.000384365               0.999999996              -0.000000000              -0.000392621               0.999999996               0.000000000              -0.000403581               0.999999996               0.000000000              -0.000416909               0.999999996               0.000000000              -0.000432296               0.999999996               0.000000000              -0.000449867               0.999999996               0.000000000              -0.000469449               0.999999996               0.000000000              -0.000490679               0.999999996              -0.000000000              -0.000513389               0.999999996              -0.000000000              -0.000537233               0.999999996              -0.000000000              -0.000561960               0.999999996              -0.000000000              -0.000587293               0.999999996              -0.000000000              -0.000612953               0.999999996              -0.000000000              -0.000638737               0.999999996               0.000018459              -0.000000000               0.999999996               0.000033680              -0.000000000               0.999999996               0.000041338              -0.000000000               0.999999996               0.000046067              -0.000000000               0.999999996               0.000049821               0.000000000               0.999999996               0.000053443               0.000000000               0.999999996               0.000057293              -0.000000000               0.999999996               0.000061573              -0.000000000               0.999999996               0.000066449              -0.000000000               0.999999996               0.000071950               0.000000000               0.999999996               0.000077955               0.000000000               0.999999996               0.000084573               0.000000000               0.999999996               0.000091816               0.000000000               0.999999996               0.000099668               0.000000000               0.999999996               0.000108102               0.000000000               0.999999996               0.000117091               0.000000000               0.999999996               0.000126620               0.000000000               0.999999996               0.000018367              -0.000037441               0.999999996               0.000032974              -0.000033309               0.999999996               0.000040263              -0.000032344               0.999999996               0.000044796              -0.000033120               0.999999996               0.000048452              -0.000034892               0.999999996               0.000052097              -0.000037317               0.999999996               0.000056052              -0.000040239               0.999999996               0.000060499              -0.000043549               0.999999996               0.000065509              -0.000047158               0.999999996               0.000071062              -0.000050877               0.999999996               0.000077164              -0.000054774               0.999999996               0.000083872              -0.000058879               0.999999996               0.000091209              -0.000063104               0.999999996               0.000099157              -0.000067415               0.999999996               0.000107700              -0.000071700               0.999999996               0.000116796              -0.000075928               0.999999996               0.000126390              -0.000079911               0.999999996               0.000018026              -0.000074454               0.999999996               0.000030834              -0.000066209               0.999999996               0.000037134              -0.000064417               0.999999996               0.000041236              -0.000066065               0.999999996               0.000044798              -0.000069758               0.999999996               0.000048578              -0.000074786               0.999999996               0.000052799              -0.000080715               0.999999996               0.000057536              -0.000087365               0.999999996               0.000062883              -0.000094544               0.999999996               0.000068800              -0.000101992               0.999999996               0.000075268              -0.000109825               0.999999996               0.000082348              -0.000118056               0.999999996               0.000090040              -0.000126575               0.999999996               0.000098317              -0.000135235               0.999999996               0.000107150              -0.000143881               0.999999996               0.000116479              -0.000152467               0.999999996               0.000126308              -0.000160869               0.999999996               0.000017480              -0.000110572               0.999999996               0.000027388              -0.000098319               0.999999996               0.000032277              -0.000095988               0.999999996               0.000035897              -0.000098852               0.999999996               0.000039478              -0.000104659               0.999999996               0.000043539              -0.000112390               0.999999996               0.000048223              -0.000121422               0.999999996               0.000053528              -0.000131397               0.999999996               0.000059454              -0.000142181               0.999999996               0.000066052              -0.000153374               0.999999996               0.000073280              -0.000165065               0.999999996               0.000081105              -0.000177395               0.999999996               0.000089508              -0.000190169               0.999999996               0.000098415              -0.000203162               0.999999996               0.000107809              -0.000216236               0.999999996               0.000117689              -0.000229462               0.999999996               0.000128124              -0.000242937               0.999999996               0.000016696              -0.000145394               0.999999996               0.000022864              -0.000129386               0.999999996               0.000026291              -0.000126918               0.999999996               0.000029543              -0.000131241               0.999999996               0.000033319              -0.000139373               0.999999996               0.000037903              -0.000149900               0.999999996               0.000043223              -0.000162040               0.999999996               0.000049355              -0.000175397               0.999999996               0.000056282              -0.000189758               0.999999996               0.000063957              -0.000204807               0.999999996               0.000072293              -0.000220400               0.999999996               0.000081215              -0.000236744               0.999999996               0.000090640              -0.000253675               0.999999996               0.000100530              -0.000271033               0.999999996               0.000110897              -0.000288781               0.999999996               0.000121828              -0.000307041               0.999999996               0.000133425              -0.000326043               0.999999996               0.000015740              -0.000178573               0.999999996               0.000017663              -0.000159234               0.999999996               0.000019720              -0.000157045               0.999999996               0.000022895              -0.000163023               0.999999996               0.000027243              -0.000173605               0.999999996               0.000032618              -0.000186924               0.999999996               0.000038998              -0.000202206               0.999999996               0.000046321              -0.000218991               0.999999996               0.000054459              -0.000236971               0.999999996               0.000063395              -0.000255981               0.999999996               0.000073033              -0.000275593               0.999999996               0.000083269              -0.000295951               0.999999996               0.000094046              -0.000317113               0.999999996               0.000105313              -0.000338917               0.999999996               0.000117171              -0.000361514               0.999999996               0.000129695              -0.000384972               0.999999996               0.000142807              -0.000409464               0.999999996               0.000014717              -0.000209768               0.999999996               0.000012109              -0.000187746               0.999999996               0.000013131              -0.000186133               0.999999996               0.000016636              -0.000193972               0.999999996               0.000021910              -0.000206965               0.999999996               0.000028420              -0.000223065               0.999999996               0.000036087              -0.000241677               0.999999996               0.000044739              -0.000261989               0.999999996               0.000054328              -0.000283716               0.999999996               0.000064767              -0.000306657               0.999999996               0.000075995              -0.000330325               0.999999996               0.000087829              -0.000354753               0.999999996               0.000100276              -0.000380176               0.999999996               0.000113293              -0.000406570               0.999999996               0.000126898              -0.000433977               0.999999996               0.000140943              -0.000462334               0.999999996               0.000155168              -0.000491220               0.999999996               0.000013583              -0.000238678               0.999999996               0.000006513              -0.000214856               0.999999996               0.000007048              -0.000214051               0.999999996               0.000011366              -0.000223675               0.999999996               0.000017789              -0.000239123               0.999999996               0.000025620              -0.000258170               0.999999996               0.000034696              -0.000280131               0.999999996               0.000044864              -0.000304078               0.999999996               0.000056177              -0.000329608               0.999999996               0.000068352              -0.000356549               0.999999996               0.000081215              -0.000384370               0.999999996               0.000094651              -0.000413018               0.999999996               0.000108625              -0.000442784               0.999999996               0.000123044              -0.000473667               0.999999996               0.000137790              -0.000505541               0.999999996               0.000152566              -0.000538007               0.999999996               0.000167109              -0.000570409               0.999999996               0.000012539              -0.000264821               0.999999996               0.000001227              -0.000240467               0.999999996               0.000001924              -0.000240564               0.999999996               0.000007271              -0.000252001               0.999999996               0.000015040              -0.000269900               0.999999996               0.000024233              -0.000291986               0.999999996               0.000034892              -0.000317346               0.999999996               0.000046837              -0.000345093               0.999999996               0.000059853              -0.000374645               0.999999996               0.000073552              -0.000405546               0.999999996               0.000087707              -0.000437466               0.999999996               0.000102269              -0.000470357               0.999999996               0.000117246              -0.000504465               0.999999996               0.000132528              -0.000539571               0.999999996               0.000147934              -0.000575383               0.999999996               0.000163344              -0.000611394               0.999999996               0.000178618              -0.000647137               0.999999996               0.000011883              -0.000289155               0.999999996              -0.000002394              -0.000266969               0.999999996              -0.000003208              -0.000264628               0.999999996               0.000001114              -0.000273148               0.999999996               0.000007897              -0.000288145               0.999999996               0.000016073              -0.000307444               0.999999996               0.000025574              -0.000330017               0.999999996               0.000036361              -0.000355263               0.999999996               0.000048005              -0.000382484               0.999999996               0.000060186              -0.000411156               0.999999996               0.000072605              -0.000440846               0.999999996               0.000085210              -0.000471331               0.999999996               0.000098040              -0.000502669               0.999999996               0.000111035              -0.000534898               0.999999996               0.000124255              -0.000567979               0.999999996               0.000137838              -0.000601617               0.999999996               0.000151770              -0.000635527               0.999999996               0.000010918              -0.000311070               0.999999996              -0.000004801              -0.000292126               0.999999996              -0.000007099              -0.000288821               0.999999996              -0.000004026              -0.000295084               0.999999996               0.000001572              -0.000307477               0.999999996               0.000008694              -0.000324169               0.999999996               0.000016993              -0.000344164               0.999999996               0.000026416              -0.000366919               0.999999996               0.000036576              -0.000391809               0.999999996               0.000047251              -0.000418306               0.999999996               0.000058100              -0.000445887               0.999999996               0.000068940              -0.000474283               0.999999996               0.000079710              -0.000503270               0.999999996               0.000090412              -0.000532923               0.999999996               0.000101208              -0.000563283               0.999999996               0.000112213              -0.000594372               0.999999996               0.000123619              -0.000626031               0.999999996               0.000009734              -0.000330182               0.999999996              -0.000006055              -0.000315402               0.999999996              -0.000009480              -0.000312212               0.999999996              -0.000007704              -0.000317078               0.999999996              -0.000003355              -0.000327446               0.999999996               0.000002455              -0.000341953               0.999999996               0.000009419              -0.000359712               0.999999996               0.000017411              -0.000380168               0.999999996               0.000026025              -0.000402863               0.999999996               0.000035031              -0.000427310               0.999999996               0.000044201              -0.000453048               0.999999996               0.000053441              -0.000479524               0.999999996               0.000062404              -0.000506564               0.999999996               0.000070916              -0.000534124               0.999999996               0.000079158              -0.000562262               0.999999996               0.000087350              -0.000591016               0.999999996               0.000095486              -0.000620421               0.999999996               0.000008278              -0.000346250               0.999999996              -0.000006233              -0.000336056               0.999999996              -0.000010265              -0.000333806               0.999999996              -0.000009602              -0.000338016               0.999999996              -0.000006607              -0.000347092               0.999999996              -0.000002095              -0.000359920               0.999999996               0.000003486              -0.000375898               0.999999996               0.000009897              -0.000394556               0.999999996               0.000016815              -0.000415466               0.999999996               0.000023947              -0.000438121               0.999999996               0.000031401              -0.000462170               0.999999996               0.000038903              -0.000487180               0.999999996               0.000046067              -0.000512859               0.999999996               0.000052650              -0.000538918               0.999999996               0.000058642              -0.000565371               0.999999996               0.000063990              -0.000592330               0.999999996               0.000068637              -0.000619889               0.999999996               0.000006541              -0.000359040               0.999999996              -0.000005463              -0.000353195               0.999999996              -0.000009446              -0.000352371               0.999999996              -0.000009595              -0.000356609               0.999999996              -0.000007719              -0.000364989               0.999999996              -0.000004533              -0.000376803               0.999999996              -0.000000406              -0.000391496               0.999999996               0.000004248              -0.000408801               0.999999996               0.000009408              -0.000428350               0.999999996               0.000014832              -0.000449632               0.999999996               0.000020352              -0.000472351               0.999999996               0.000025903              -0.000496316               0.999999996               0.000031357              -0.000521093               0.999999996               0.000036232              -0.000546333               0.999999996               0.000040265              -0.000571937               0.999999996               0.000043251              -0.000597898               0.999999996               0.000044940              -0.000624247               0.999999996               0.000004550              -0.000368331               0.999999996              -0.000004032              -0.000366127               0.999999996              -0.000007216              -0.000366807               0.999999996              -0.000007719              -0.000371417               0.999999996              -0.000006652              -0.000379620               0.999999996              -0.000004648              -0.000390878               0.999999996              -0.000002054              -0.000404797               0.999999996               0.000000911              -0.000421152               0.999999996               0.000004402              -0.000439611               0.999999996               0.000008060              -0.000459895               0.999999996               0.000011608              -0.000481764               0.999999996               0.000015341              -0.000504874               0.999999996               0.000019166              -0.000528968               0.999999996               0.000022486              -0.000553833               0.999999996               0.000024800              -0.000579229               0.999999996               0.000026052              -0.000604940               0.999999996               0.000026002              -0.000630829               0.999999996               0.000002342              -0.000373975               0.999999996              -0.000002146              -0.000374145               0.999999996              -0.000003877              -0.000375952               0.999999996              -0.000004293              -0.000380977               0.999999996              -0.000003820              -0.000389226               0.999999996              -0.000002874              -0.000400271               0.999999996              -0.000001693              -0.000413748               0.999999996              -0.000000242              -0.000429423               0.999999996               0.000001590              -0.000447222               0.999999996               0.000003444              -0.000466972               0.999999996               0.000005208              -0.000488363               0.999999996               0.000007142              -0.000511061               0.999999996               0.000009075              -0.000534876               0.999999996               0.000010691              -0.000559627               0.999999996               0.000011698              -0.000585009               0.999999996               0.000011949              -0.000610735               0.999999996               0.000011408              -0.000636557               0.999999996              -0.000000000              -0.000375902               0.999999996              -0.000000000              -0.000376881               0.999999996              -0.000000000              -0.000379122               0.999999996              -0.000000000              -0.000384365               0.999999996              -0.000000000              -0.000392621               0.999999996               0.000000000              -0.000403581               0.999999996               0.000000000              -0.000416909               0.999999996               0.000000000              -0.000432296               0.999999996               0.000000000              -0.000449867               0.999999996               0.000000000              -0.000469449               0.999999996               0.000000000              -0.000490679               0.999999996              -0.000000000              -0.000513389               0.999999996              -0.000000000              -0.000537233               0.999999996              -0.000000000              -0.000561960               0.999999996              -0.000000000              -0.000587293               0.999999996              -0.000000000              -0.000612953               0.999999996              -0.000000000              -0.000638737               0.999999996               0.000018459              -0.000000000               0.999999996               0.000033680              -0.000000000               0.999999996               0.000041338              -0.000000000               0.999999996               0.000046067              -0.000000000               0.999999996               0.000049821               0.000000000               0.999999996               0.000053443               0.000000000               0.999999996               0.000057293              -0.000000000               0.999999996               0.000061573              -0.000000000               0.999999996               0.000066449              -0.000000000               0.999999996               0.000071950               0.000000000               0.999999996               0.000077955               0.000000000               0.999999996               0.000084573               0.000000000               0.999999996               0.000091816               0.000000000               0.999999996               0.000099668               0.000000000               0.999999996               0.000108102               0.000000000               0.999999996               0.000117091               0.000000000               0.999999996               0.000126620               0.000000000               0.999999996               0.000018367               0.000037441               0.999999996               0.000032974               0.000033309               0.999999996               0.000040263               0.000032344               0.999999996               0.000044796               0.000033120               0.999999996               0.000048452               0.000034892               0.999999996               0.000052097               0.000037317               0.999999996               0.000056052               0.000040239               0.999999996               0.000060499               0.000043549               0.999999996               0.000065509               0.000047158               0.999999996               0.000071062               0.000050877               0.999999996               0.000077164               0.000054774               0.999999996               0.000083872               0.000058879               0.999999996               0.000091209               0.000063104               0.999999996               0.000099157               0.000067415               0.999999996               0.000107700               0.000071700               0.999999996               0.000116796               0.000075928               0.999999996               0.000126390               0.000079911               0.999999996               0.000018026               0.000074454               0.999999996               0.000030834               0.000066209               0.999999996               0.000037134               0.000064417               0.999999996               0.000041236               0.000066065               0.999999996               0.000044798               0.000069758               0.999999996               0.000048578               0.000074786               0.999999996               0.000052799               0.000080715               0.999999996               0.000057536               0.000087365               0.999999996               0.000062883               0.000094544               0.999999996               0.000068800               0.000101992               0.999999996               0.000075268               0.000109825               0.999999996               0.000082348               0.000118056               0.999999996               0.000090040               0.000126575               0.999999996               0.000098317               0.000135235               0.999999996               0.000107150               0.000143881               0.999999996               0.000116479               0.000152467               0.999999996               0.000126308               0.000160869               0.999999996               0.000017480               0.000110572               0.999999996               0.000027388               0.000098319               0.999999996               0.000032277               0.000095988               0.999999996               0.000035897               0.000098852               0.999999996               0.000039478               0.000104659               0.999999996               0.000043539               0.000112390               0.999999996               0.000048223               0.000121422               0.999999996               0.000053528               0.000131397               0.999999996               0.000059454               0.000142181               0.999999996               0.000066052               0.000153374               0.999999996               0.000073280               0.000165065               0.999999996               0.000081105               0.000177395               0.999999996               0.000089508               0.000190169               0.999999996               0.000098415               0.000203162               0.999999996               0.000107809               0.000216236               0.999999996               0.000117689               0.000229462               0.999999996               0.000128124               0.000242937               0.999999996               0.000016696               0.000145394               0.999999996               0.000022864               0.000129386               0.999999996               0.000026291               0.000126918               0.999999996               0.000029543               0.000131241               0.999999996               0.000033319               0.000139373               0.999999996               0.000037903               0.000149900               0.999999996               0.000043223               0.000162040               0.999999996               0.000049355               0.000175397               0.999999996               0.000056282               0.000189758               0.999999996               0.000063957               0.000204807               0.999999996               0.000072293               0.000220400               0.999999996               0.000081215               0.000236744               0.999999996               0.000090640               0.000253675               0.999999996               0.000100530               0.000271033               0.999999996               0.000110897               0.000288781               0.999999996               0.000121828               0.000307041               0.999999996               0.000133425               0.000326043               0.999999996               0.000015740               0.000178573               0.999999996               0.000017663               0.000159234               0.999999996               0.000019720               0.000157045               0.999999996               0.000022895               0.000163023               0.999999996               0.000027243               0.000173605               0.999999996               0.000032618               0.000186924               0.999999996               0.000038998               0.000202206               0.999999996               0.000046321               0.000218991               0.999999996               0.000054459               0.000236971               0.999999996               0.000063395               0.000255981               0.999999996               0.000073033               0.000275593               0.999999996               0.000083269               0.000295951               0.999999996               0.000094046               0.000317113               0.999999996               0.000105313               0.000338917               0.999999996               0.000117171               0.000361514               0.999999996               0.000129695               0.000384972               0.999999996               0.000142807               0.000409464               0.999999996               0.000014717               0.000209768               0.999999996               0.000012109               0.000187746               0.999999996               0.000013131               0.000186133               0.999999996               0.000016636               0.000193972               0.999999996               0.000021910               0.000206965               0.999999996               0.000028420               0.000223065               0.999999996               0.000036087               0.000241677               0.999999996               0.000044739               0.000261989               0.999999996               0.000054328               0.000283716               0.999999996               0.000064767               0.000306657               0.999999996               0.000075995               0.000330325               0.999999996               0.000087829               0.000354753               0.999999996               0.000100276               0.000380176               0.999999996               0.000113293               0.000406570               0.999999996               0.000126898               0.000433977               0.999999996               0.000140943               0.000462334               0.999999996               0.000155168               0.000491220               0.999999996               0.000013583               0.000238678               0.999999996               0.000006513               0.000214856               0.999999996               0.000007048               0.000214051               0.999999996               0.000011366               0.000223675               0.999999996               0.000017789               0.000239123               0.999999996               0.000025620               0.000258170               0.999999996               0.000034696               0.000280131               0.999999996               0.000044864               0.000304078               0.999999996               0.000056177               0.000329608               0.999999996               0.000068352               0.000356549               0.999999996               0.000081215               0.000384370               0.999999996               0.000094651               0.000413018               0.999999996               0.000108625               0.000442784               0.999999996               0.000123044               0.000473667               0.999999996               0.000137790               0.000505541               0.999999996               0.000152566               0.000538007               0.999999996               0.000167109               0.000570409               0.999999996               0.000012539               0.000264821               0.999999996               0.000001227               0.000240467               0.999999996               0.000001924               0.000240564               0.999999996               0.000007271               0.000252001               0.999999996               0.000015040               0.000269900               0.999999996               0.000024233               0.000291986               0.999999996               0.000034892               0.000317346               0.999999996               0.000046837               0.000345093               0.999999996               0.000059853               0.000374645               0.999999996               0.000073552               0.000405546               0.999999996               0.000087707               0.000437466               0.999999996               0.000102269               0.000470357               0.999999996               0.000117246               0.000504465               0.999999996               0.000132528               0.000539571               0.999999996               0.000147934               0.000575383               0.999999996               0.000163344               0.000611394               0.999999996               0.000178618               0.000647137               0.999999996               0.000011883               0.000289155               0.999999996              -0.000002394               0.000266969               0.999999996              -0.000003208               0.000264628               0.999999996               0.000001114               0.000273148               0.999999996               0.000007897               0.000288145               0.999999996               0.000016073               0.000307444               0.999999996               0.000025574               0.000330017               0.999999996               0.000036361               0.000355263               0.999999996               0.000048005               0.000382484               0.999999996               0.000060186               0.000411156               0.999999996               0.000072605               0.000440846               0.999999996               0.000085210               0.000471331               0.999999996               0.000098040               0.000502669               0.999999996               0.000111035               0.000534898               0.999999996               0.000124255               0.000567979               0.999999996               0.000137838               0.000601617               0.999999996               0.000151770               0.000635527               0.999999996               0.000010918               0.000311070               0.999999996              -0.000004801               0.000292126               0.999999996              -0.000007099               0.000288821               0.999999996              -0.000004026               0.000295084               0.999999996               0.000001572               0.000307477               0.999999996               0.000008694               0.000324169               0.999999996               0.000016993               0.000344164               0.999999996               0.000026416               0.000366919               0.999999996               0.000036576               0.000391809               0.999999996               0.000047251               0.000418306               0.999999996               0.000058100               0.000445887               0.999999996               0.000068940               0.000474283               0.999999996               0.000079710               0.000503270               0.999999996               0.000090412               0.000532923               0.999999996               0.000101208               0.000563283               0.999999996               0.000112213               0.000594372               0.999999996               0.000123619               0.000626031               0.999999996               0.000009734               0.000330182               0.999999996              -0.000006055               0.000315402               0.999999996              -0.000009480               0.000312212               0.999999996              -0.000007704               0.000317078               0.999999996              -0.000003355               0.000327446               0.999999996               0.000002455               0.000341953               0.999999996               0.000009419               0.000359712               0.999999996               0.000017411               0.000380168               0.999999996               0.000026025               0.000402863               0.999999996               0.000035031               0.000427310               0.999999996               0.000044201               0.000453048               0.999999996               0.000053441               0.000479524               0.999999996               0.000062404               0.000506564               0.999999996               0.000070916               0.000534124               0.999999996               0.000079158               0.000562262               0.999999996               0.000087350               0.000591016               0.999999996               0.000095486               0.000620421               0.999999996               0.000008278               0.000346250               0.999999996              -0.000006233               0.000336056               0.999999996              -0.000010265               0.000333806               0.999999996              -0.000009602               0.000338016               0.999999996              -0.000006607               0.000347092               0.999999996              -0.000002095               0.000359920               0.999999996               0.000003486               0.000375898               0.999999996               0.000009897               0.000394556               0.999999996               0.000016815               0.000415466               0.999999996               0.000023947               0.000438121               0.999999996               0.000031401               0.000462170               0.999999996               0.000038903               0.000487180               0.999999996               0.000046067               0.000512859               0.999999996               0.000052650               0.000538918               0.999999996               0.000058642               0.000565371               0.999999996               0.000063990               0.000592330               0.999999996               0.000068637               0.000619889               0.999999996               0.000006541               0.000359040               0.999999996              -0.000005463               0.000353195               0.999999996              -0.000009446               0.000352371               0.999999996              -0.000009595               0.000356609               0.999999996              -0.000007719               0.000364989               0.999999996              -0.000004533               0.000376803               0.999999996              -0.000000406               0.000391496               0.999999996               0.000004248               0.000408801               0.999999996               0.000009408               0.000428350               0.999999996               0.000014832               0.000449632               0.999999996               0.000020352               0.000472351               0.999999996               0.000025903               0.000496316               0.999999996               0.000031357               0.000521093               0.999999996               0.000036232               0.000546333               0.999999996               0.000040265               0.000571937               0.999999996               0.000043251               0.000597898               0.999999996               0.000044940               0.000624247               0.999999996               0.000004550               0.000368331               0.999999996              -0.000004032               0.000366127               0.999999996              -0.000007216               0.000366807               0.999999996              -0.000007719               0.000371417               0.999999996              -0.000006652               0.000379620               0.999999996              -0.000004648               0.000390878               0.999999996              -0.000002054               0.000404797               0.999999996               0.000000911               0.000421152               0.999999996               0.000004402               0.000439611               0.999999996               0.000008060               0.000459895               0.999999996               0.000011608               0.000481764               0.999999996               0.000015341               0.000504874               0.999999996               0.000019166               0.000528968               0.999999996               0.000022486               0.000553833               0.999999996               0.000024800               0.000579229               0.999999996               0.000026052               0.000604940               0.999999996               0.000026002               0.000630829               0.999999996               0.000002342               0.000373975               0.999999996              -0.000002146               0.000374145               0.999999996              -0.000003877               0.000375952               0.999999996              -0.000004293               0.000380977               0.999999996              -0.000003820               0.000389226               0.999999996              -0.000002874               0.000400271               0.999999996              -0.000001693               0.000413748               0.999999996              -0.000000242               0.000429423               0.999999996               0.000001590               0.000447222               0.999999996               0.000003444               0.000466972               0.999999996               0.000005208               0.000488363               0.999999996               0.000007142               0.000511061               0.999999996               0.000009075               0.000534876               0.999999996               0.000010691               0.000559627               0.999999996               0.000011698               0.000585009               0.999999996               0.000011949               0.000610735               0.999999996               0.000011408               0.000636557               0.999999996               0.000000000               0.000375902               0.999999996               0.000000000               0.000376881               0.999999996               0.000000000               0.000379122               0.999999996              -0.000000000               0.000384365               0.999999996              -0.000000000               0.000392621               0.999999996              -0.000000000               0.000403581               0.999999996              -0.000000000               0.000416909               0.999999996              -0.000000000               0.000432296               0.999999996               0.000000000               0.000449867               0.999999996              -0.000000000               0.000469449               0.999999996               0.000000000               0.000490679               0.999999996               0.000000000               0.000513389               0.999999996               0.000000000               0.000537233               0.999999996               0.000000000               0.000561960               0.999999996              -0.000000000               0.000587293               0.999999996              -0.000000000               0.000612953               0.999999996               0.000000000               0.000638737               0.999999996 </DataArray>
<DataArray type="Float64"                                    Name="defo"                                                      NumberOfComponents=" 3" format="ascii">
             -0.000018459              -0.000000000               0.999999996              -0.000033680               0.000000000               0.999999996              -0.000041338              -0.000000000               0.999999996              -0.000046067               0.000000000               0.999999996              -0.000049821              -0.000000000               0.999999996              -0.000053443              -0.000000000               0.999999996              -0.000057293              -0.000000000               0.999999996              -0.000061573              -0.000000000               0.999999996              -0.000066449              -0.000000000               0.999999996              -0.000071950              -0.000000000               0.999999996              -0.000077955              -0.000000000               0.999999996              -0.000084573               0.000000000               0.999999996              -0.000091816               0.000000000               0.999999996              -0.000099668               0.000000000               0.999999996              -0.000108102               0.000000000               0.999999996              -0.000117091               0.000000000               0.999999996              -0.000126620               0.000000000               0.999999996              -0.000018367               0.000037441               0.999999996              -0.000032974               0.000033309               0.999999996              -0.000040263               0.000032344               0.999999996              -0.000044796               0.000033120               0.999999996              -0.000048452               0.000034892               0.999999996              -0.000052097               0.000037317               0.999999996              -0.000056052               0.000040239               0.999999996              -0.000060499               0.000043549               0.999999996              -0.000065509               0.000047158               0.999999996              -0.000071062               0.000050877               0.999999996              -0.000077164               0.000054774               0.999999996              -0.000083872               0.000058879               0.999999996              -0.000091209               0.000063104               0.999999996              -0.000099157               0.000067415               0.999999996              -0.000107700               0.000071700               0.999999996              -0.000116796               0.000075928               0.999999996              -0.000126390               0.000079911               0.999999996              -0.000018026               0.000074454               0.999999996              -0.000030834               0.000066209               0.999999996              -0.000037134               0.000064417               0.999999996              -0.000041236               0.000066065               0.999999996              -0.000044798               0.000069758               0.999999996              -0.000048578               0.000074786               0.999999996              -0.000052799               0.000080715               0.999999996              -0.000057536               0.000087365               0.999999996              -0.000062883               0.000094544               0.999999996              -0.000068800               0.000101992               0.999999996              -0.000075268               0.000109825               0.999999996              -0.000082348               0.000118056               0.999999996              -0.000090040               0.000126575               0.999999996              -0.000098317               0.000135235               0.999999996              -0.000107150               0.000143881               0.999999996              -0.000116479               0.000152467               0.999999996              -0.000126308               0.000160869               0.999999996              -0.000017480               0.000110572               0.999999996              -0.000027388               0.000098319               0.999999996              -0.000032277               0.000095988               0.999999996              -0.000035897               0.000098852               0.999999996              -0.000039478               0.000104659               0.999999996              -0.000043539               0.000112390               0.999999996              -0.000048223               0.000121422               0.999999996              -0.000053528               0.000131397               0.999999996              -0.000059454               0.000142181               0.999999996              -0.000066052               0.000153374               0.999999996              -0.000073280               0.000165065               0.999999996              -0.000081105               0.000177395               0.999999996              -0.000089508               0.000190169               0.999999996              -0.000098415               0.000203162               0.999999996              -0.000107809               0.000216236               0.999999996              -0.000117689               0.000229462               0.999999996              -0.000128124               0.000242937               0.999999996              -0.000016696               0.000145394               0.999999996              -0.000022864               0.000129386               0.999999996              -0.000026291               0.000126918               0.999999996              -0.000029543               0.000131241               0.999999996              -0.000033319               0.000139373               0.999999996              -0.000037903               0.000149900               0.999999996              -0.000043223               0.000162040               0.999999996              -0.000049355               0.000175397               0.999999996              -0.000056282               0.000189758               0.999999996              -0.000063957               0.000204807               0.999999996              -0.000072293               0.000220400               0.999999996              -0.000081215               0.000236744               0.999999996              -0.000090640               0.000253675               0.999999996              -0.000100530               0.000271033               0.999999996              -0.000110897               0.000288781               0.999999996              -0.000121828               0.000307041               0.999999996              -0.000133425               0.000326043               0.999999996              -0.000015740               0.000178573               0.999999996              -0.000017663               0.000159234               0.999999996              -0.000019720               0.000157045               0.999999996              -0.000022895               0.000163023               0.999999996              -0.000027243               0.000173605               0.999999996              -0.000032618               0.000186924               0.999999996              -0.000038998               0.000202206               0.999999996              -0.000046321               0.000218991               0.999999996              -0.000054459               0.000236971               0.999999996              -0.000063395               0.000255981               0.999999996              -0.000073033               0.000275593               0.999999996              -0.000083269               0.000295951               0.999999996              -0.000094046               0.000317113               0.999999996              -0.000105313               0.000338917               0.999999996              -0.000117171               0.000361514               0.999999996              -0.000129695               0.000384972               0.999999996              -0.000142807               0.000409464               0.999999996              -0.000014717               0.000209768               0.999999996              -0.000012109               0.000187746               0.999999996              -0.000013131               0.000186133               0.999999996              -0.000016636               0.000193972               0.999999996              -0.000021910               0.000206965               0.999999996              -0.000028420               0.000223065               0.999999996              -0.000036087               0.000241677               0.999999996              -0.000044739               0.000261989               0.999999996              -0.000054328               0.000283716               0.999999996              -0.000064767               0.000306657               0.999999996              -0.000075995               0.000330325               0.999999996              -0.000087829               0.000354753               0.999999996              -0.000100276               0.000380176               0.999999996              -0.000113293               0.000406570               0.999999996              -0.000126898               0.000433977               0.999999996              -0.000140943               0.000462334               0.999999996              -0.000155168               0.000491220               0.999999996              -0.000013583               0.000238678               0.999999996              -0.000006513               0.000214856               0.999999996              -0.000007048               0.000214051               0.999999996              -0.000011366               0.000223675               0.999999996              -0.000017789               0.000239123               0.999999996              -0.000025620               0.000258170               0.999999996              -0.000034696               0.000280131               0.999999996              -0.000044864               0.000304078               0.999999996              -0.000056177               0.000329608               0.999999996              -0.000068352               0.000356549               0.999999996              -0.000081215               0.000384370               0.999999996              -0.000094651               0.000413018               0.999999996              -0.000108625               0.000442784               0.999999996              -0.000123044               0.000473667               0.999999996              -0.000137790               0.000505541               0.999999996              -0.000152566               0.000538007               0.999999996              -0.000167109               0.000570409               0.999999996              -0.000012539               0.000264821               0.999999996              -0.000001227               0.000240467               0.999999996              -0.000001924               0.000240564               0.999999996              -0.000007271               0.000252001               0.999999996              -0.000015040               0.000269900               0.999999996              -0.000024233               0.000291986               0.999999996              -0.000034892               0.000317346               0.999999996              -0.000046837               0.000345093               0.999999996              -0.000059853               0.000374645               0.999999996              -0.000073552               0.000405546               0.999999996              -0.000087707               0.000437466               0.999999996              -0.000102269               0.000470357               0.999999996              -0.000117246               0.000504465               0.999999996              -0.000132528               0.000539571               0.999999996              -0.000147934               0.000575383               0.999999996              -0.000163344               0.000611394               0.999999996              -0.000178618               0.000647137               0.999999996              -0.000011883               0.000289155               0.999999996               0.000002394               0.000266969               0.999999996               0.000003208               0.000264628               0.999999996              -0.000001114               0.000273148               0.999999996              -0.000007897               0.000288145               0.999999996              -0.000016073               0.000307444               0.999999996              -0.000025574               0.000330017               0.999999996              -0.000036361               0.000355263               0.999999996              -0.000048005               0.000382484               0.999999996              -0.000060186               0.000411156               0.999999996              -0.000072605               0.000440846               0.999999996              -0.000085210               0.000471331               0.999999996              -0.000098040               0.000502669               0.999999996              -0.000111035               0.000534898               0.999999996              -0.000124255               0.000567979               0.999999996              -0.000137838               0.000601617               0.999999996              -0.000151770               0.000635527               0.999999996              -0.000010918               0.000311070               0.999999996               0.000004801               0.000292126               0.999999996               0.000007099               0.000288821               0.999999996               0.000004026               0.000295084               0.999999996              -0.000001572               0.000307477               0.999999996              -0.000008694               0.000324169               0.999999996              -0.000016993               0.000344164               0.999999996              -0.000026416               0.000366919               0.999999996              -0.000036576               0.000391809               0.999999996              -0.000047251               0.000418306               0.999999996              -0.000058100               0.000445887               0.999999996              -0.000068940               0.000474283               0.999999996              -0.000079710               0.000503270               0.999999996              -0.000090412               0.000532923               0.999999996              -0.000101208               0.000563283               0.999999996              -0.000112213               0.000594372               0.999999996              -0.000123619               0.000626031               0.999999996              -0.000009734               0.000330182               0.999999996               0.000006055               0.000315402               0.999999996               0.000009480               0.000312212               0.999999996               0.000007704               0.000317078               0.999999996               0.000003355               0.000327446               0.999999996              -0.000002455               0.000341953               0.999999996              -0.000009419               0.000359712               0.999999996              -0.000017411               0.000380168               0.999999996              -0.000026025               0.000402863               0.999999996              -0.000035031               0.000427310               0.999999996              -0.000044201               0.000453048               0.999999996              -0.000053441               0.000479524               0.999999996              -0.000062404               0.000506564               0.999999996              -0.000070916               0.000534124               0.999999996              -0.000079158               0.000562262               0.999999996              -0.000087350               0.000591016               0.999999996              -0.000095486               0.000620421               0.999999996              -0.000008278               0.000346250               0.999999996               0.000006233               0.000336056               0.999999996               0.000010265               0.000333806               0.999999996               0.000009602               0.000338016               0.999999996               0.000006607               0.000347092               0.999999996               0.000002095               0.000359920               0.999999996              -0.000003486               0.000375898               0.999999996              -0.000009897               0.000394556               0.999999996              -0.000016815               0.000415466               0.999999996              -0.000023947               0.000438121               0.999999996              -0.000031401               0.000462170               0.999999996              -0.000038903               0.000487180               0.999999996              -0.000046067               0.000512859               0.999999996              -0.000052650               0.000538918               0.999999996              -0.000058642               0.000565371               0.999999996              -0.000063990               0.000592330               0.999999996              -0.000068637               0.000619889               0.999999996              -0.000006541               0.000359040               0.999999996               0.000005463               0.000353195               0.999999996               0.000009446               0.000352371               0.999999996               0.000009595               0.000356609               0.999999996               0.000007719               0.000364989               0.999999996               0.000004533               0.000376803               0.999999996               0.000000406               0.000391496               0.999999996              -0.000004248               0.000408801               0.999999996              -0.000009408               0.000428350               0.999999996              -0.000014832               0.000449632               0.999999996              -0.000020352               0.000472351               0.999999996              -0.000025903               0.000496316               0.999999996              -0.000031357               0.000521093               0.999999996              -0.000036232               0.000546333               0.999999996              -0.000040265               0.000571937               0.999999996              -0.000043251               0.000597898               0.999999996              -0.000044940               0.000624247               0.999999996              -0.000004550               0.000368331               0.999999996               0.000004032               0.000366127               0.999999996               0.000007216               0.000366807               0.999999996               0.000007719               0.000371417               0.999999996               0.000006652               0.000379620               0.999999996               0.000004648               0.000390878               0.999999996               0.000002054               0.000404797               0.999999996              -0.000000911               0.000421152               0.999999996              -0.000004402               0.000439611               0.999999996              -0.000008060               0.000459895               0.999999996              -0.000011608               0.000481764               0.999999996              -0.000015341               0.000504874               0.999999996              -0.000019166               0.000528968               0.999999996              -0.000022486               0.000553833               0.999999996              -0.000024800               0.000579229               0.999999996              -0.000026052               0.000604940               0.999999996              -0.000026002               0.000630829               0.999999996              -0.000002342               0.000373975               0.999999996               0.000002146               0.000374145               0.999999996               0.000003877               0.000375952               0.999999996               0.000004293               0.000380977               0.999999996               0.000003820               0.000389226               0.999999996               0.000002874               0.000400271               0.999999996               0.000001693               0.000413748               0.999999996               0.000000242               0.000429423               0.999999996              -0.000001590               0.000447222               0.999999996              -0.000003444               0.000466972               0.999999996              -0.000005208               0.000488363               0.999999996              -0.000007142               0.000511061               0.999999996              -0.000009075               0.000534876               0.999999996              -0.000010691               0.000559627               0.999999996              -0.000011698               0.000585009               0.999999996              -0.000011949               0.000610735               0.999999996              -0.000011408               0.000636557               0.999999996               0.000000000               0.000375902               0.999999996               0.000000000               0.000376881               0.999999996               0.000000000               0.000379122               0.999999996              -0.000000000               0.000384365               0.999999996              -0.000000000               0.000392621               0.999999996              -0.000000000               0.000403581               0.999999996              -0.000000000               0.000416909               0.999999996              -0.000000000               0.000432296               0.999999996               0.000000000               0.000449867               0.999999996              -0.000000000               0.000469449               0.999999996               0.000000000               0.000490679               0.999999996               0.000000000               0.000513389               0.999999996               0.000000000               0.000537233               0.999999996               0.000000000               0.000561960               0.999999996              -0.000000000               0.000587293               0.999999996              -0.000000000               0.000612953               0.999999996               0.000000000               0.000638737               0.999999996              -0.000018459              -0.000000000               0.999999996              -0.000033680               0.000000000               0.999999996              -0.000041338              -0.000000000               0.999999996              -0.000046067               0.000000000               0.999999996              -0.000049821              -0.000000000               0.999999996              -0.000053443              -0.000000000               0.999999996              -0.000057293              -0.000000000               0.999999996              -0.000061573              -0.000000000               0.999999996              -0.000066449              -0.000000000               0.999999996              -0.000071950              -0.000000000               0.999999996              -0.000077955              -0.000000000               0.999999996              -0.000084573               0.000000000               0.999999996              -0.000091816               0.000000000               0.999999996              -0.000099668               0.000000000               0.999999996              -0.000108102               0.000000000               0.999999996              -0.000117091               0.000000000               0.999999996              -0.000126620               0.000000000               0.999999996              -0.000018367              -0.000037441               0.999999996              -0.000032974              -0.000033309               0.999999996              -0.000040263              -0.000032344               0.999999996              -0.000044796              -0.000033120               0.999999996              -0.000048452              -0.000034892               0.999999996              -0.000052097              -0.000037317               0.999999996              -0.000056052              -0.000040239               0.999999996              -0.000060499              -0.000043549               0.999999996              -0.000065509              -0.000047158               0.999999996              -0.000071062              -0.000050877               0.999999996              -0.000077164              -0.000054774               0.999999996              -0.000083872              -0.000058879               0.999999996              -0.000091209              -0.000063104               0.999999996              -0.000099157              -0.000067415               0.999999996              -0.000107700              -0.000071700               0.999999996              -0.000116796              -0.000075928               0.999999996              -0.000126390              -0.000079911               0.999999996              -0.000018026              -0.000074454               0.999999996              -0.000030834              -0.000066209               0.999999996              -0.000037134              -0.000064417               0.999999996              -0.000041236              -0.000066065               0.999999996              -0.000044798              -0.000069758               0.999999996              -0.000048578              -0.000074786               0.999999996              -0.000052799              -0.000080715               0.999999996              -0.000057536              -0.000087365               0.999999996              -0.000062883              -0.000094544               0.999999996              -0.000068800              -0.000101992               0.999999996              -0.000075268              -0.000109825               0.999999996              -0.000082348              -0.000118056               0.999999996              -0.000090040              -0.000126575               0.999999996              -0.000098317              -0.000135235               0.999999996              -0.000107150              -0.000143881               0.999999996              -0.000116479              -0.000152467               0.999999996              -0.000126308              -0.000160869               0.999999996              -0.000017480              -0.000110572               0.999999996              -0.000027388              -0.000098319               0.999999996              -0.000032277              -0.000095988               0.999999996              -0.000035897              -0.000098852               0.999999996              -0.000039478              -0.000104659               0.999999996              -0.000043539              -0.000112390               0.999999996              -0.000048223              -0.000121422               0.999999996              -0.000053528              -0.000131397               0.999999996              -0.000059454              -0.000142181               0.999999996              -0.000066052              -0.000153374               0.999999996              -0.000073280              -0.000165065               0.999999996              -0.000081105              -0.000177395               0.999999996              -0.000089508              -0.000190169               0.999999996              -0.000098415              -0.000203162               0.999999996              -0.000107809              -0.000216236               0.999999996              -0.000117689              -0.000229462               0.999999996              -0.000128124              -0.000242937               0.999999996              -0.000016696              -0.000145394               0.999999996              -0.000022864              -0.000129386               0.999999996              -0.000026291              -0.000126918               0.999999996              -0.000029543              -0.000131241               0.999999996              -0.000033319              -0.000139373               0.999999996              -0.000037903              -0.000149900               0.999999996              -0.000043223              -0.000162040               0.999999996              -0.000049355              -0.000175397               0.999999996              -0.000056282              -0.000189758               0.999999996              -0.000063957              -0.000204807               0.999999996              -0.000072293              -0.000220400               0.999999996              -0.000081215              -0.000236744               0.999999996              -0.000090640              -0.000253675               0.999999996              -0.000100530              -0.000271033               0.999999996              -0.000110897              -0.000288781               0.999999996              -0.000121828              -0.000307041               0.999999996              -0.000133425              -0.000326043               0.999999996              -0.000015740              -0.000178573               0.999999996              -0.000017663              -0.000159234               0.999999996              -0.000019720              -0.000157045               0.999999996              -0.000022895              -0.000163023               0.999999996              -0.000027243              -0.000173605               0.999999996              -0.000032618              -0.000186924               0.999999996              -0.000038998              -0.000202206               0.999999996              -0.000046321              -0.000218991               0.999999996              -0.000054459              -0.000236971               0.999999996              -0.000063395              -0.000255981               0.999999996              -0.000073033              -0.000275593               0.999999996              -0.000083269              -0.000295951               0.999999996              -0.000094046              -0.000317113               0.999999996              -0.000105313              -0.000338917               0.999999996              -0.000117171              -0.000361514               0.999999996              -0.000129695              -0.000384972               0.999999996              -0.000142807              -0.000409464               0.999999996              -0.000014717              -0.000209768               0.999999996              -0.000012109              -0.000187746               0.999999996              -0.000013131              -0.000186133               0.999999996              -0.000016636              -0.000193972               0.999999996              -0.000021910              -0.000206965               0.999999996              -0.000028420              -0.000223065               0.999999996              -0.000036087              -0.000241677               0.999999996              -0.000044739              -0.000261989               0.999999996              -0.000054328              -0.000283716               0.999999996              -0.000064767              -0.000306657               0.999999996              -0.000075995              -0.000330325               0.999999996              -0.000087829              -0.000354753               0.999999996              -0.000100276              -0.000380176               0.999999996              -0.000113293              -0.000406570               0.999999996              -0.000126898              -0.000433977               0.999999996              -0.000140943              -0.000462334               0.999999996              -0.000155168              -0.000491220               0.999999996              -0.000013583              -0.000238678               0.999999996              -0.000006513              -0.000214856               0.999999996              -0.000007048              -0.000214051               0.999999996              -0.000011366              -0.000223675               0.999999996              -0.000017789              -0.000239123               0.999999996              -0.000025620              -0.000258170               0.999999996              -0.000034696              -0.000280131               0.999999996              -0.000044864              -0.000304078               0.999999996              -0.000056177              -0.000329608               0.999999996              -0.000068352              -0.000356549               0.999999996              -0.000081215              -0.000384370               0.999999996              -0.000094651              -0.000413018               0.999999996              -0.000108625              -0.000442784               0.999999996              -0.000123044              -0.000473667               0.999999996              -0.000137790              -0.000505541               0.999999996              -0.000152566              -0.000538007               0.999999996              -0.000167109              -0.000570409               0.999999996              -0.000012539              -0.000264821               0.999999996              -0.000001227              -0.000240467               0.999999996              -0.000001924              -0.000240564               0.999999996              -0.000007271              -0.000252001               0.999999996              -0.000015040              -0.000269900               0.999999996              -0.000024233              -0.000291986               0.999999996              -0.000034892              -0.000317346               0.999999996              -0.000046837              -0.000345093               0.999999996              -0.000059853              -0.000374645               0.999999996              -0.000073552              -0.000405546               0.999999996              -0.000087707              -0.000437466               0.999999996              -0.000102269              -0.000470357               0.999999996              -0.000117246              -0.000504465               0.999999996              -0.000132528              -0.000539571               0.999999996              -0.000147934              -0.000575383               0.999999996              -0.000163344              -0.000611394               0.999999996              -0.000178618              -0.000647137               0.999999996              -0.000011883              -0.000289155               0.999999996               0.000002394              -0.000266969               0.999999996               0.000003208              -0.000264628               0.999999996              -0.000001114              -0.000273148               0.999999996              -0.000007897              -0.000288145               0.999999996              -0.000016073              -0.000307444               0.999999996              -0.000025574              -0.000330017               0.999999996              -0.000036361              -0.000355263               0.999999996              -0.000048005              -0.000382484               0.999999996              -0.000060186              -0.000411156               0.999999996              -0.000072605              -0.000440846               0.999999996              -0.000085210              -0.000471331               0.999999996              -0.000098040              -0.000502669               0.999999996              -0.000111035              -0.000534898               0.999999996              -0.000124255              -0.000567979               0.999999996              -0.000137838              -0.000601617               0.999999996              -0.000151770              -0.000635527               0.999999996              -0.000010918              -0.000311070               0.999999996               0.000004801              -0.000292126               0.999999996               0.000007099              -0.000288821               0.999999996               0.000004026              -0.000295084               0.999999996              -0.000001572              -0.000307477               0.999999996              -0.000008694              -0.000324169               0.999999996              -0.000016993              -0.000344164               0.999999996              -0.000026416              -0.000366919               0.999999996              -0.000036576              -0.000391809               0.999999996              -0.000047251              -0.000418306               0.999999996              -0.000058100              -0.000445887               0.999999996              -0.000068940              -0.000474283               0.999999996              -0.000079710              -0.000503270               0.999999996              -0.000090412              -0.000532923               0.999999996              -0.000101208              -0.000563283               0.999999996              -0.000112213              -0.000594372               0.999999996              -0.000123619              -0.000626031               0.999999996              -0.000009734              -0.000330182               0.999999996               0.000006055              -0.000315402               0.999999996               0.000009480              -0.000312212               0.999999996               0.000007704              -0.000317078               0.999999996               0.000003355              -0.000327446               0.999999996              -0.000002455              -0.000341953               0.999999996              -0.000009419              -0.000359712               0.999999996              -0.000017411              -0.000380168               0.999999996              -0.000026025              -0.000402863               0.999999996              -0.000035031              -0.000427310               0.999999996              -0.000044201              -0.000453048               0.999999996              -0.000053441              -0.000479524               0.999999996              -0.000062404              -0.000506564               0.999999996              -0.000070916              -0.000534124               0.999999996              -0.000079158              -0.000562262               0.999999996              -0.000087350              -0.000591016               0.999999996              -0.000095486              -0.000620421               0.999999996              -0.000008278              -0.000346250               0.999999996               0.000006233              -0.000336056               0.999999996               0.000010265              -0.000333806               0.999999996               0.000009602              -0.000338016               0.999999996               0.000006607              -0.000347092               0.999999996               0.000002095              -0.000359920               0.999999996              -0.000003486              -0.000375898               0.999999996              -0.000009897              -0.000394556               0.999999996              -0.000016815              -0.000415466               0.999999996              -0.000023947              -0.000438121               0.999999996              -0.000031401              -0.000462170               0.999999996              -0.000038903              -0.000487180               0.999999996              -0.000046067              -0.000512859               0.999999996              -0.000052650              -0.000538918               0.999999996              -0.000058642              -0.000565371               0.999999996              -0.000063990              -0.000592330               0.999999996              -0.000068637              -0.000619889               0.999999996              -0.000006541              -0.000359040               0.999999996               0.000005463              -0.000353195               0.999999996               0.000009446              -0.000352371               0.999999996               0.000009595              -0.000356609               0.999999996               0.000007719              -0.000364989               0.999999996               0.000004533              -0.000376803               0.999999996               0.000000406              -0.000391496               0.999999996              -0.000004248              -0.000408801               0.999999996              -0.000009408              -0.000428350               0.999999996              -0.000014832              -0.000449632               0.999999996              -0.000020352              -0.000472351               0.999999996              -0.000025903              -0.000496316               0.999999996              -0.000031357              -0.000521093               0.999999996              -0.000036232              -0.000546333               0.999999996              -0.000040265              -0.000571937               0.999999996              -0.000043251              -0.000597898               0.999999996              -0.000044940              -0.000624247               0.999999996              -0.000004550              -0.000368331               0.999999996               0.000004032              -0.000366127               0.999999996               0.000007216              -0.000366807               0.999999996               0.000007719              -0.000371417               0.999999996               0.000006652              -0.000379620               0.999999996               0.000004648              -0.000390878               0.999999996               0.000002054              -0.000404797               0.999999996              -0.000000911              -0.000421152               0.999999996              -0.000004402              -0.000439611               0.999999996              -0.000008060              -0.000459895               0.999999996              -0.000011608              -0.000481764               0.999999996              -0.000015341              -0.000504874               0.999999996              -0.000019166              -0.000528968               0.999999996              -0.000022486              -0.000553833               0.999999996              -0.000024800              -0.000579229               0.999999996              -0.000026052              -0.000604940               0.999999996              -0.000026002              -0.000630829               0.999999996              -0.000002342              -0.000373975               0.999999996               0.000002146              -0.000374145               0.999999996               0.000003877              -0.000375952               0.999999996               0.000004293              -0.000380977               0.999999996               0.000003820              -0.000389226               0.999999996               0.000002874              -0.000400271               0.999999996               0.000001693              -0.000413748               0.999999996               0.000000242              -0.000429423               0.999999996              -0.000001590              -0.000447222               0.999999996              -0.000003444              -0.000466972               0.999999996              -0.000005208              -0.000488363               0.999999996              -0.000007142              -0.000511061               0.999999996              -0.000009075              -0.000534876               0.999999996              -0.000010691              -0.000559627               0.999999996              -0.000011698              -0.000585009               0.999999996              -0.000011949              -0.000610735               0.999999996              -0.000011408              -0.000636557               0.999999996              -0.000000000              -0.000375902               0.999999996              -0.000000000              -0.000376881               0.999999996              -0.000000000              -0.000379122               0.999999996              -0.000000000              -0.000384365               0.999999996              -0.000000000              -0.000392621               0.999999996               0.000000000              -0.000403581               0.999999996               0.000000000              -0.000416909               0.999999996               0.000000000              -0.000432296               0.999999996               0.000000000              -0.000449867               0.999999996               0.000000000              -0.000469449               0.999999996               0.000000000              -0.000490679               0.999999996              -0.000000000              -0.000513389               0.999999996              -0.000000000              -0.000537233               0.999999996              -0.000000000              -0.000561960               0.999999996              -0.000000000              -0.000587293               0.999999996              -0.000000000              -0.000612953               0.999999996              -0.000000000              -0.000638737               0.999999996               0.000018459              -0.000000000               0.999999996               0.000033680              -0.000000000               0.999999996               0.000041338              -0.000000000               0.999999996               0.000046067              -0.000000000               0.999999996               0.000049821               0.000000000               0.999999996               0.000053443               0.000000000               0.999999996               0.000057293              -0.000000000               0.999999996               0.000061573              -0.000000000               0.999999996               0.000066449              -0.000000000               0.999999996               0.000071950               0.000000000               0.999999996               0.000077955               0.000000000               0.999999996               0.000084573               0.000000000               0.999999996               0.000091816               0.000000000               0.999999996               0.000099668               0.000000000               0.999999996               0.000108102               0.000000000               0.999999996               0.000117091               0.000000000               0.999999996               0.000126620               0.000000000               0.999999996               0.000018367              -0.000037441               0.999999996               0.000032974              -0.000033309               0.999999996               0.000040263              -0.000032344               0.999999996               0.000044796              -0.000033120               0.999999996               0.000048452              -0.000034892               0.999999996               0.000052097              -0.000037317               0.999999996               0.000056052              -0.000040239               0.999999996               0.000060499              -0.000043549               0.999999996               0.000065509              -0.000047158               0.999999996               0.000071062              -0.000050877               0.999999996               0.000077164              -0.000054774               0.999999996               0.000083872              -0.000058879               0.999999996               0.000091209              -0.000063104               0.999999996               0.000099157              -0.000067415               0.999999996               0.000107700              -0.000071700               0.999999996               0.000116796              -0.000075928               0.999999996               0.000126390              -0.000079911               0.999999996               0.000018026              -0.000074454               0.999999996               0.000030834              -0.000066209               0.999999996               0.000037134              -0.000064417               0.999999996               0.000041236              -0.000066065               0.999999996               0.000044798              -0.000069758               0.999999996               0.000048578              -0.000074786               0.999999996               0.000052799              -0.000080715               0.999999996               0.000057536              -0.000087365               0.999999996               0.000062883              -0.000094544               0.999999996               0.000068800              -0.000101992               0.999999996               0.000075268              -0.000109825               0.999999996               0.000082348              -0.000118056               0.999999996               0.000090040              -0.000126575               0.999999996               0.000098317              -0.000135235               0.999999996               0.000107150              -0.000143881               0.999999996               0.000116479              -0.000152467               0.999999996               0.000126308              -0.000160869               0.999999996               0.000017480              -0.000110572               0.999999996               0.000027388              -0.000098319               0.999999996               0.000032277              -0.000095988               0.999999996               0.000035897              -0.000098852               0.999999996               0.000039478              -0.000104659               0.999999996               0.000043539              -0.000112390               0.999999996               0.000048223              -0.000121422               0.999999996               0.000053528              -0.000131397               0.999999996               0.000059454              -0.000142181               0.999999996               0.000066052              -0.000153374               0.999999996               0.000073280              -0.000165065               0.999999996               0.000081105              -0.000177395               0.999999996               0.000089508              -0.000190169               0.999999996               0.000098415              -0.000203162               0.999999996               0.000107809              -0.000216236               0.999999996               0.000117689              -0.000229462               0.999999996               0.000128124              -0.000242937               0.999999996               0.000016696              -0.000145394               0.999999996               0.000022864              -0.000129386               0.999999996               0.000026291              -0.000126918               0.999999996               0.000029543              -0.000131241               0.999999996               0.000033319              -0.000139373               0.999999996               0.000037903              -0.000149900               0.999999996               0.000043223              -0.000162040               0.999999996               0.000049355              -0.000175397               0.999999996               0.000056282              -0.000189758               0.999999996               0.000063957              -0.000204807               0.999999996               0.000072293              -0.000220400               0.999999996               0.000081215              -0.000236744               0.999999996               0.000090640              -0.000253675               0.999999996               0.000100530              -0.000271033               0.999999996               0.000110897              -0.000288781               0.999999996               0.000121828              -0.000307041               0.999999996               0.000133425              -0.000326043               0.999999996               0.000015740              -0.000178573               0.999999996               0.000017663              -0.000159234               0.999999996               0.000019720              -0.000157045               0.999999996               0.000022895              -0.000163023               0.999999996               0.000027243              -0.000173605               0.999999996               0.000032618              -0.000186924               0.999999996               0.000038998              -0.000202206               0.999999996               0.000046321              -0.000218991               0.999999996               0.000054459              -0.000236971               0.999999996               0.000063395              -0.000255981               0.999999996               0.000073033              -0.000275593               0.999999996               0.000083269              -0.000295951               0.999999996               0.000094046              -0.000317113               0.999999996               0.000105313              -0.000338917               0.999999996               0.000117171              -0.000361514               0.999999996               0.000129695              -0.000384972               0.999999996               0.000142807              -0.000409464               0.999999996               0.000014717              -0.000209768               0.999999996               0.000012109              -0.000187746               0.999999996               0.000013131              -0.000186133               0.999999996               0.000016636              -0.000193972               0.999999996               0.000021910              -0.000206965               0.999999996               0.000028420              -0.000223065               0.999999996               0.000036087              -0.000241677               0.999999996               0.000044739              -0.000261989               0.999999996               0.000054328              -0.000283716               0.999999996               0.000064767              -0.000306657               0.999999996               0.000075995              -0.000330325               0.999999996               0.000087829              -0.000354753               0.999999996               0.000100276              -0.000380176               0.999999996               0.000113293              -0.000406570               0.999999996               0.000126898              -0.000433977               0.999999996               0.000140943              -0.000462334               0.999999996               0.000155168              -0.000491220               0.999999996               0.000013583              -0.000238678               0.999999996               0.000006513              -0.000214856               0.999999996               0.000007048              -0.000214051               0.999999996               0.000011366              -0.000223675               0.999999996               0.000017789              -0.000239123               0.999999996               0.000025620              -0.000258170               0.999999996               0.000034696              -0.000280131               0.999999996               0.000044864              -0.000304078               0.999999996               0.000056177              -0.000329608               0.999999996               0.000068352              -0.000356549               0.999999996               0.000081215              -0.000384370               0.999999996               0.000094651              -0.000413018               0.999999996               0.000108625              -0.000442784               0.999999996               0.000123044              -0.000473667               0.999999996               0.000137790              -0.000505541               0.999999996               0.000152566              -0.000538007               0.999999996               0.000167109              -0.000570409               0.999999996               0.000012539              -0.000264821               0.999999996               0.000001227              -0.000240467               0.999999996               0.000001924              -0.000240564               0.999999996               0.000007271              -0.000252001               0.999999996               0.000015040              -0.000269900               0.999999996               0.000024233              -0.000291986               0.999999996               0.000034892              -0.000317346               0.999999996               0.000046837              -0.000345093               0.999999996               0.000059853              -0.000374645               0.999999996               0.000073552              -0.000405546               0.999999996               0.000087707              -0.000437466               0.999999996               0.000102269              -0.000470357               0.999999996               0.000117246              -0.000504465               0.999999996               0.000132528              -0.000539571               0.999999996               0.000147934              -0.000575383               0.999999996               0.000163344              -0.000611394               0.999999996               0.000178618              -0.000647137               0.999999996               0.000011883              -0.000289155               0.999999996              -0.000002394              -0.000266969               0.999999996              -0.000003208              -0.000264628               0.999999996               0.000001114              -0.000273148               0.999999996               0.000007897              -0.000288145               0.999999996               0.000016073              -0.000307444               0.999999996               0.000025574              -0.000330017               0.999999996               0.000036361              -0.000355263               0.999999996               0.000048005              -0.000382484               0.999999996               0.000060186              -0.000411156               0.999999996               0.000072605              -0.000440846               0.999999996               0.000085210              -0.000471331               0.999999996               0.000098040              -0.000502669               0.999999996               0.000111035              -0.000534898               0.999999996               0.000124255              -0.000567979               0.999999996               0.000137838              -0.000601617               0.999999996               0.000151770              -0.000635527               0.999999996               0.000010918              -0.000311070               0.999999996              -0.000004801              -0.000292126               0.999999996              -0.000007099              -0.000288821               0.999999996              -0.000004026              -0.000295084               0.999999996               0.000001572              -0.000307477               0.999999996               0.000008694              -0.000324169               0.999999996               0.000016993              -0.000344164               0.999999996               0.000026416              -0.000366919               0.999999996               0.000036576              -0.000391809               0.999999996               0.000047251              -0.000418306               0.999999996               0.000058100              -0.000445887               0.999999996               0.000068940              -0.000474283               0.999999996               0.000079710              -0.000503270               0.999999996               0.000090412              -0.000532923               0.999999996               0.000101208              -0.000563283               0.999999996               0.000112213              -0.000594372               0.999999996               0.000123619              -0.000626031               0.999999996               0.000009734              -0.000330182               0.999999996              -0.000006055              -0.000315402               0.999999996              -0.000009480              -0.000312212               0.999999996              -0.000007704              -0.000317078               0.999999996              -0.000003355              -0.000327446               0.999999996               0.000002455              -0.000341953               0.999999996               0.000009419              -0.000359712               0.999999996               0.000017411              -0.000380168               0.999999996               0.000026025              -0.000402863               0.999999996               0.000035031              -0.000427310               0.999999996               0.000044201              -0.000453048               0.999999996               0.000053441              -0.000479524               0.999999996               0.000062404              -0.000506564               0.999999996               0.000070916              -0.000534124               0.999999996               0.000079158              -0.000562262               0.999999996               0.000087350              -0.000591016               0.999999996               0.000095486              -0.000620421               0.999999996               0.000008278              -0.000346250               0.999999996              -0.000006233              -0.000336056               0.999999996              -0.000010265              -0.000333806               0.999999996              -0.000009602              -0.000338016               0.999999996              -0.000006607              -0.000347092               0.999999996              -0.000002095              -0.000359920               0.999999996               0.000003486              -0.000375898               0.999999996               0.000009897              -0.000394556               0.999999996               0.000016815              -0.000415466               0.999999996               0.000023947              -0.000438121               0.999999996               0.000031401              -0.000462170               0.999999996               0.000038903              -0.000487180               0.999999996               0.000046067              -0.000512859               0.999999996               0.000052650              -0.000538918               0.999999996               0.000058642              -0.000565371               0.999999996               0.000063990              -0.000592330               0.999999996               0.000068637              -0.000619889               0.999999996               0.000006541              -0.000359040               0.999999996              -0.000005463              -0.000353195               0.999999996              -0.000009446              -0.000352371               0.999999996              -0.000009595              -0.000356609               0.999999996              -0.000007719              -0.000364989               0.999999996              -0.000004533              -0.000376803               0.999999996              -0.000000406              -0.000391496               0.999999996               0.000004248              -0.000408801               0.999999996               0.000009408              -0.000428350               0.999999996               0.000014832              -0.000449632               0.999999996               0.000020352              -0.000472351               0.999999996               0.000025903              -0.000496316               0.999999996               0.000031357              -0.000521093               0.999999996               0.000036232              -0.000546333               0.999999996               0.000040265              -0.000571937               0.999999996               0.000043251              -0.000597898               0.999999996               0.000044940              -0.000624247               0.999999996               0.000004550              -0.000368331               0.999999996              -0.000004032              -0.000366127               0.999999996              -0.000007216              -0.000366807               0.999999996              -0.000007719              -0.000371417               0.999999996              -0.000006652              -0.000379620               0.999999996              -0.000004648              -0.000390878               0.999999996              -0.000002054              -0.000404797               0.999999996               0.000000911              -0.000421152               0.999999996               0.000004402              -0.000439611               0.999999996               0.000008060              -0.000459895               0.999999996               0.000011608              -0.000481764               0.999999996               0.000015341              -0.000504874               0.999999996               0.000019166              -0.000528968               0.999999996               0.000022486              -0.000553833               0.999999996               0.000024800              -0.000579229               0.999999996               0.000026052              -0.000604940               0.999999996               0.000026002              -0.000630829               0.999999996               0.000002342              -0.000373975               0.999999996              -0.000002146              -0.000374145               0.999999996              -0.000003877              -0.000375952               0.999999996              -0.000004293              -0.000380977               0.999999996              -0.000003820              -0.000389226               0.999999996              -0.000002874              -0.000400271               0.999999996              -0.000001693              -0.000413748               0.999999996              -0.000000242              -0.000429423               0.999999996               0.000001590              -0.000447222               0.999999996               0.000003444              -0.000466972               0.999999996               0.000005208              -0.000488363               0.999999996               0.000007142              -0.000511061               0.999999996               0.000009075              -0.000534876               0.999999996               0.000010691              -0.000559627               0.999999996               0.000011698              -0.000585009               0.999999996               0.000011949              -0.000610735               0.999999996               0.000011408              -0.000636557               0.999999996              -0.000000000              -0.000375902               0.999999996              -0.000000000              -0.000376881               0.999999996              -0.000000000              -0.000379122               0.999999996              -0.000000000              -0.000384365               0.999999996              -0.000000000              -0.000392621               0.999999996               0.000000000              -0.000403581               0.999999996               0.000000000              -0.000416909               0.999999996               0.000000000              -0.000432296               0.999999996               0.000000000              -0.000449867               0.999999996               0.000000000              -0.000469449               0.999999996               0.000000000              -0.000490679               0.999999996              -0.000000000              -0.000513389               0.999999996              -0.000000000              -0.000537233               0.999999996              -0.000000000              -0.000561960               0.999999996              -0.000000000              -0.000587293               0.999999996              -0.000000000              -0.000612953               0.999999996              -0.000000000              -0.000638737               0.999999996               0.000018459              -0.000000000               0.999999996               0.000033680              -0.000000000               0.999999996               0.000041338              -0.000000000               0.999999996               0.000046067              -0.000000000               0.999999996               0.000049821               0.000000000               0.999999996               0.000053443               0.000000000               0.999999996               0.000057293              -0.000000000               0.999999996               0.000061573              -0.000000000               0.999999996               0.000066449              -0.000000000               0.999999996               0.000071950               0.000000000               0.999999996               0.000077955               0.000000000               0.999999996               0.000084573               0.000000000               0.999999996               0.000091816               0.000000000               0.999999996               0.000099668               0.000000000               0.999999996               0.000108102               0.000000000               0.999999996               0.000117091               0.000000000               0.999999996               0.000126620               0.000000000               0.999999996               0.000018367               0.000037441               0.999999996               0.000032974               0.000033309               0.999999996               0.000040263               0.000032344               0.999999996               0.000044796               0.000033120               0.999999996               0.000048452               0.000034892               0.999999996               0.000052097               0.000037317               0.999999996               0.000056052               0.000040239               0.999999996               0.000060499               0.000043549               0.999999996               0.000065509               0.000047158               0.999999996               0.000071062               0.000050877               0.999999996               0.000077164               0.000054774               0.999999996               0.000083872               0.000058879               0.999999996               0.000091209               0.000063104               0.999999996               0.000099157               0.000067415               0.999999996               0.000107700               0.000071700               0.999999996               0.000116796               0.000075928               0.999999996               0.000126390               0.000079911               0.999999996               0.000018026               0.000074454               0.999999996               0.000030834               0.000066209               0.999999996               0.000037134               0.000064417               0.999999996               0.000041236               0.000066065               0.999999996               0.000044798               0.000069758               0.999999996               0.000048578               0.000074786               0.999999996               0.000052799               0.000080715               0.999999996               0.000057536               0.000087365               0.999999996               0.000062883               0.000094544               0.999999996               0.000068800               0.000101992               0.999999996               0.000075268               0.000109825               0.999999996               0.000082348               0.000118056               0.999999996               0.000090040               0.000126575               0.999999996               0.000098317               0.000135235               0.999999996               0.000107150               0.000143881               0.999999996               0.000116479               0.000152467               0.999999996               0.000126308               0.000160869               0.999999996               0.000017480               0.000110572               0.999999996               0.000027388               0.000098319               0.999999996               0.000032277               0.000095988               0.999999996               0.000035897               0.000098852               0.999999996               0.000039478               0.000104659               0.999999996               0.000043539               0.000112390               0.999999996               0.000048223               0.000121422               0.999999996               0.000053528               0.000131397               0.999999996               0.000059454               0.000142181               0.999999996               0.000066052               0.000153374               0.999999996               0.000073280               0.000165065               0.999999996               0.000081105               0.000177395               0.999999996               0.000089508               0.000190169               0.999999996               0.000098415               0.000203162               0.999999996               0.000107809               0.000216236               0.999999996               0.000117689               0.000229462               0.999999996               0.000128124               0.000242937               0.999999996               0.000016696               0.000145394               0.999999996               0.000022864               0.000129386               0.999999996               0.000026291               0.000126918               0.999999996               0.000029543               0.000131241               0.999999996               0.000033319               0.000139373               0.999999996               0.000037903               0.000149900               0.999999996               0.000043223               0.000162040               0.999999996               0.000049355               0.000175397               0.999999996               0.000056282               0.000189758               0.999999996               0.000063957               0.000204807               0.999999996               0.000072293               0.000220400               0.999999996               0.000081215               0.000236744               0.999999996               0.000090640               0.000253675               0.999999996               0.000100530               0.000271033               0.999999996               0.000110897               0.000288781               0.999999996               0.000121828               0.000307041               0.999999996               0.000133425               0.000326043               0.999999996               0.000015740               0.000178573               0.999999996               0.000017663               0.000159234               0.999999996               0.000019720               0.000157045               0.999999996               0.000022895               0.000163023               0.999999996               0.000027243               0.000173605               0.999999996               0.000032618               0.000186924               0.999999996               0.000038998               0.000202206               0.999999996               0.000046321               0.000218991               0.999999996               0.000054459               0.000236971               0.999999996               0.000063395               0.000255981               0.999999996               0.000073033               0.000275593               0.999999996               0.000083269               0.000295951               0.999999996               0.000094046               0.000317113               0.999999996               0.000105313               0.000338917               0.999999996               0.000117171               0.000361514               0.999999996               0.000129695               0.000384972               0.999999996               0.000142807               0.000409464               0.999999996               0.000014717               0.000209768               0.999999996               0.000012109               0.000187746               0.999999996               0.000013131               0.000186133               0.999999996               0.000016636               0.000193972               0.999999996               0.000021910               0.000206965               0.999999996               0.000028420               0.000223065               0.999999996               0.000036087               0.000241677               0.999999996               0.000044739               0.000261989               0.999999996               0.000054328               0.000283716               0.999999996               0.000064767               0.000306657               0.999999996               0.000075995               0.000330325               0.999999996               0.000087829               0.000354753               0.999999996               0.000100276               0.000380176               0.999999996               0.000113293               0.000406570               0.999999996               0.000126898               0.000433977               0.999999996               0.000140943               0.000462334               0.999999996               0.000155168               0.000491220               0.999999996               0.000013583               0.000238678               0.999999996               0.000006513               0.000214856               0.999999996               0.000007048               0.000214051               0.999999996               0.000011366               0.000223675               0.999999996               0.000017789               0.000239123               0.999999996               0.000025620               0.000258170               0.999999996               0.000034696               0.000280131               0.999999996               0.000044864               0.000304078               0.999999996               0.000056177               0.000329608               0.999999996               0.000068352               0.000356549               0.999999996               0.000081215               0.000384370               0.999999996               0.000094651               0.000413018               0.999999996               0.000108625               0.000442784               0.999999996               0.000123044               0.000473667               0.999999996               0.000137790               0.000505541               0.999999996               0.000152566               0.000538007               0.999999996               0.000167109               0.000570409               0.999999996               0.000012539               0.000264821               0.999999996               0.000001227               0.000240467               0.999999996               0.000001924               0.000240564               0.999999996               0.000007271               0.000252001               0.999999996               0.000015040               0.000269900               0.999999996               0.000024233               0.000291986               0.999999996               0.000034892               0.000317346               0.999999996               0.000046837               0.000345093               0.999999996               0.000059853               0.000374645               0.999999996               0.000073552               0.000405546               0.999999996               0.000087707               0.000437466               0.999999996               0.000102269               0.000470357               0.999999996               0.000117246               0.000504465               0.999999996               0.000132528               0.000539571               0.999999996               0.000147934               0.000575383               0.999999996               0.000163344               0.000611394               0.999999996               0.000178618               0.000647137               0.999999996               0.000011883               0.000289155               0.999999996              -0.000002394               0.000266969               0.999999996              -0.000003208               0.000264628               0.999999996               0.000001114               0.000273148               0.999999996               0.000007897               0.000288145               0.999999996               0.000016073               0.000307444               0.999999996               0.000025574               0.000330017               0.999999996               0.000036361               0.000355263               0.999999996               0.000048005               0.000382484               0.999999996               0.000060186               0.000411156               0.999999996               0.000072605               0.000440846               0.999999996               0.000085210               0.000471331               0.999999996               0.000098040               0.000502669               0.999999996               0.000111035               0.000534898               0.999999996               0.000124255               0.000567979               0.999999996               0.000137838               0.000601617               0.999999996               0.000151770               0.000635527               0.999999996               0.000010918               0.000311070               0.999999996              -0.000004801               0.000292126               0.999999996              -0.000007099               0.000288821               0.999999996              -0.000004026               0.000295084               0.999999996               0.000001572               0.000307477               0.999999996               0.000008694               0.000324169               0.999999996               0.000016993               0.000344164               0.999999996               0.000026416               0.000366919               0.999999996               0.000036576               0.000391809               0.999999996               0.000047251               0.000418306               0.999999996               0.000058100               0.000445887               0.999999996               0.000068940               0.000474283               0.999999996               0.000079710               0.000503270               0.999999996               0.000090412               0.000532923               0.999999996               0.000101208               0.000563283               0.999999996               0.000112213               0.000594372               0.999999996               0.000123619               0.000626031               0.999999996               0.000009734               0.000330182               0.999999996              -0.000006055               0.000315402               0.999999996              -0.000009480               0.000312212               0.999999996              -0.000007704               0.000317078               0.999999996              -0.000003355               0.000327446               0.999999996               0.000002455               0.000341953               0.999999996               0.000009419               0.000359712               0.999999996               0.000017411               0.000380168               0.999999996               0.000026025               0.000402863               0.999999996               0.000035031               0.000427310               0.999999996               0.000044201               0.000453048               0.999999996               0.000053441               0.000479524               0.999999996               0.000062404               0.000506564               0.999999996               0.000070916               0.000534124               0.999999996               0.000079158               0.000562262               0.999999996               0.000087350               0.000591016               0.999999996               0.000095486               0.000620421               0.999999996               0.000008278               0.000346250               0.999999996              -0.000006233               0.000336056               0.999999996              -0.000010265               0.000333806               0.999999996              -0.000009602               0.000338016               0.999999996              -0.000006607               0.000347092               0.999999996              -0.000002095               0.000359920               0.999999996               0.000003486               0.000375898               0.999999996               0.000009897               0.000394556               0.999999996               0.000016815               0.000415466               0.999999996               0.000023947               0.000438121               0.999999996               0.000031401               0.000462170               0.999999996               0.000038903               0.000487180               0.999999996               0.000046067               0.000512859               0.999999996               0.000052650               0.000538918               0.999999996               0.000058642               0.000565371               0.999999996               0.000063990               0.000592330               0.999999996               0.000068637               0.000619889               0.999999996               0.000006541               0.000359040               0.999999996              -0.000005463               0.000353195               0.999999996              -0.000009446               0.000352371               0.999999996              -0.000009595               0.000356609               0.999999996              -0.000007719               0.000364989               0.999999996              -0.000004533               0.000376803               0.999999996              -0.000000406               0.000391496               0.999999996               0.000004248               0.000408801               0.999999996               0.000009408               0.000428350               0.999999996               0.000014832               0.000449632               0.999999996               0.000020352               0.000472351               0.999999996               0.000025903               0.000496316               0.999999996               0.000031357               0.000521093               0.999999996               0.000036232               0.000546333               0.999999996               0.000040265               0.000571937               0.999999996               0.000043251               0.000597898               0.999999996               0.000044940               0.000624247               0.999999996               0.000004550               0.000368331               0.999999996              -0.000004032               0.000366127               0.999999996              -0.000007216               0.000366807               0.999999996              -0.000007719               0.000371417               0.999999996              -0.000006652               0.000379620               0.999999996              -0.000004648               0.000390878               0.999999996              -0.000002054               0.000404797               0.999999996               0.000000911               0.000421152               0.999999996               0.000004402               0.000439611               0.999999996               0.000008060               0.000459895               0.999999996               0.000011608               0.000481764               0.999999996               0.000015341               0.000504874               0.999999996               0.000019166               0.000528968               0.999999996               0.000022486               0.000553833               0.999999996               0.000024800               0.000579229               0.999999996               0.000026052               0.000604940               0.999999996               0.000026002               0.000630829               0.999999996               0.000002342               0.000373975               0.999999996              -0.000002146               0.000374145               0.999999996              -0.000003877               0.000375952               0.999999996              -0.000004293               0.000380977               0.999999996              -0.000003820               0.000389226               0.999999996              -0.000002874               0.000400271               0.999999996              -0.000001693               0.000413748               0.999999996              -0.000000242               0.000429423               0.999999996               0.000001590               0.000447222               0.999999996               0.000003444               0.000466972               0.999999996               0.000005208               0.000488363               0.999999996               0.000007142               0.000511061               0.999999996               0.000009075               0.000534876               0.999999996               0.000010691               0.000559627               0.999999996               0.000011698               0.000585009               0.999999996               0.000011949               0.000610735               0.999999996               0.000011408               0.000636557               0.999999996               0.000000000               0.000375902               0.999999996               0.000000000               0.000376881               0.999999996               0.000000000               0.000379122               0.999999996              -0.000000000               0.000384365               0.999999996              -0.000000000               0.000392621               0.999999996              -0.000000000               0.000403581               0.999999996              -0.000000000               0.000416909               0.999999996              -0.000000000               0.000432296               0.999999996               0.000000000               0.000449867               0.999999996              -0.000000000               0.000469449               0.999999996               0.000000000               0.000490679               0.999999996               0.000000000               0.000513389               0.999999996               0.000000000               0.000537233               0.999999996               0.000000000               0.000561960               0.999999996              -0.000000000               0.000587293               0.999999996              -0.000000000               0.000612953               0.999999996               0.000000000               0.000638737               0.999999996 </DataArray>
<DataArray type="Float64"                                    Name="stress"                                                      NumberOfComponents="10" format="ascii">
              0.000594222               0.007013995               0.000000000              -0.000653915               0.002555947               0.001902032               0.000000000               0.000000000               0.000000000               0.000000000               0.000647377               0.005797611              -0.000000000              -0.000481934               0.002093162               0.001611228               0.000000000               0.000000000               0.000000000               0.000000000               0.000902254               0.004822788              -0.000000000              -0.000264502               0.001695748               0.001431245               0.000000000               0.000000000               0.000000000               0.000000000               0.000938652               0.004288429               0.000000000              -0.000184059               0.001490815               0.001306756               0.000000000               0.000000000               0.000000000               0.000000000               0.000890375               0.003969583              -0.000000000              -0.000162307               0.001377284               0.001214977               0.000000000               0.000000000               0.000000000               0.000000000               0.000814558               0.003770890               0.000000000              -0.000165901               0.001312251               0.001146350               0.000000000               0.000000000               0.000000000               0.000000000               0.000732709               0.003646629               0.000000000              -0.000181062               0.001275885               0.001094823               0.000000000               0.000000000               0.000000000               0.000000000               0.000647262               0.003568427              -0.000000000              -0.000203330               0.001257240               0.001053911               0.000000000               0.000000000               0.000000000               0.000000000               0.000562627               0.003518464               0.000000000              -0.000228822               0.001249084               0.001020261               0.000000000               0.000000000               0.000000000               0.000000000               0.000487124               0.003484761               0.000000000              -0.000252923               0.001245883               0.000992960               0.000000000               0.000000000               0.000000000               0.000000000               0.000414810               0.003463773               0.000000000              -0.000277417               0.001247052               0.000969635               0.000000000               0.000000000               0.000000000               0.000000000               0.000339403               0.003451980               0.000000000              -0.000304220               0.001252055               0.000947835               0.000000000               0.000000000               0.000000000               0.000000000               0.000266006               0.003446058               0.000000000              -0.000331004               0.001259009               0.000928005               0.000000000               0.000000000               0.000000000               0.000000000               0.000195733               0.003442662              -0.000000000              -0.000356932               0.001266520               0.000909588               0.000000000               0.000000000               0.000000000               0.000000000               0.000128021               0.003437324              -0.000000000              -0.000381657               0.001272982               0.000891326               0.000000000               0.000000000               0.000000000               0.000000000               0.000062101               0.003427077              -0.000000000              -0.000405096               0.001277380               0.000872284               0.000000000               0.000000000               0.000000000               0.000000000               0.000029437               0.003418946              -0.000000000              -0.000416329               0.001278413               0.000862085               0.000000000               0.000000000               0.000000000               0.000000000               0.000630999               0.006893325              -0.000526636              -0.000625040               0.002506098               0.001881059               0.000000000               0.000000000               0.000000000               0.000000000               0.000658225               0.005712308              -0.000334498              -0.000467203               0.002059818               0.001592615               0.000000000               0.000000000               0.000000000               0.000000000               0.000884668               0.004774840              -0.000135880              -0.000265104               0.001679965               0.001414862               0.000000000               0.000000000               0.000000000               0.000000000               0.000908830               0.004259804              -0.000044176              -0.000191664               0.001483808               0.001292145               0.000000000               0.000000000               0.000000000               0.000000000               0.000855877               0.003954465              -0.000000709              -0.000173354               0.001375926               0.001202572               0.000000000               0.000000000               0.000000000               0.000000000               0.000778509               0.003765710               0.000019951              -0.000178773               0.001314815               0.001136042               0.000000000               0.000000000               0.000000000               0.000000000               0.000697227               0.003646194               0.000029895              -0.000194314               0.001280157               0.001085843               0.000000000               0.000000000               0.000000000               0.000000000               0.000615111               0.003569863               0.000034439              -0.000215566               0.001261798               0.001046232               0.000000000               0.000000000               0.000000000               0.000000000               0.000537153               0.003520650               0.000033908              -0.000238648               0.001253088               0.001014439               0.000000000               0.000000000               0.000000000               0.000000000               0.000465938               0.003487788               0.000032539              -0.000261246               0.001249666               0.000988420               0.000000000               0.000000000               0.000000000               0.000000000               0.000395648               0.003467650               0.000033390              -0.000285088               0.001250901               0.000965813               0.000000000               0.000000000               0.000000000               0.000000000               0.000323311               0.003456976               0.000033467              -0.000310880               0.001255940               0.000945061               0.000000000               0.000000000               0.000000000               0.000000000               0.000252765               0.003452600               0.000031580              -0.000336787               0.001263118               0.000926330               0.000000000               0.000000000               0.000000000               0.000000000               0.000184761               0.003450280               0.000027323              -0.000361999               0.001270748               0.000908749               0.000000000               0.000000000               0.000000000               0.000000000               0.000119622               0.003446740               0.000021251              -0.000385983               0.001277563               0.000891579               0.000000000               0.000000000               0.000000000               0.000000000               0.000058028               0.003440858               0.000012363              -0.000408346               0.001283056               0.000874711               0.000000000               0.000000000               0.000000000               0.000000000               0.000029074               0.003438477               0.000006281              -0.000418906               0.001285783               0.000866877               0.000000000               0.000000000               0.000000000               0.000000000               0.000730272               0.006542380              -0.000994955              -0.000543945               0.002362086               0.001818142               0.000000000               0.000000000               0.000000000               0.000000000               0.000683961               0.005466111              -0.000633311              -0.000426778               0.001964278               0.001537500               0.000000000               0.000000000               0.000000000               0.000000000               0.000830278               0.004640122              -0.000262723              -0.000268660               0.001636245               0.001367585               0.000000000               0.000000000               0.000000000               0.000000000               0.000822719               0.004186580              -0.000095537              -0.000214802               0.001467113               0.001252311               0.000000000               0.000000000               0.000000000               0.000000000               0.000760464               0.003916473              -0.000016465              -0.000204385               0.001373606               0.001169222               0.000000000               0.000000000               0.000000000               0.000000000               0.000682899               0.003748411               0.000021460              -0.000212464               0.001320279               0.001107815               0.000000000               0.000000000               0.000000000               0.000000000               0.000608434               0.003640609               0.000039902              -0.000226913               0.001289162               0.001062249               0.000000000               0.000000000               0.000000000               0.000000000               0.000535445               0.003568573               0.000049281              -0.000245279               0.001271272               0.001025993               0.000000000               0.000000000               0.000000000               0.000000000               0.000465613               0.003520745               0.000049483              -0.000265487               0.001262066               0.000996578               0.000000000               0.000000000               0.000000000               0.000000000               0.000402088               0.003488970               0.000046701              -0.000285338               0.001258091               0.000972753               0.000000000               0.000000000               0.000000000               0.000000000               0.000339694               0.003469062               0.000047579              -0.000306247               0.001258425               0.000952178               0.000000000               0.000000000               0.000000000               0.000000000               0.000276552               0.003459565               0.000047706              -0.000328738               0.001262756               0.000934018               0.000000000               0.000000000               0.000000000               0.000000000               0.000215916               0.003457259               0.000043914              -0.000351188               0.001269471               0.000918283               0.000000000               0.000000000               0.000000000               0.000000000               0.000157638               0.003457406               0.000036137              -0.000373060               0.001276811               0.000903750               0.000000000               0.000000000               0.000000000               0.000000000               0.000102634               0.003459433               0.000026625              -0.000393940               0.001284446               0.000890506               0.000000000               0.000000000               0.000000000               0.000000000               0.000050569               0.003465702               0.000015342              -0.000414248               0.001293305               0.000879057               0.000000000               0.000000000               0.000000000               0.000000000               0.000028321               0.003477424               0.000007207              -0.000424057               0.001300482               0.000876425               0.000000000               0.000000000               0.000000000               0.000000000               0.000866752               0.006004503              -0.001361011              -0.000425531               0.002143325               0.001717794               0.000000000               0.000000000               0.000000000               0.000000000               0.000714707               0.005095048              -0.000872908              -0.000368866               0.001821288               0.001452422               0.000000000               0.000000000               0.000000000               0.000000000               0.000747716               0.004442949              -0.000376195              -0.000274975               0.001572626               0.001297652               0.000000000               0.000000000               0.000000000               0.000000000               0.000699301               0.004078715              -0.000156715              -0.000247601               0.001442092               0.001194491               0.000000000               0.000000000               0.000000000               0.000000000               0.000628802               0.003855945              -0.000053269              -0.000246192               0.001367366               0.001121174               0.000000000               0.000000000               0.000000000               0.000000000               0.000554756               0.003711342              -0.000002102              -0.000255883               0.001322396               0.001066513               0.000000000               0.000000000               0.000000000               0.000000000               0.000487213               0.003615041               0.000023395              -0.000269175               0.001294727               0.001025552               0.000000000               0.000000000               0.000000000               0.000000000               0.000425837               0.003549996               0.000036258              -0.000284060               0.001278007               0.000993947               0.000000000               0.000000000               0.000000000               0.000000000               0.000367139               0.003506579               0.000037371              -0.000300645               0.001269063               0.000968418               0.000000000               0.000000000               0.000000000               0.000000000               0.000312486               0.003478836               0.000032467              -0.000317671               0.001265491               0.000947819               0.000000000               0.000000000               0.000000000               0.000000000               0.000261850               0.003460562               0.000033194              -0.000334376               0.001264968               0.000930592               0.000000000               0.000000000               0.000000000               0.000000000               0.000213356               0.003451260               0.000035038              -0.000351398               0.001267541               0.000916143               0.000000000               0.000000000               0.000000000               0.000000000               0.000168421               0.003449444               0.000031498              -0.000368022               0.001272477               0.000904455               0.000000000               0.000000000               0.000000000               0.000000000               0.000126588               0.003454251               0.000023227              -0.000384310               0.001279509               0.000895199               0.000000000               0.000000000               0.000000000               0.000000000               0.000085671               0.003466894               0.000014561              -0.000401234               0.001289364               0.000888130               0.000000000               0.000000000               0.000000000               0.000000000               0.000043512               0.003489874               0.000008113              -0.000419916               0.001303252               0.000883336               0.000000000               0.000000000               0.000000000               0.000000000               0.000028030               0.003516464               0.000002021              -0.000429046               0.001315158               0.000886113               0.000000000               0.000000000               0.000000000               0.000000000               0.001006598               0.005344279              -0.001602418              -0.000290561               0.001878262               0.001587701               0.000000000               0.000000000               0.000000000               0.000000000               0.000739266               0.004647464              -0.001043780              -0.000303708               0.001650375               0.001346667               0.000000000               0.000000000               0.000000000               0.000000000               0.000648659               0.004207263              -0.000476632              -0.000282660               0.001496627               0.001213967               0.000000000               0.000000000               0.000000000               0.000000000               0.000564024               0.003940766              -0.000229329              -0.000281086               0.001407271               0.001126185               0.000000000               0.000000000               0.000000000               0.000000000               0.000491240               0.003769019              -0.000113030              -0.000286912               0.001351964               0.001065053               0.000000000               0.000000000               0.000000000               0.000000000               0.000426547               0.003649534              -0.000053884              -0.000296236               0.001315244               0.001019009               0.000000000               0.000000000               0.000000000               0.000000000               0.000369822               0.003567383              -0.000023121              -0.000307239               0.001291529               0.000984290               0.000000000               0.000000000               0.000000000               0.000000000               0.000317081               0.003512054              -0.000007070              -0.000320100               0.001277373               0.000957273               0.000000000               0.000000000               0.000000000               0.000000000               0.000268128               0.003475593              -0.000001654              -0.000333900               0.001269820               0.000935919               0.000000000               0.000000000               0.000000000               0.000000000               0.000225618               0.003457225              -0.000004997              -0.000347546               0.001268245               0.000920700               0.000000000               0.000000000               0.000000000               0.000000000               0.000188668               0.003445961              -0.000004635              -0.000359994               0.001268640               0.000908646               0.000000000               0.000000000               0.000000000               0.000000000               0.000155986               0.003439356              -0.000000205              -0.000371424               0.001270248               0.000898825               0.000000000               0.000000000               0.000000000               0.000000000               0.000127972               0.003441127              -0.000000229              -0.000382150               0.001274414               0.000892264               0.000000000               0.000000000               0.000000000               0.000000000               0.000101083               0.003452604              -0.000003747              -0.000393668               0.001282079               0.000888411               0.000000000               0.000000000               0.000000000               0.000000000               0.000071417               0.003476173              -0.000006915              -0.000407739               0.001294626               0.000886886               0.000000000               0.000000000               0.000000000               0.000000000               0.000036719               0.003510411              -0.000005437              -0.000425031               0.001311802               0.000886771               0.000000000               0.000000000               0.000000000               0.000000000               0.000025778               0.003542809              -0.000007328              -0.000433183               0.001325319               0.000892136               0.000000000               0.000000000               0.000000000               0.000000000               0.001120691               0.004624986              -0.001718995              -0.000157866               0.001594268               0.001436402               0.000000000               0.000000000               0.000000000               0.000000000               0.000752422               0.004167122              -0.001146457              -0.000238733               0.001468604               0.001229871               0.000000000               0.000000000               0.000000000               0.000000000               0.000547400               0.003951177              -0.000563420              -0.000288622               0.001413253               0.001124631               0.000000000               0.000000000               0.000000000               0.000000000               0.000436646               0.003783996              -0.000311480              -0.000309256               0.001364405               0.001055148               0.000000000               0.000000000               0.000000000               0.000000000               0.000370221               0.003659136              -0.000190773              -0.000318558               0.001325886               0.001007327               0.000000000               0.000000000               0.000000000               0.000000000               0.000318263               0.003565835              -0.000125944              -0.000326380               0.001297393               0.000971013               0.000000000               0.000000000               0.000000000               0.000000000               0.000274670               0.003506644              -0.000090066              -0.000335329               0.001280646               0.000945317               0.000000000               0.000000000               0.000000000               0.000000000               0.000235925               0.003467788              -0.000069185              -0.000345001               0.001270918               0.000925917               0.000000000               0.000000000               0.000000000               0.000000000               0.000199893               0.003443741              -0.000056343              -0.000355507               0.001266405               0.000910898               0.000000000               0.000000000               0.000000000               0.000000000               0.000167224               0.003432446              -0.000054190              -0.000366346               0.001266253               0.000899907               0.000000000               0.000000000               0.000000000               0.000000000               0.000141437               0.003427373              -0.000054358              -0.000375382               0.001267573               0.000892192               0.000000000               0.000000000               0.000000000               0.000000000               0.000119658               0.003425335              -0.000047629              -0.000383294               0.001269532               0.000886238               0.000000000               0.000000000               0.000000000               0.000000000               0.000102338               0.003432336              -0.000042366              -0.000390664               0.001274322               0.000883658               0.000000000               0.000000000               0.000000000               0.000000000               0.000083894               0.003449593              -0.000038668              -0.000399738               0.001283099               0.000883361               0.000000000               0.000000000               0.000000000               0.000000000               0.000058728               0.003474840              -0.000032396              -0.000412331               0.001295712               0.000883381               0.000000000               0.000000000               0.000000000               0.000000000               0.000030554               0.003502674              -0.000020618              -0.000426376               0.001309672               0.000883296               0.000000000               0.000000000               0.000000000               0.000000000               0.000020130               0.003520683              -0.000014670              -0.000432535               0.001317728               0.000885192               0.000000000               0.000000000               0.000000000               0.000000000               0.001186933               0.003903176              -0.001718923              -0.000042799               0.001315311               0.001272512               0.000000000               0.000000000               0.000000000               0.000000000               0.000748571               0.003691128              -0.001188376              -0.000180678               0.001290589               0.001109912               0.000000000               0.000000000               0.000000000               0.000000000               0.000457315               0.003691168              -0.000640298              -0.000289903               0.001327011               0.001037109               0.000000000               0.000000000               0.000000000               0.000000000               0.000336905               0.003612583              -0.000398738              -0.000325233               0.001312593               0.000987360               0.000000000               0.000000000               0.000000000               0.000000000               0.000280923               0.003533570              -0.000276131              -0.000336349               0.001289961               0.000953612               0.000000000               0.000000000               0.000000000               0.000000000               0.000245326               0.003475611              -0.000203224              -0.000342453               0.001272676               0.000930223               0.000000000               0.000000000               0.000000000               0.000000000               0.000214933               0.003442458              -0.000158258              -0.000349707               0.001264043               0.000914337               0.000000000               0.000000000               0.000000000               0.000000000               0.000185942               0.003420802              -0.000131999              -0.000357871               0.001259546               0.000901675               0.000000000               0.000000000               0.000000000               0.000000000               0.000160625               0.003409256              -0.000114495              -0.000365922               0.001258381               0.000892459               0.000000000               0.000000000               0.000000000               0.000000000               0.000137698               0.003404608              -0.000107733              -0.000373938               0.001259504               0.000885566               0.000000000               0.000000000               0.000000000               0.000000000               0.000119322               0.003405128              -0.000105868              -0.000380894               0.001261996               0.000881102               0.000000000               0.000000000               0.000000000               0.000000000               0.000102400               0.003408652              -0.000095357              -0.000387681               0.001265433               0.000877752               0.000000000               0.000000000               0.000000000               0.000000000               0.000083974               0.003417191              -0.000079800              -0.000395658               0.001270938               0.000875280               0.000000000               0.000000000               0.000000000               0.000000000               0.000062946               0.003431409              -0.000063043              -0.000405320               0.001278898               0.000873578               0.000000000               0.000000000               0.000000000               0.000000000               0.000038942               0.003444630              -0.000042966              -0.000415974               0.001286857               0.000870882               0.000000000               0.000000000               0.000000000               0.000000000               0.000018045               0.003447720              -0.000022483              -0.000424197               0.001290628               0.000866431               0.000000000               0.000000000               0.000000000               0.000000000               0.000004879               0.003438969              -0.000010597              -0.000428040               0.001288992               0.000860951               0.000000000               0.000000000               0.000000000               0.000000000               0.001200863               0.003217277              -0.001622159               0.000048161               0.001056360               0.001104522               0.000000000               0.000000000               0.000000000               0.000000000               0.000729888               0.003244006              -0.001183113              -0.000131794               0.001125256               0.000993462               0.000000000               0.000000000               0.000000000               0.000000000               0.000388357               0.003437098              -0.000711421              -0.000284003               0.001240355               0.000956352               0.000000000               0.000000000               0.000000000               0.000000000               0.000274741               0.003438622              -0.000483862              -0.000326799               0.001255129               0.000928330               0.000000000               0.000000000               0.000000000               0.000000000               0.000234898               0.003409276              -0.000356030              -0.000338072               0.001249105               0.000911033               0.000000000               0.000000000               0.000000000               0.000000000               0.000211175               0.003387870              -0.000273846              -0.000344292               0.001244043               0.000899751               0.000000000               0.000000000               0.000000000               0.000000000               0.000189415               0.003376913              -0.000220395              -0.000351083               0.001242654               0.000891571               0.000000000               0.000000000               0.000000000               0.000000000               0.000167056               0.003373362              -0.000190560              -0.000359023               0.001244117               0.000885094               0.000000000               0.000000000               0.000000000               0.000000000               0.000146696               0.003374520              -0.000168674              -0.000366803               0.001247096               0.000880293               0.000000000               0.000000000               0.000000000               0.000000000               0.000130041               0.003375153              -0.000152628              -0.000373128               0.001249416               0.000876288               0.000000000               0.000000000               0.000000000               0.000000000               0.000110746               0.003376750              -0.000140073              -0.000380563               0.001252426               0.000871863               0.000000000               0.000000000               0.000000000               0.000000000               0.000086994               0.003380827              -0.000118762              -0.000389980               0.001256924               0.000866944               0.000000000               0.000000000               0.000000000               0.000000000               0.000059635               0.003385682              -0.000089423              -0.000400846               0.001262165               0.000861319               0.000000000               0.000000000               0.000000000               0.000000000               0.000031406               0.003386354              -0.000057892              -0.000411516               0.001265945               0.000854429               0.000000000               0.000000000               0.000000000               0.000000000               0.000007781               0.003377469              -0.000027756              -0.000419265               0.001265567               0.000846302               0.000000000               0.000000000               0.000000000               0.000000000              -0.000002823               0.003355908              -0.000007244              -0.000420546               0.001258807               0.000838261               0.000000000               0.000000000               0.000000000               0.000000000              -0.000009554               0.003333659               0.000002566              -0.000420289               0.001251305               0.000831016               0.000000000               0.000000000               0.000000000               0.000000000               0.001181613               0.002618266              -0.001465017               0.000115819               0.000834140               0.000949958               0.000000000               0.000000000               0.000000000               0.000000000               0.000718992               0.002844641              -0.001154861              -0.000085960               0.000976857               0.000890898               0.000000000               0.000000000               0.000000000               0.000000000               0.000361728               0.003205224              -0.000788981              -0.000265005               0.001156732               0.000891727               0.000000000               0.000000000               0.000000000               0.000000000               0.000257466               0.003289366              -0.000574306              -0.000314621               0.001201318               0.000886697               0.000000000               0.000000000               0.000000000               0.000000000               0.000224361               0.003307545              -0.000436997              -0.000329307               0.001212273               0.000882966               0.000000000               0.000000000               0.000000000               0.000000000               0.000205231               0.003317272              -0.000344457              -0.000337696               0.001218312               0.000880615               0.000000000               0.000000000               0.000000000               0.000000000               0.000186191               0.003328006              -0.000283799              -0.000346178               0.001224717               0.000878539               0.000000000               0.000000000               0.000000000               0.000000000               0.000173555               0.003343899              -0.000247197              -0.000352903               0.001232256               0.000879353               0.000000000               0.000000000               0.000000000               0.000000000               0.000160352               0.003356735              -0.000218160              -0.000359459               0.001238720               0.000879261               0.000000000               0.000000000               0.000000000               0.000000000               0.000144075               0.003358742              -0.000190028              -0.000365814               0.001241507               0.000875694               0.000000000               0.000000000               0.000000000               0.000000000               0.000119201               0.003355066              -0.000161626              -0.000374682               0.001243238               0.000868556               0.000000000               0.000000000               0.000000000               0.000000000               0.000086829               0.003355572              -0.000128292              -0.000386885               0.001247474               0.000860590               0.000000000               0.000000000               0.000000000               0.000000000               0.000049546               0.003354711              -0.000089941              -0.000400758               0.001251812               0.000851054               0.000000000               0.000000000               0.000000000               0.000000000               0.000011071               0.003343349              -0.000051388              -0.000413766               0.001252361               0.000838595               0.000000000               0.000000000               0.000000000               0.000000000              -0.000022773               0.003317207              -0.000019215              -0.000423190               0.001246788               0.000823598               0.000000000               0.000000000               0.000000000               0.000000000              -0.000043103               0.003277152              -0.000000462              -0.000425807               0.001234309               0.000808502               0.000000000               0.000000000               0.000000000               0.000000000              -0.000048451               0.003251437               0.000005896              -0.000424598               0.001225334               0.000800736               0.000000000               0.000000000               0.000000000               0.000000000               0.001118179               0.002043821              -0.001279726               0.000163837               0.000626654               0.000790490               0.000000000               0.000000000               0.000000000               0.000000000               0.000722940               0.002385912              -0.001116834              -0.000027138               0.000804342               0.000777204               0.000000000               0.000000000               0.000000000               0.000000000               0.000384701               0.002870449              -0.000881254              -0.000214543               0.001028321               0.000813778               0.000000000               0.000000000               0.000000000               0.000000000               0.000282972               0.003052767              -0.000685492              -0.000275481               0.001109406               0.000833925               0.000000000               0.000000000               0.000000000               0.000000000               0.000245178               0.003129632              -0.000539689              -0.000299262               0.001142954               0.000843692               0.000000000               0.000000000               0.000000000               0.000000000               0.000229192               0.003179124              -0.000436966              -0.000311443               0.001163512               0.000852069               0.000000000               0.000000000               0.000000000               0.000000000               0.000215385               0.003225588              -0.000367295              -0.000322428               0.001182661               0.000860233               0.000000000               0.000000000               0.000000000               0.000000000               0.000204203               0.003268964              -0.000317380              -0.000332044               0.001200325               0.000868281               0.000000000               0.000000000               0.000000000               0.000000000               0.000189301               0.003297503              -0.000274564              -0.000341199               0.001212890               0.000871690               0.000000000               0.000000000               0.000000000               0.000000000               0.000169489               0.003307904              -0.000234226              -0.000349929               0.001219267               0.000869338               0.000000000               0.000000000               0.000000000               0.000000000               0.000141287               0.003302498              -0.000194246              -0.000359829               0.001220764               0.000860936               0.000000000               0.000000000               0.000000000               0.000000000               0.000104820               0.003294487              -0.000154297              -0.000372502               0.001222319               0.000849816               0.000000000               0.000000000               0.000000000               0.000000000               0.000060500               0.003285663              -0.000110814              -0.000388019               0.001224550               0.000836530               0.000000000               0.000000000               0.000000000               0.000000000               0.000012311               0.003275656              -0.000067372              -0.000404839               0.001226821               0.000821981               0.000000000               0.000000000               0.000000000               0.000000000              -0.000034758               0.003258311              -0.000032346              -0.000420322               0.001226200               0.000805878               0.000000000               0.000000000               0.000000000               0.000000000              -0.000076074               0.003230397              -0.000009931              -0.000432326               0.001220897               0.000788571               0.000000000               0.000000000               0.000000000               0.000000000              -0.000097346               0.003209816               0.000000138              -0.000437731               0.001215838               0.000778108               0.000000000               0.000000000               0.000000000               0.000000000               0.000989099               0.001507342              -0.001070068               0.000182492               0.000441611               0.000624103               0.000000000               0.000000000               0.000000000               0.000000000               0.000723895               0.001931379              -0.001050204               0.000030036               0.000633774               0.000663810               0.000000000               0.000000000               0.000000000               0.000000000               0.000445740               0.002501890              -0.000950195              -0.000145584               0.000882483               0.000736898               0.000000000               0.000000000               0.000000000               0.000000000               0.000345242               0.002772991              -0.000791883              -0.000217158               0.000996707               0.000779549               0.000000000               0.000000000               0.000000000               0.000000000               0.000300556               0.002914974              -0.000650839              -0.000251663               0.001055536               0.000803873               0.000000000               0.000000000               0.000000000               0.000000000               0.000278227               0.003012871              -0.000541794              -0.000272273               0.001095038               0.000822765               0.000000000               0.000000000               0.000000000               0.000000000               0.000261992               0.003098424              -0.000461720              -0.000289056               0.001129149               0.000840094               0.000000000               0.000000000               0.000000000               0.000000000               0.000245723               0.003171356              -0.000397792              -0.000304273               0.001158532               0.000854260               0.000000000               0.000000000               0.000000000               0.000000000               0.000226731               0.003224276              -0.000342549              -0.000318010               0.001180751               0.000862742               0.000000000               0.000000000               0.000000000               0.000000000               0.000203915               0.003253578              -0.000293231              -0.000330228               0.001194591               0.000864363               0.000000000               0.000000000               0.000000000               0.000000000               0.000177601               0.003261337              -0.000246977              -0.000341066               0.001200790               0.000859724               0.000000000               0.000000000               0.000000000               0.000000000               0.000145480               0.003253297              -0.000201452              -0.000352106               0.001201790               0.000849684               0.000000000               0.000000000               0.000000000               0.000000000               0.000103170               0.003239829              -0.000152984              -0.000366289               0.001202029               0.000835740               0.000000000               0.000000000               0.000000000               0.000000000               0.000051390               0.003229354              -0.000104781              -0.000384397               0.001204573               0.000820176               0.000000000               0.000000000               0.000000000               0.000000000              -0.000006982               0.003220488              -0.000062196              -0.000405178               0.001208545               0.000803366               0.000000000               0.000000000               0.000000000               0.000000000              -0.000070381               0.003208679              -0.000027852              -0.000427477               0.001212041               0.000784564               0.000000000               0.000000000               0.000000000               0.000000000              -0.000117410               0.003189820              -0.000007012              -0.000442755               0.001210848               0.000768092               0.000000000               0.000000000               0.000000000               0.000000000               0.000799022               0.001040808              -0.000841232               0.000169530               0.000290422               0.000459952               0.000000000               0.000000000               0.000000000               0.000000000               0.000694440               0.001501271              -0.000939080               0.000072754               0.000476167               0.000548921               0.000000000               0.000000000               0.000000000               0.000000000               0.000516686               0.002097582              -0.000956662              -0.000068442               0.000722000               0.000653559               0.000000000               0.000000000               0.000000000               0.000000000               0.000433207               0.002433758              -0.000848022              -0.000141768               0.000858500               0.000716733               0.000000000               0.000000000               0.000000000               0.000000000               0.000384002               0.002640696              -0.000726314              -0.000186086               0.000942252               0.000756165               0.000000000               0.000000000               0.000000000               0.000000000               0.000353924               0.002793473              -0.000621502              -0.000216462               0.001003302               0.000786840               0.000000000               0.000000000               0.000000000               0.000000000               0.000331671               0.002922111              -0.000539563              -0.000240887               0.001054323               0.000813436               0.000000000               0.000000000               0.000000000               0.000000000               0.000309988               0.003032770              -0.000470184              -0.000262850               0.001098530               0.000835680               0.000000000               0.000000000               0.000000000               0.000000000               0.000285263               0.003119971              -0.000407132              -0.000283022               0.001134320               0.000851298               0.000000000               0.000000000               0.000000000               0.000000000               0.000254174               0.003178082              -0.000350601              -0.000301944               0.001159998               0.000858054               0.000000000               0.000000000               0.000000000               0.000000000               0.000222559               0.003205155              -0.000301827              -0.000317184               0.001174102               0.000856918               0.000000000               0.000000000               0.000000000               0.000000000               0.000189606               0.003208228              -0.000253705              -0.000329926               0.001179374               0.000849448               0.000000000               0.000000000               0.000000000               0.000000000               0.000151936               0.003203642              -0.000200406              -0.000343479               0.001182363               0.000838884               0.000000000               0.000000000               0.000000000               0.000000000               0.000104875               0.003197829              -0.000146291              -0.000360400               0.001186066               0.000825666               0.000000000               0.000000000               0.000000000               0.000000000               0.000046599               0.003194843              -0.000096216              -0.000381880               0.001192230               0.000810351               0.000000000               0.000000000               0.000000000               0.000000000              -0.000025250               0.003193284              -0.000047883              -0.000408628               0.001200627               0.000791999               0.000000000               0.000000000               0.000000000               0.000000000              -0.000085137               0.003179130              -0.000016214              -0.000429317               0.001202805               0.000773488               0.000000000               0.000000000               0.000000000               0.000000000               0.000563678               0.000665359              -0.000613573               0.000128208               0.000179048               0.000307255               0.000000000               0.000000000               0.000000000               0.000000000               0.000636650               0.001109875              -0.000787641               0.000100008               0.000336618               0.000436626               0.000000000               0.000000000               0.000000000               0.000000000               0.000586475               0.001681129              -0.000890922               0.000009786               0.000557109               0.000566894               0.000000000               0.000000000               0.000000000               0.000000000               0.000537887               0.002059814              -0.000832274              -0.000055770               0.000705188               0.000649418               0.000000000               0.000000000               0.000000000               0.000000000               0.000493482               0.002321593              -0.000740300              -0.000105144               0.000808904               0.000703761               0.000000000               0.000000000               0.000000000               0.000000000               0.000459157               0.002525860              -0.000652764              -0.000143549               0.000889794               0.000746245               0.000000000               0.000000000               0.000000000               0.000000000               0.000430083               0.002701382              -0.000575721              -0.000176392               0.000959249               0.000782857               0.000000000               0.000000000               0.000000000               0.000000000               0.000397505               0.002853193              -0.000506876              -0.000207585               0.001020250               0.000812665               0.000000000               0.000000000               0.000000000               0.000000000               0.000364553               0.002974246              -0.000443343              -0.000235073               0.001069763               0.000834690               0.000000000               0.000000000               0.000000000               0.000000000               0.000328992               0.003062587              -0.000387661              -0.000259451               0.001107336               0.000847885               0.000000000               0.000000000               0.000000000               0.000000000               0.000291190               0.003121858              -0.000339953              -0.000281035               0.001134287               0.000853252               0.000000000               0.000000000               0.000000000               0.000000000               0.000253410               0.003156482              -0.000293038              -0.000299531               0.001151994               0.000852463               0.000000000               0.000000000               0.000000000               0.000000000               0.000217580               0.003170209              -0.000241822              -0.000314683               0.001161620               0.000846937               0.000000000               0.000000000               0.000000000               0.000000000               0.000178426               0.003172540              -0.000187445              -0.000329657               0.001167388               0.000837731               0.000000000               0.000000000               0.000000000               0.000000000               0.000130327               0.003177651              -0.000130738              -0.000348333               0.001175317               0.000826984               0.000000000               0.000000000               0.000000000               0.000000000               0.000066148               0.003186560              -0.000068355              -0.000373513               0.001186681               0.000813167               0.000000000               0.000000000               0.000000000               0.000000000               0.000009480               0.003179628              -0.000029075              -0.000393898               0.001191165               0.000797267               0.000000000               0.000000000               0.000000000               0.000000000               0.000311342               0.000383715              -0.000409001               0.000068788               0.000104974               0.000173762               0.000000000               0.000000000               0.000000000               0.000000000               0.000556231               0.000777300              -0.000607201               0.000111423               0.000221956               0.000333379               0.000000000               0.000000000               0.000000000               0.000000000               0.000649221               0.001294242              -0.000751260               0.000081676               0.000404184               0.000485860               0.000000000               0.000000000               0.000000000               0.000000000               0.000650957               0.001692960              -0.000735255               0.000032488               0.000553485               0.000585973               0.000000000               0.000000000               0.000000000               0.000000000               0.000625745               0.001997310              -0.000676396              -0.000015010               0.000670767               0.000655756               0.000000000               0.000000000               0.000000000               0.000000000               0.000588528               0.002241696              -0.000610697              -0.000059514               0.000767062               0.000707548               0.000000000               0.000000000               0.000000000               0.000000000               0.000547189               0.002452922              -0.000544161              -0.000101420               0.000851439               0.000750019               0.000000000               0.000000000               0.000000000               0.000000000               0.000504991               0.002639628              -0.000483030              -0.000140582               0.000926728               0.000786146               0.000000000               0.000000000               0.000000000               0.000000000               0.000467021               0.002791914              -0.000428755              -0.000173856               0.000988581               0.000814724               0.000000000               0.000000000               0.000000000               0.000000000               0.000429623               0.002912334              -0.000378255              -0.000202933               0.001038413               0.000835480               0.000000000               0.000000000               0.000000000               0.000000000               0.000387594               0.003009969              -0.000333912              -0.000230898               0.001080279               0.000849381               0.000000000               0.000000000               0.000000000               0.000000000               0.000349420               0.003081617              -0.000295385              -0.000254169               0.001111919               0.000857749               0.000000000               0.000000000               0.000000000               0.000000000               0.000317966               0.003123587              -0.000253057              -0.000271211               0.001131589               0.000860378               0.000000000               0.000000000               0.000000000               0.000000000               0.000287383               0.003148159              -0.000202216              -0.000285751               0.001144626               0.000858875               0.000000000               0.000000000               0.000000000               0.000000000               0.000250504               0.003166480              -0.000144731              -0.000301870               0.001156106               0.000854236               0.000000000               0.000000000               0.000000000               0.000000000               0.000206197               0.003181752              -0.000078065              -0.000320394               0.001167371               0.000846977               0.000000000               0.000000000               0.000000000               0.000000000               0.000169313               0.003181378              -0.000038155              -0.000334179               0.001171842               0.000837663               0.000000000               0.000000000               0.000000000               0.000000000               0.000084016               0.000197364              -0.000239411               0.000006835               0.000063509               0.000070344               0.000000000               0.000000000               0.000000000               0.000000000               0.000472154               0.000526503              -0.000409799               0.000111244               0.000138418               0.000249661               0.000000000               0.000000000               0.000000000               0.000000000               0.000699576               0.000977775              -0.000544715               0.000140118               0.000279216               0.000419333               0.000000000               0.000000000               0.000000000               0.000000000               0.000756599               0.001379942              -0.000553314               0.000111231               0.000422899               0.000534130               0.000000000               0.000000000               0.000000000               0.000000000               0.000750106               0.001708576              -0.000522637               0.000067717               0.000546947               0.000614664               0.000000000               0.000000000               0.000000000               0.000000000               0.000713335               0.001977452              -0.000477753               0.000020319               0.000652371               0.000672690               0.000000000               0.000000000               0.000000000               0.000000000               0.000664281               0.002210858              -0.000428197              -0.000027252               0.000746029               0.000718777               0.000000000               0.000000000               0.000000000               0.000000000               0.000618262               0.002419639              -0.000384333              -0.000070607               0.000830074               0.000759467               0.000000000               0.000000000               0.000000000               0.000000000               0.000576935               0.002601610              -0.000344897              -0.000108850               0.000903478               0.000794628               0.000000000               0.000000000               0.000000000               0.000000000               0.000536800               0.002758651              -0.000303566              -0.000143531               0.000967385               0.000823854               0.000000000               0.000000000               0.000000000               0.000000000               0.000495987               0.002887736              -0.000270802              -0.000174972               0.001020893               0.000845921               0.000000000               0.000000000               0.000000000               0.000000000               0.000458528               0.002987841              -0.000247126              -0.000201532               0.001063114               0.000861583               0.000000000               0.000000000               0.000000000               0.000000000               0.000426009               0.003064903              -0.000216632              -0.000223359               0.001096077               0.000872718               0.000000000               0.000000000               0.000000000               0.000000000               0.000399637               0.003122066              -0.000172577              -0.000240394               0.001120810               0.000880416               0.000000000               0.000000000               0.000000000               0.000000000               0.000376948               0.003158819              -0.000121704              -0.000253496               0.001137428               0.000883931               0.000000000               0.000000000               0.000000000               0.000000000               0.000358920               0.003179118              -0.000065709              -0.000262794               0.001147294               0.000884499               0.000000000               0.000000000               0.000000000               0.000000000               0.000350151               0.003184427              -0.000034557              -0.000266746               0.001150380               0.000883634               0.000000000               0.000000000               0.000000000               0.000000000              -0.000075554               0.000091624              -0.000108043              -0.000039786               0.000043803               0.000004017               0.000000000               0.000000000               0.000000000               0.000000000               0.000410826               0.000370022              -0.000206053               0.000107806               0.000087404               0.000195210               0.000000000               0.000000000               0.000000000               0.000000000               0.000731011               0.000769059              -0.000286879               0.000177995               0.000197019               0.000375014               0.000000000               0.000000000               0.000000000               0.000000000               0.000832028               0.001167188              -0.000298771               0.000166110               0.000333689               0.000499799               0.000000000               0.000000000               0.000000000               0.000000000               0.000837296               0.001504444              -0.000286295               0.000125929               0.000459500               0.000585429               0.000000000               0.000000000               0.000000000               0.000000000               0.000802235               0.001783973              -0.000262278               0.000077841               0.000568705               0.000646546               0.000000000               0.000000000               0.000000000               0.000000000               0.000754337               0.002025346              -0.000235786               0.000029708               0.000665206               0.000694914               0.000000000               0.000000000               0.000000000               0.000000000               0.000706781               0.002249066              -0.000213610              -0.000016091               0.000755045               0.000738954               0.000000000               0.000000000               0.000000000               0.000000000               0.000659380               0.002459065              -0.000192696              -0.000060115               0.000839718               0.000779603               0.000000000               0.000000000               0.000000000               0.000000000               0.000615843               0.002643751              -0.000169142              -0.000099527               0.000914417               0.000814890               0.000000000               0.000000000               0.000000000               0.000000000               0.000576581               0.002795975              -0.000152883              -0.000133279               0.000976408               0.000843130               0.000000000               0.000000000               0.000000000               0.000000000               0.000535726               0.002918417              -0.000143038              -0.000163905               0.001027431               0.000863526               0.000000000               0.000000000               0.000000000               0.000000000               0.000497408               0.003018394              -0.000126956              -0.000190771               0.001069712               0.000878941               0.000000000               0.000000000               0.000000000               0.000000000               0.000472069               0.003095316              -0.000101060              -0.000209888               0.001101724               0.000891836               0.000000000               0.000000000               0.000000000               0.000000000               0.000465724               0.003146552              -0.000069382              -0.000218672               0.001121731               0.000903059               0.000000000               0.000000000               0.000000000               0.000000000               0.000478790               0.003175856              -0.000035684              -0.000217435               0.001131086               0.000913651               0.000000000               0.000000000               0.000000000               0.000000000               0.000498346               0.003188246              -0.000018593              -0.000211650               0.001133288               0.000921638               0.000000000               0.000000000               0.000000000               0.000000000              -0.000133559               0.000056383              -0.000000000              -0.000057132               0.000037838              -0.000019294               0.000000000               0.000000000               0.000000000               0.000000000               0.000388632               0.000317204              -0.000000000               0.000106085               0.000070372               0.000176457               0.000000000               0.000000000               0.000000000               0.000000000               0.000740601               0.000697539               0.000000000               0.000190531               0.000169000               0.000359531               0.000000000               0.000000000               0.000000000               0.000000000               0.000858769               0.001091552               0.000000000               0.000185593               0.000301983               0.000487575               0.000000000               0.000000000               0.000000000               0.000000000               0.000868150               0.001428655               0.000000000               0.000146973               0.000427223               0.000574195               0.000000000               0.000000000               0.000000000               0.000000000               0.000835142               0.001711851               0.000000000               0.000099196               0.000537546               0.000636742               0.000000000               0.000000000               0.000000000               0.000000000               0.000790096               0.001954975              -0.000000000               0.000051914               0.000634347               0.000686261               0.000000000               0.000000000               0.000000000               0.000000000               0.000741286               0.002184601              -0.000000000               0.000004907               0.000726557               0.000731464               0.000000000               0.000000000               0.000000000               0.000000000               0.000689128               0.002406555              -0.000000000              -0.000042396               0.000816309               0.000773913               0.000000000               0.000000000               0.000000000               0.000000000               0.000642654               0.002600515              -0.000000000              -0.000084069               0.000894853               0.000810784               0.000000000               0.000000000               0.000000000               0.000000000               0.000603491               0.002764473              -0.000000000              -0.000119250               0.000961232               0.000841982               0.000000000               0.000000000               0.000000000               0.000000000               0.000560775               0.002897567               0.000000000              -0.000151905               0.001016481               0.000864576               0.000000000               0.000000000               0.000000000               0.000000000               0.000520445               0.003001442              -0.000000000              -0.000180013               0.001060475               0.000880462               0.000000000               0.000000000               0.000000000               0.000000000               0.000496335               0.003080794              -0.000000000              -0.000198973               0.001093245               0.000894272               0.000000000               0.000000000               0.000000000               0.000000000               0.000497204               0.003135464              -0.000000000              -0.000205481               0.001113638               0.000908157               0.000000000               0.000000000               0.000000000               0.000000000               0.000526470               0.003170694               0.000000000              -0.000198910               0.001123191               0.000924281               0.000000000               0.000000000               0.000000000               0.000000000               0.000560040               0.003188293              -0.000000000              -0.000188521               0.001125594               0.000937073               0.000000000               0.000000000               0.000000000               0.000000000               0.000000000               0.000000000               0.000000000               0.000000000               0.000000000               0.000000000               0.000000000               0.000000000               0.000000000               0.000000000               0.000000000               0.000000000               0.000000000               0.000000000               0.000000000               0.000000000               0.000000000               0.000000000               0.000000000               0.000000000               0.000000000               0.000000000               0.000000000               0.000000000               0.000000000               0.000000000               0.000000000               0.000000000               0.000000000               0.000000000               0.000000000               0.000000000               0.000000000               0.000000000               0.000000000               0.000000000               0.000000000               0.000000000               0.000000000               0.000000000               0.000000000               0.000000000               0.000000000               0.000000000               0.000000000               0.000000000               0.000000000               0.000000000               0.000000000               0.000000000               0.000000000               0.000000000               0.000000000               0.000000000               0.000000000               0.000000000               0.000000000               0.000000000               0.000000000               0.000000000               0.000000000               0.000000000               0.000000000               0.000000000               0.000000000               0.000000000               0.000000000               0.000000000               0.000000000               0.000000000               0.000000000               0.000000000               0.000000000               0.000000000               0.000000000               0.000000000               0.000000000               0.000000000               0.000000000               0.000000000               0.000000000               0.000000000               0.000000000               0.000000000               0.000000000               0.000000000               0.000000000               0.000000000               0.000000000               0.000000000               0.000000000               0.000000000               0.000000000               0.000000000               0.000000000               0.000000000               0.000000000               0.000000000               0.000000000               0.000000000               0.000000000               0.000000000               0.000000000               0.000000000               0.000000000               0.000000000               0.000000000               0.000000000               0.000000000               0.000000000               0.000000000               0.000000000               0.000000000               0.000000000               0.000000000               0.000000000               0.000000000               0.000000000               0.000000000               0.000000000               0.000000000               0.000000000               0.000000000               0.000000000               0.000000000               0.000000000               0.000000000               0.000000000               0.000000000               0.000000000               0.000000000               0.000000000               0.000000000               0.000000000               0.000000000               0.000000000               0.000000000               0.000000000               0.000000000               0.000000000               0.000000000               0.000000000               0.000000000               0.000000000               0.000000000               0.000000000               0.000000000               0.000000000               0.000000000               0.000000000               0.000000000               0.000000000               0.000000000               0.000000000               0.000000000               0.000000000               0.000000000               0.000000000               0.000000000               0.000000000               0.000000000               0.000000000               0.000000000               0.000000000               0.000000000               0.000000000               0.000000000               0.000000000               0.000000000               0.000000000               0.000630999               0.006893325               0.000526636              -0.000625040               0.002506098               0.001881059               0.000000000               0.000000000               0.000000000               0.000000000               0.000658225               0.005712308               0.000334498              -0.000467203               0.002059818               0.001592615               0.000000000               0.000000000               0.000000000               0.000000000               0.000884668               0.004774840               0.000135880              -0.000265104               0.001679965               0.001414862               0.000000000               0.000000000               0.000000000               0.000000000               0.000908830               0.004259804               0.000044176              -0.000191664               0.001483808               0.001292145               0.000000000               0.000000000               0.000000000               0.000000000               0.000855877               0.003954465               0.000000709              -0.000173354               0.001375926               0.001202572               0.000000000               0.000000000               0.000000000               0.000000000               0.000778509               0.003765710              -0.000019951              -0.000178773               0.001314815               0.001136042               0.000000000               0.000000000               0.000000000               0.000000000               0.000697227               0.003646194              -0.000029895              -0.000194314               0.001280157               0.001085843               0.000000000               0.000000000               0.000000000               0.000000000               0.000615111               0.003569863              -0.000034439              -0.000215566               0.001261798               0.001046232               0.000000000               0.000000000               0.000000000               0.000000000               0.000537153               0.003520650              -0.000033908              -0.000238648               0.001253088               0.001014439               0.000000000               0.000000000               0.000000000               0.000000000               0.000465938               0.003487788              -0.000032539              -0.000261246               0.001249666               0.000988420               0.000000000               0.000000000               0.000000000               0.000000000               0.000395648               0.003467650              -0.000033390              -0.000285088               0.001250901               0.000965813               0.000000000               0.000000000               0.000000000               0.000000000               0.000323311               0.003456976              -0.000033467              -0.000310880               0.001255940               0.000945061               0.000000000               0.000000000               0.000000000               0.000000000               0.000252765               0.003452600              -0.000031580              -0.000336787               0.001263118               0.000926330               0.000000000               0.000000000               0.000000000               0.000000000               0.000184761               0.003450280              -0.000027323              -0.000361999               0.001270748               0.000908749               0.000000000               0.000000000               0.000000000               0.000000000               0.000119622               0.003446740              -0.000021251              -0.000385983               0.001277563               0.000891579               0.000000000               0.000000000               0.000000000               0.000000000               0.000058028               0.003440858              -0.000012363              -0.000408346               0.001283056               0.000874711               0.000000000               0.000000000               0.000000000               0.000000000               0.000029074               0.003438477              -0.000006281              -0.000418906               0.001285783               0.000866877               0.000000000               0.000000000               0.000000000               0.000000000               0.000730272               0.006542380               0.000994955              -0.000543945               0.002362086               0.001818142               0.000000000               0.000000000               0.000000000               0.000000000               0.000683961               0.005466111               0.000633311              -0.000426778               0.001964278               0.001537500               0.000000000               0.000000000               0.000000000               0.000000000               0.000830278               0.004640122               0.000262723              -0.000268660               0.001636245               0.001367585               0.000000000               0.000000000               0.000000000               0.000000000               0.000822719               0.004186580               0.000095537              -0.000214802               0.001467113               0.001252311               0.000000000               0.000000000               0.000000000               0.000000000               0.000760464               0.003916473               0.000016465              -0.000204385               0.001373606               0.001169222               0.000000000               0.000000000               0.000000000               0.000000000               0.000682899               0.003748411              -0.000021460              -0.000212464               0.001320279               0.001107815               0.000000000               0.000000000               0.000000000               0.000000000               0.000608434               0.003640609              -0.000039902              -0.000226913               0.001289162               0.001062249               0.000000000               0.000000000               0.000000000               0.000000000               0.000535445               0.003568573              -0.000049281              -0.000245279               0.001271272               0.001025993               0.000000000               0.000000000               0.000000000               0.000000000               0.000465613               0.003520745              -0.000049483              -0.000265487               0.001262066               0.000996578               0.000000000               0.000000000               0.000000000               0.000000000               0.000402088               0.003488970              -0.000046701              -0.000285338               0.001258091               0.000972753               0.000000000               0.000000000               0.000000000               0.000000000               0.000339694               0.003469062              -0.000047579              -0.000306247               0.001258425               0.000952178               0.000000000               0.000000000               0.000000000               0.000000000               0.000276552               0.003459565              -0.000047706              -0.000328738               0.001262756               0.000934018               0.000000000               0.000000000               0.000000000               0.000000000               0.000215916               0.003457259              -0.000043914              -0.000351188               0.001269471               0.000918283               0.000000000               0.000000000               0.000000000               0.000000000               0.000157638               0.003457406              -0.000036137              -0.000373060               0.001276811               0.000903750               0.000000000               0.000000000               0.000000000               0.000000000               0.000102634               0.003459433              -0.000026625              -0.000393940               0.001284446               0.000890506               0.000000000               0.000000000               0.000000000               0.000000000               0.000050569               0.003465702              -0.000015342              -0.000414248               0.001293305               0.000879057               0.000000000               0.000000000               0.000000000               0.000000000               0.000028321               0.003477424              -0.000007207              -0.000424057               0.001300482               0.000876425               0.000000000               0.000000000               0.000000000               0.000000000               0.000866752               0.006004503               0.001361011              -0.000425531               0.002143325               0.001717794               0.000000000               0.000000000               0.000000000               0.000000000               0.000714707               0.005095048               0.000872908              -0.000368866               0.001821288               0.001452422               0.000000000               0.000000000               0.000000000               0.000000000               0.000747716               0.004442949               0.000376195              -0.000274975               0.001572626               0.001297652               0.000000000               0.000000000               0.000000000               0.000000000               0.000699301               0.004078715               0.000156715              -0.000247601               0.001442092               0.001194491               0.000000000               0.000000000               0.000000000               0.000000000               0.000628802               0.003855945               0.000053269              -0.000246192               0.001367366               0.001121174               0.000000000               0.000000000               0.000000000               0.000000000               0.000554756               0.003711342               0.000002102              -0.000255883               0.001322396               0.001066513               0.000000000               0.000000000               0.000000000               0.000000000               0.000487213               0.003615041              -0.000023395              -0.000269175               0.001294727               0.001025552               0.000000000               0.000000000               0.000000000               0.000000000               0.000425837               0.003549996              -0.000036258              -0.000284060               0.001278007               0.000993947               0.000000000               0.000000000               0.000000000               0.000000000               0.000367139               0.003506579              -0.000037371              -0.000300645               0.001269063               0.000968418               0.000000000               0.000000000               0.000000000               0.000000000               0.000312486               0.003478836              -0.000032467              -0.000317671               0.001265491               0.000947819               0.000000000               0.000000000               0.000000000               0.000000000               0.000261850               0.003460562              -0.000033194              -0.000334376               0.001264968               0.000930592               0.000000000               0.000000000               0.000000000               0.000000000               0.000213356               0.003451260              -0.000035038              -0.000351398               0.001267541               0.000916143               0.000000000               0.000000000               0.000000000               0.000000000               0.000168421               0.003449444              -0.000031498              -0.000368022               0.001272477               0.000904455               0.000000000               0.000000000               0.000000000               0.000000000               0.000126588               0.003454251              -0.000023227              -0.000384310               0.001279509               0.000895199               0.000000000               0.000000000               0.000000000               0.000000000               0.000085671               0.003466894              -0.000014561              -0.000401234               0.001289364               0.000888130               0.000000000               0.000000000               0.000000000               0.000000000               0.000043512               0.003489874              -0.000008113              -0.000419916               0.001303252               0.000883336               0.000000000               0.000000000               0.000000000               0.000000000               0.000028030               0.003516464              -0.000002021              -0.000429046               0.001315158               0.000886113               0.000000000               0.000000000               0.000000000               0.000000000               0.001006598               0.005344279               0.001602418              -0.000290561               0.001878262               0.001587701               0.000000000               0.000000000               0.000000000               0.000000000               0.000739266               0.004647464               0.001043780              -0.000303708               0.001650375               0.001346667               0.000000000               0.000000000               0.000000000               0.000000000               0.000648659               0.004207263               0.000476632              -0.000282660               0.001496627               0.001213967               0.000000000               0.000000000               0.000000000               0.000000000               0.000564024               0.003940766               0.000229329              -0.000281086               0.001407271               0.001126185               0.000000000               0.000000000               0.000000000               0.000000000               0.000491240               0.003769019               0.000113030              -0.000286912               0.001351964               0.001065053               0.000000000               0.000000000               0.000000000               0.000000000               0.000426547               0.003649534               0.000053884              -0.000296236               0.001315244               0.001019009               0.000000000               0.000000000               0.000000000               0.000000000               0.000369822               0.003567383               0.000023121              -0.000307239               0.001291529               0.000984290               0.000000000               0.000000000               0.000000000               0.000000000               0.000317081               0.003512054               0.000007070              -0.000320100               0.001277373               0.000957273               0.000000000               0.000000000               0.000000000               0.000000000               0.000268128               0.003475593               0.000001654              -0.000333900               0.001269820               0.000935919               0.000000000               0.000000000               0.000000000               0.000000000               0.000225618               0.003457225               0.000004997              -0.000347546               0.001268245               0.000920700               0.000000000               0.000000000               0.000000000               0.000000000               0.000188668               0.003445961               0.000004635              -0.000359994               0.001268640               0.000908646               0.000000000               0.000000000               0.000000000               0.000000000               0.000155986               0.003439356               0.000000205              -0.000371424               0.001270248               0.000898825               0.000000000               0.000000000               0.000000000               0.000000000               0.000127972               0.003441127               0.000000229              -0.000382150               0.001274414               0.000892264               0.000000000               0.000000000               0.000000000               0.000000000               0.000101083               0.003452604               0.000003747              -0.000393668               0.001282079               0.000888411               0.000000000               0.000000000               0.000000000               0.000000000               0.000071417               0.003476173               0.000006915              -0.000407739               0.001294626               0.000886886               0.000000000               0.000000000               0.000000000               0.000000000               0.000036719               0.003510411               0.000005437              -0.000425031               0.001311802               0.000886771               0.000000000               0.000000000               0.000000000               0.000000000               0.000025778               0.003542809               0.000007328              -0.000433183               0.001325319               0.000892136               0.000000000               0.000000000               0.000000000               0.000000000               0.001120691               0.004624986               0.001718995              -0.000157866               0.001594268               0.001436402               0.000000000               0.000000000               0.000000000               0.000000000               0.000752422               0.004167122               0.001146457              -0.000238733               0.001468604               0.001229871               0.000000000               0.000000000               0.000000000               0.000000000               0.000547400               0.003951177               0.000563420              -0.000288622               0.001413253               0.001124631               0.000000000               0.000000000               0.000000000               0.000000000               0.000436646               0.003783996               0.000311480              -0.000309256               0.001364405               0.001055148               0.000000000               0.000000000               0.000000000               0.000000000               0.000370221               0.003659136               0.000190773              -0.000318558               0.001325886               0.001007327               0.000000000               0.000000000               0.000000000               0.000000000               0.000318263               0.003565835               0.000125944              -0.000326380               0.001297393               0.000971013               0.000000000               0.000000000               0.000000000               0.000000000               0.000274670               0.003506644               0.000090066              -0.000335329               0.001280646               0.000945317               0.000000000               0.000000000               0.000000000               0.000000000               0.000235925               0.003467788               0.000069185              -0.000345001               0.001270918               0.000925917               0.000000000               0.000000000               0.000000000               0.000000000               0.000199893               0.003443741               0.000056343              -0.000355507               0.001266405               0.000910898               0.000000000               0.000000000               0.000000000               0.000000000               0.000167224               0.003432446               0.000054190              -0.000366346               0.001266253               0.000899907               0.000000000               0.000000000               0.000000000               0.000000000               0.000141437               0.003427373               0.000054358              -0.000375382               0.001267573               0.000892192               0.000000000               0.000000000               0.000000000               0.000000000               0.000119658               0.003425335               0.000047629              -0.000383294               0.001269532               0.000886238               0.000000000               0.000000000               0.000000000               0.000000000               0.000102338               0.003432336               0.000042366              -0.000390664               0.001274322               0.000883658               0.000000000               0.000000000               0.000000000               0.000000000               0.000083894               0.003449593               0.000038668              -0.000399738               0.001283099               0.000883361               0.000000000               0.000000000               0.000000000               0.000000000               0.000058728               0.003474840               0.000032396              -0.000412331               0.001295712               0.000883381               0.000000000               0.000000000               0.000000000               0.000000000               0.000030554               0.003502674               0.000020618              -0.000426376               0.001309672               0.000883296               0.000000000               0.000000000               0.000000000               0.000000000               0.000020130               0.003520683               0.000014670              -0.000432535               0.001317728               0.000885192               0.000000000               0.000000000               0.000000000               0.000000000               0.001186933               0.003903176               0.001718923              -0.000042799               0.001315311               0.001272512               0.000000000               0.000000000               0.000000000               0.000000000               0.000748571               0.003691128               0.001188376              -0.000180678               0.001290589               0.001109912               0.000000000               0.000000000               0.000000000               0.000000000               0.000457315               0.003691168               0.000640298              -0.000289903               0.001327011               0.001037109               0.000000000               0.000000000               0.000000000               0.000000000               0.000336905               0.003612583               0.000398738              -0.000325233               0.001312593               0.000987360               0.000000000               0.000000000               0.000000000               0.000000000               0.000280923               0.003533570               0.000276131              -0.000336349               0.001289961               0.000953612               0.000000000               0.000000000               0.000000000               0.000000000               0.000245326               0.003475611               0.000203224              -0.000342453               0.001272676               0.000930223               0.000000000               0.000000000               0.000000000               0.000000000               0.000214933               0.003442458               0.000158258              -0.000349707               0.001264043               0.000914337               0.000000000               0.000000000               0.000000000               0.000000000               0.000185942               0.003420802               0.000131999              -0.000357871               0.001259546               0.000901675               0.000000000               0.000000000               0.000000000               0.000000000               0.000160625               0.003409256               0.000114495              -0.000365922               0.001258381               0.000892459               0.000000000               0.000000000               0.000000000               0.000000000               0.000137698               0.003404608               0.000107733              -0.000373938               0.001259504               0.000885566               0.000000000               0.000000000               0.000000000               0.000000000               0.000119322               0.003405128               0.000105868              -0.000380894               0.001261996               0.000881102               0.000000000               0.000000000               0.000000000               0.000000000               0.000102400               0.003408652               0.000095357              -0.000387681               0.001265433               0.000877752               0.000000000               0.000000000               0.000000000               0.000000000               0.000083974               0.003417191               0.000079800              -0.000395658               0.001270938               0.000875280               0.000000000               0.000000000               0.000000000               0.000000000               0.000062946               0.003431409               0.000063043              -0.000405320               0.001278898               0.000873578               0.000000000               0.000000000               0.000000000               0.000000000               0.000038942               0.003444630               0.000042966              -0.000415974               0.001286857               0.000870882               0.000000000               0.000000000               0.000000000               0.000000000               0.000018045               0.003447720               0.000022483              -0.000424197               0.001290628               0.000866431               0.000000000               0.000000000               0.000000000               0.000000000               0.000004879               0.003438969               0.000010597              -0.000428040               0.001288992               0.000860951               0.000000000               0.000000000               0.000000000               0.000000000               0.001200863               0.003217277               0.001622159               0.000048161               0.001056360               0.001104522               0.000000000               0.000000000               0.000000000               0.000000000               0.000729888               0.003244006               0.001183113              -0.000131794               0.001125256               0.000993462               0.000000000               0.000000000               0.000000000               0.000000000               0.000388357               0.003437098               0.000711421              -0.000284003               0.001240355               0.000956352               0.000000000               0.000000000               0.000000000               0.000000000               0.000274741               0.003438622               0.000483862              -0.000326799               0.001255129               0.000928330               0.000000000               0.000000000               0.000000000               0.000000000               0.000234898               0.003409276               0.000356030              -0.000338072               0.001249105               0.000911033               0.000000000               0.000000000               0.000000000               0.000000000               0.000211175               0.003387870               0.000273846              -0.000344292               0.001244043               0.000899751               0.000000000               0.000000000               0.000000000               0.000000000               0.000189415               0.003376913               0.000220395              -0.000351083               0.001242654               0.000891571               0.000000000               0.000000000               0.000000000               0.000000000               0.000167056               0.003373362               0.000190560              -0.000359023               0.001244117               0.000885094               0.000000000               0.000000000               0.000000000               0.000000000               0.000146696               0.003374520               0.000168674              -0.000366803               0.001247096               0.000880293               0.000000000               0.000000000               0.000000000               0.000000000               0.000130041               0.003375153               0.000152628              -0.000373128               0.001249416               0.000876288               0.000000000               0.000000000               0.000000000               0.000000000               0.000110746               0.003376750               0.000140073              -0.000380563               0.001252426               0.000871863               0.000000000               0.000000000               0.000000000               0.000000000               0.000086994               0.003380827               0.000118762              -0.000389980               0.001256924               0.000866944               0.000000000               0.000000000               0.000000000               0.000000000               0.000059635               0.003385682               0.000089423              -0.000400846               0.001262165               0.000861319               0.000000000               0.000000000               0.000000000               0.000000000               0.000031406               0.003386354               0.000057892              -0.000411516               0.001265945               0.000854429               0.000000000               0.000000000               0.000000000               0.000000000               0.000007781               0.003377469               0.000027756              -0.000419265               0.001265567               0.000846302               0.000000000               0.000000000               0.000000000               0.000000000              -0.000002823               0.003355908               0.000007244              -0.000420546               0.001258807               0.000838261               0.000000000               0.000000000               0.000000000               0.000000000              -0.000009554               0.003333659              -0.000002566              -0.000420289               0.001251305               0.000831016               0.000000000               0.000000000               0.000000000               0.000000000               0.001181613               0.002618266               0.001465017               0.000115819               0.000834140               0.000949958               0.000000000               0.000000000               0.000000000               0.000000000               0.000718992               0.002844641               0.001154861              -0.000085960               0.000976857               0.000890898               0.000000000               0.000000000               0.000000000               0.000000000               0.000361728               0.003205224               0.000788981              -0.000265005               0.001156732               0.000891727               0.000000000               0.000000000               0.000000000               0.000000000               0.000257466               0.003289366               0.000574306              -0.000314621               0.001201318               0.000886697               0.000000000               0.000000000               0.000000000               0.000000000               0.000224361               0.003307545               0.000436997              -0.000329307               0.001212273               0.000882966               0.000000000               0.000000000               0.000000000               0.000000000               0.000205231               0.003317272               0.000344457              -0.000337696               0.001218312               0.000880615               0.000000000               0.000000000               0.000000000               0.000000000               0.000186191               0.003328006               0.000283799              -0.000346178               0.001224717               0.000878539               0.000000000               0.000000000               0.000000000               0.000000000               0.000173555               0.003343899               0.000247197              -0.000352903               0.001232256               0.000879353               0.000000000               0.000000000               0.000000000               0.000000000               0.000160352               0.003356735               0.000218160              -0.000359459               0.001238720               0.000879261               0.000000000               0.000000000               0.000000000               0.000000000               0.000144075               0.003358742               0.000190028              -0.000365814               0.001241507               0.000875694               0.000000000               0.000000000               0.000000000               0.000000000               0.000119201               0.003355066               0.000161626              -0.000374682               0.001243238               0.000868556               0.000000000               0.000000000               0.000000000               0.000000000               0.000086829               0.003355572               0.000128292              -0.000386885               0.001247474               0.000860590               0.000000000               0.000000000               0.000000000               0.000000000               0.000049546               0.003354711               0.000089941              -0.000400758               0.001251812               0.000851054               0.000000000               0.000000000               0.000000000               0.000000000               0.000011071               0.003343349               0.000051388              -0.000413766               0.001252361               0.000838595               0.000000000               0.000000000               0.000000000               0.000000000              -0.000022773               0.003317207               0.000019215              -0.000423190               0.001246788               0.000823598               0.000000000               0.000000000               0.000000000               0.000000000              -0.000043103               0.003277152               0.000000462              -0.000425807               0.001234309               0.000808502               0.000000000               0.000000000               0.000000000               0.000000000              -0.000048451               0.003251437              -0.000005896              -0.000424598               0.001225334               0.000800736               0.000000000               0.000000000               0.000000000               0.000000000               0.001118179               0.002043821               0.001279726               0.000163837               0.000626654               0.000790490               0.000000000               0.000000000               0.000000000               0.000000000               0.000722940               0.002385912               0.001116834              -0.000027138               0.000804342               0.000777204               0.000000000               0.000000000               0.000000000               0.000000000               0.000384701               0.002870449               0.000881254              -0.000214543               0.001028321               0.000813778               0.000000000               0.000000000               0.000000000               0.000000000               0.000282972               0.003052767               0.000685492              -0.000275481               0.001109406               0.000833925               0.000000000               0.000000000               0.000000000               0.000000000               0.000245178               0.003129632               0.000539689              -0.000299262               0.001142954               0.000843692               0.000000000               0.000000000               0.000000000               0.000000000               0.000229192               0.003179124               0.000436966              -0.000311443               0.001163512               0.000852069               0.000000000               0.000000000               0.000000000               0.000000000               0.000215385               0.003225588               0.000367295              -0.000322428               0.001182661               0.000860233               0.000000000               0.000000000               0.000000000               0.000000000               0.000204203               0.003268964               0.000317380              -0.000332044               0.001200325               0.000868281               0.000000000               0.000000000               0.000000000               0.000000000               0.000189301               0.003297503               0.000274564              -0.000341199               0.001212890               0.000871690               0.000000000               0.000000000               0.000000000               0.000000000               0.000169489               0.003307904               0.000234226              -0.000349929               0.001219267               0.000869338               0.000000000               0.000000000               0.000000000               0.000000000               0.000141287               0.003302498               0.000194246              -0.000359829               0.001220764               0.000860936               0.000000000               0.000000000               0.000000000               0.000000000               0.000104820               0.003294487               0.000154297              -0.000372502               0.001222319               0.000849816               0.000000000               0.000000000               0.000000000               0.000000000               0.000060500               0.003285663               0.000110814              -0.000388019               0.001224550               0.000836530               0.000000000               0.000000000               0.000000000               0.000000000               0.000012311               0.003275656               0.000067372              -0.000404839               0.001226821               0.000821981               0.000000000               0.000000000               0.000000000               0.000000000              -0.000034758               0.003258311               0.000032346              -0.000420322               0.001226200               0.000805878               0.000000000               0.000000000               0.000000000               0.000000000              -0.000076074               0.003230397               0.000009931              -0.000432326               0.001220897               0.000788571               0.000000000               0.000000000               0.000000000               0.000000000              -0.000097346               0.003209816              -0.000000138              -0.000437731               0.001215838               0.000778108               0.000000000               0.000000000               0.000000000               0.000000000               0.000989099               0.001507342               0.001070068               0.000182492               0.000441611               0.000624103               0.000000000               0.000000000               0.000000000               0.000000000               0.000723895               0.001931379               0.001050204               0.000030036               0.000633774               0.000663810               0.000000000               0.000000000               0.000000000               0.000000000               0.000445740               0.002501890               0.000950195              -0.000145584               0.000882483               0.000736898               0.000000000               0.000000000               0.000000000               0.000000000               0.000345242               0.002772991               0.000791883              -0.000217158               0.000996707               0.000779549               0.000000000               0.000000000               0.000000000               0.000000000               0.000300556               0.002914974               0.000650839              -0.000251663               0.001055536               0.000803873               0.000000000               0.000000000               0.000000000               0.000000000               0.000278227               0.003012871               0.000541794              -0.000272273               0.001095038               0.000822765               0.000000000               0.000000000               0.000000000               0.000000000               0.000261992               0.003098424               0.000461720              -0.000289056               0.001129149               0.000840094               0.000000000               0.000000000               0.000000000               0.000000000               0.000245723               0.003171356               0.000397792              -0.000304273               0.001158532               0.000854260               0.000000000               0.000000000               0.000000000               0.000000000               0.000226731               0.003224276               0.000342549              -0.000318010               0.001180751               0.000862742               0.000000000               0.000000000               0.000000000               0.000000000               0.000203915               0.003253578               0.000293231              -0.000330228               0.001194591               0.000864363               0.000000000               0.000000000               0.000000000               0.000000000               0.000177601               0.003261337               0.000246977              -0.000341066               0.001200790               0.000859724               0.000000000               0.000000000               0.000000000               0.000000000               0.000145480               0.003253297               0.000201452              -0.000352106               0.001201790               0.000849684               0.000000000               0.000000000               0.000000000               0.000000000               0.000103170               0.003239829               0.000152984              -0.000366289               0.001202029               0.000835740               0.000000000               0.000000000               0.000000000               0.000000000               0.000051390               0.003229354               0.000104781              -0.000384397               0.001204573               0.000820176               0.000000000               0.000000000               0.000000000               0.000000000              -0.000006982               0.003220488               0.000062196              -0.000405178               0.001208545               0.000803366               0.000000000               0.000000000               0.000000000               0.000000000              -0.000070381               0.003208679               0.000027852              -0.000427477               0.001212041               0.000784564               0.000000000               0.000000000               0.000000000               0.000000000              -0.000117410               0.003189820               0.000007012              -0.000442755               0.001210848               0.000768092               0.000000000               0.000000000               0.000000000               0.000000000               0.000799022               0.001040808               0.000841232               0.000169530               0.000290422               0.000459952               0.000000000               0.000000000               0.000000000               0.000000000               0.000694440               0.001501271               0.000939080               0.000072754               0.000476167               0.000548921               0.000000000               0.000000000               0.000000000               0.000000000               0.000516686               0.002097582               0.000956662              -0.000068442               0.000722000               0.000653559               0.000000000               0.000000000               0.000000000               0.000000000               0.000433207               0.002433758               0.000848022              -0.000141768               0.000858500               0.000716733               0.000000000               0.000000000               0.000000000               0.000000000               0.000384002               0.002640696               0.000726314              -0.000186086               0.000942252               0.000756165               0.000000000               0.000000000               0.000000000               0.000000000               0.000353924               0.002793473               0.000621502              -0.000216462               0.001003302               0.000786840               0.000000000               0.000000000               0.000000000               0.000000000               0.000331671               0.002922111               0.000539563              -0.000240887               0.001054323               0.000813436               0.000000000               0.000000000               0.000000000               0.000000000               0.000309988               0.003032770               0.000470184              -0.000262850               0.001098530               0.000835680               0.000000000               0.000000000               0.000000000               0.000000000               0.000285263               0.003119971               0.000407132              -0.000283022               0.001134320               0.000851298               0.000000000               0.000000000               0.000000000               0.000000000               0.000254174               0.003178082               0.000350601              -0.000301944               0.001159998               0.000858054               0.000000000               0.000000000               0.000000000               0.000000000               0.000222559               0.003205155               0.000301827              -0.000317184               0.001174102               0.000856918               0.000000000               0.000000000               0.000000000               0.000000000               0.000189606               0.003208228               0.000253705              -0.000329926               0.001179374               0.000849448               0.000000000               0.000000000               0.000000000               0.000000000               0.000151936               0.003203642               0.000200406              -0.000343479               0.001182363               0.000838884               0.000000000               0.000000000               0.000000000               0.000000000               0.000104875               0.003197829               0.000146291              -0.000360400               0.001186066               0.000825666               0.000000000               0.000000000               0.000000000               0.000000000               0.000046599               0.003194843               0.000096216              -0.000381880               0.001192230               0.000810351               0.000000000               0.000000000               0.000000000               0.000000000              -0.000025250               0.003193284               0.000047883              -0.000408628               0.001200627               0.000791999               0.000000000               0.000000000               0.000000000               0.000000000              -0.000085137               0.003179130               0.000016214              -0.000429317               0.001202805               0.000773488               0.000000000               0.000000000               0.000000000               0.000000000               0.000563678               0.000665359               0.000613573               0.000128208               0.000179048               0.000307255               0.000000000               0.000000000               0.000000000               0.000000000               0.000636650               0.001109875               0.000787641               0.000100008               0.000336618               0.000436626               0.000000000               0.000000000               0.000000000               0.000000000               0.000586475               0.001681129               0.000890922               0.000009786               0.000557109               0.000566894               0.000000000               0.000000000               0.000000000               0.000000000               0.000537887               0.002059814               0.000832274              -0.000055770               0.000705188               0.000649418               0.000000000               0.000000000               0.000000000               0.000000000               0.000493482               0.002321593               0.000740300              -0.000105144               0.000808904               0.000703761               0.000000000               0.000000000               0.000000000               0.000000000               0.000459157               0.002525860               0.000652764              -0.000143549               0.000889794               0.000746245               0.000000000               0.000000000               0.000000000               0.000000000               0.000430083               0.002701382               0.000575721              -0.000176392               0.000959249               0.000782857               0.000000000               0.000000000               0.000000000               0.000000000               0.000397505               0.002853193               0.000506876              -0.000207585               0.001020250               0.000812665               0.000000000               0.000000000               0.000000000               0.000000000               0.000364553               0.002974246               0.000443343              -0.000235073               0.001069763               0.000834690               0.000000000               0.000000000               0.000000000               0.000000000               0.000328992               0.003062587               0.000387661              -0.000259451               0.001107336               0.000847885               0.000000000               0.000000000               0.000000000               0.000000000               0.000291190               0.003121858               0.000339953              -0.000281035               0.001134287               0.000853252               0.000000000               0.000000000               0.000000000               0.000000000               0.000253410               0.003156482               0.000293038              -0.000299531               0.001151994               0.000852463               0.000000000               0.000000000               0.000000000               0.000000000               0.000217580               0.003170209               0.000241822              -0.000314683               0.001161620               0.000846937               0.000000000               0.000000000               0.000000000               0.000000000               0.000178426               0.003172540               0.000187445              -0.000329657               0.001167388               0.000837731               0.000000000               0.000000000               0.000000000               0.000000000               0.000130327               0.003177651               0.000130738              -0.000348333               0.001175317               0.000826984               0.000000000               0.000000000               0.000000000               0.000000000               0.000066148               0.003186560               0.000068355              -0.000373513               0.001186681               0.000813167               0.000000000               0.000000000               0.000000000               0.000000000               0.000009480               0.003179628               0.000029075              -0.000393898               0.001191165               0.000797267               0.000000000               0.000000000               0.000000000               0.000000000               0.000311342               0.000383715               0.000409001               0.000068788               0.000104974               0.000173762               0.000000000               0.000000000               0.000000000               0.000000000               0.000556231               0.000777300               0.000607201               0.000111423               0.000221956               0.000333379               0.000000000               0.000000000               0.000000000               0.000000000               0.000649221               0.001294242               0.000751260               0.000081676               0.000404184               0.000485860               0.000000000               0.000000000               0.000000000               0.000000000               0.000650957               0.001692960               0.000735255               0.000032488               0.000553485               0.000585973               0.000000000               0.000000000               0.000000000               0.000000000               0.000625745               0.001997310               0.000676396              -0.000015010               0.000670767               0.000655756               0.000000000               0.000000000               0.000000000               0.000000000               0.000588528               0.002241696               0.000610697              -0.000059514               0.000767062               0.000707548               0.000000000               0.000000000               0.000000000               0.000000000               0.000547189               0.002452922               0.000544161              -0.000101420               0.000851439               0.000750019               0.000000000               0.000000000               0.000000000               0.000000000               0.000504991               0.002639628               0.000483030              -0.000140582               0.000926728               0.000786146               0.000000000               0.000000000               0.000000000               0.000000000               0.000467021               0.002791914               0.000428755              -0.000173856               0.000988581               0.000814724               0.000000000               0.000000000               0.000000000               0.000000000               0.000429623               0.002912334               0.000378255              -0.000202933               0.001038413               0.000835480               0.000000000               0.000000000               0.000000000               0.000000000               0.000387594               0.003009969               0.000333912              -0.000230898               0.001080279               0.000849381               0.000000000               0.000000000               0.000000000               0.000000000               0.000349420               0.003081617               0.000295385              -0.000254169               0.001111919               0.000857749               0.000000000               0.000000000               0.000000000               0.000000000               0.000317966               0.003123587               0.000253057              -0.000271211               0.001131589               0.000860378               0.000000000               0.000000000               0.000000000               0.000000000               0.000287383               0.003148159               0.000202216              -0.000285751               0.001144626               0.000858875               0.000000000               0.000000000               0.000000000               0.000000000               0.000250504               0.003166480               0.000144731              -0.000301870               0.001156106               0.000854236               0.000000000               0.000000000               0.000000000               0.000000000               0.000206197               0.003181752               0.000078065              -0.000320394               0.001167371               0.000846977               0.000000000               0.000000000               0.000000000               0.000000000               0.000169313               0.003181378               0.000038155              -0.000334179               0.001171842               0.000837663               0.000000000               0.000000000               0.000000000               0.000000000               0.000084016               0.000197364               0.000239411               0.000006835               0.000063509               0.000070344               0.000000000               0.000000000               0.000000000               0.000000000               0.000472154               0.000526503               0.000409799               0.000111244               0.000138418               0.000249661               0.000000000               0.000000000               0.000000000               0.000000000               0.000699576               0.000977775               0.000544715               0.000140118               0.000279216               0.000419333               0.000000000               0.000000000               0.000000000               0.000000000               0.000756599               0.001379942               0.000553314               0.000111231               0.000422899               0.000534130               0.000000000               0.000000000               0.000000000               0.000000000               0.000750106               0.001708576               0.000522637               0.000067717               0.000546947               0.000614664               0.000000000               0.000000000               0.000000000               0.000000000               0.000713335               0.001977452               0.000477753               0.000020319               0.000652371               0.000672690               0.000000000               0.000000000               0.000000000               0.000000000               0.000664281               0.002210858               0.000428197              -0.000027252               0.000746029               0.000718777               0.000000000               0.000000000               0.000000000               0.000000000               0.000618262               0.002419639               0.000384333              -0.000070607               0.000830074               0.000759467               0.000000000               0.000000000               0.000000000               0.000000000               0.000576935               0.002601610               0.000344897              -0.000108850               0.000903478               0.000794628               0.000000000               0.000000000               0.000000000               0.000000000               0.000536800               0.002758651               0.000303566              -0.000143531               0.000967385               0.000823854               0.000000000               0.000000000               0.000000000               0.000000000               0.000495987               0.002887736               0.000270802              -0.000174972               0.001020893               0.000845921               0.000000000               0.000000000               0.000000000               0.000000000               0.000458528               0.002987841               0.000247126              -0.000201532               0.001063114               0.000861583               0.000000000               0.000000000               0.000000000               0.000000000               0.000426009               0.003064903               0.000216632              -0.000223359               0.001096077               0.000872718               0.000000000               0.000000000               0.000000000               0.000000000               0.000399637               0.003122066               0.000172577              -0.000240394               0.001120810               0.000880416               0.000000000               0.000000000               0.000000000               0.000000000               0.000376948               0.003158819               0.000121704              -0.000253496               0.001137428               0.000883931               0.000000000               0.000000000               0.000000000               0.000000000               0.000358920               0.003179118               0.000065709              -0.000262794               0.001147294               0.000884499               0.000000000               0.000000000               0.000000000               0.000000000               0.000350151               0.003184427               0.000034557              -0.000266746               0.001150380               0.000883634               0.000000000               0.000000000               0.000000000               0.000000000              -0.000075554               0.000091624               0.000108043              -0.000039786               0.000043803               0.000004017               0.000000000               0.000000000               0.000000000               0.000000000               0.000410826               0.000370022               0.000206053               0.000107806               0.000087404               0.000195210               0.000000000               0.000000000               0.000000000               0.000000000               0.000731011               0.000769059               0.000286879               0.000177995               0.000197019               0.000375014               0.000000000               0.000000000               0.000000000               0.000000000               0.000832028               0.001167188               0.000298771               0.000166110               0.000333689               0.000499799               0.000000000               0.000000000               0.000000000               0.000000000               0.000837296               0.001504444               0.000286295               0.000125929               0.000459500               0.000585429               0.000000000               0.000000000               0.000000000               0.000000000               0.000802235               0.001783973               0.000262278               0.000077841               0.000568705               0.000646546               0.000000000               0.000000000               0.000000000               0.000000000               0.000754337               0.002025346               0.000235786               0.000029708               0.000665206               0.000694914               0.000000000               0.000000000               0.000000000               0.000000000               0.000706781               0.002249066               0.000213610              -0.000016091               0.000755045               0.000738954               0.000000000               0.000000000               0.000000000               0.000000000               0.000659380               0.002459065               0.000192696              -0.000060115               0.000839718               0.000779603               0.000000000               0.000000000               0.000000000               0.000000000               0.000615843               0.002643751               0.000169142              -0.000099527               0.000914417               0.000814890               0.000000000               0.000000000               0.000000000               0.000000000               0.000576581               0.002795975               0.000152883              -0.000133279               0.000976408               0.000843130               0.000000000               0.000000000               0.000000000               0.000000000               0.000535726               0.002918417               0.000143038              -0.000163905               0.001027431               0.000863526               0.000000000               0.000000000               0.000000000               0.000000000               0.000497408               0.003018394               0.000126956              -0.000190771               0.001069712               0.000878941               0.000000000               0.000000000               0.000000000               0.000000000               0.000472069               0.003095316               0.000101060              -0.000209888               0.001101724               0.000891836               0.000000000               0.000000000               0.000000000               0.000000000               0.000465724               0.003146552               0.000069382              -0.000218672               0.001121731               0.000903059               0.000000000               0.000000000               0.000000000               0.000000000               0.000478790               0.003175856               0.000035684              -0.000217435               0.001131086               0.000913651               0.000000000               0.000000000               0.000000000               0.000000000               0.000498346               0.003188246               0.000018593              -0.000211650               0.001133288               0.000921638               0.000000000               0.000000000               0.000000000               0.000000000              -0.000133559               0.000056383              -0.000000000              -0.000057132               0.000037838              -0.000019294               0.000000000               0.000000000               0.000000000               0.000000000               0.000388632               0.000317204              -0.000000000               0.000106085               0.000070372               0.000176457               0.000000000               0.000000000               0.000000000               0.000000000               0.000740601               0.000697539              -0.000000000               0.000190531               0.000169000               0.000359531               0.000000000               0.000000000               0.000000000               0.000000000               0.000858769               0.001091552               0.000000000               0.000185593               0.000301983               0.000487575               0.000000000               0.000000000               0.000000000               0.000000000               0.000868150               0.001428655               0.000000000               0.000146973               0.000427223               0.000574195               0.000000000               0.000000000               0.000000000               0.000000000               0.000835142               0.001711851              -0.000000000               0.000099196               0.000537546               0.000636742               0.000000000               0.000000000               0.000000000               0.000000000               0.000790096               0.001954975              -0.000000000               0.000051914               0.000634347               0.000686261               0.000000000               0.000000000               0.000000000               0.000000000               0.000741286               0.002184601               0.000000000               0.000004907               0.000726557               0.000731464               0.000000000               0.000000000               0.000000000               0.000000000               0.000689128               0.002406555              -0.000000000              -0.000042396               0.000816309               0.000773913               0.000000000               0.000000000               0.000000000               0.000000000               0.000642654               0.002600515              -0.000000000              -0.000084069               0.000894853               0.000810784               0.000000000               0.000000000               0.000000000               0.000000000               0.000603491               0.002764473               0.000000000              -0.000119250               0.000961232               0.000841982               0.000000000               0.000000000               0.000000000               0.000000000               0.000560775               0.002897567              -0.000000000              -0.000151905               0.001016481               0.000864576               0.000000000               0.000000000               0.000000000               0.000000000               0.000520445               0.003001442               0.000000000              -0.000180013               0.001060475               0.000880462               0.000000000               0.000000000               0.000000000               0.000000000               0.000496335               0.003080794              -0.000000000              -0.000198973               0.001093245               0.000894272               0.000000000               0.000000000               0.000000000               0.000000000               0.000497204               0.003135464              -0.000000000              -0.000205481               0.001113638               0.000908157               0.000000000               0.000000000               0.000000000               0.000000000               0.000526470               0.003170694               0.000000000              -0.000198910               0.001123191               0.000924281               0.000000000               0.000000000               0.000000000               0.000000000               0.000560040               0.003188293               0.000000000              -0.000188521               0.001125594               0.000937073               0.000000000               0.000000000               0.000000000               0.000000000               0.000594222               0.007013995              -0.000000000              -0.000653915               0.002555947               0.001902032               0.000000000               0.000000000               0.000000000               0.000000000               0.000647377               0.005797611              -0.000000000              -0.000481934               0.002093162               0.001611228               0.000000000               0.000000000               0.000000000               0.000000000               0.000902254               0.004822788              -0.000000000              -0.000264502               0.001695748               0.001431245               0.000000000               0.000000000               0.000000000               0.000000000               0.000938652               0.004288429              -0.000000000              -0.000184059               0.001490815               0.001306756               0.000000000               0.000000000               0.000000000               0.000000000               0.000890375               0.003969583              -0.000000000              -0.000162307               0.001377284               0.001214977               0.000000000               0.000000000               0.000000000               0.000000000               0.000814558               0.003770890              -0.000000000              -0.000165901               0.001312251               0.001146350               0.000000000               0.000000000               0.000000000               0.000000000               0.000732709               0.003646629              -0.000000000              -0.000181062               0.001275885               0.001094823               0.000000000               0.000000000               0.000000000               0.000000000               0.000647262               0.003568427               0.000000000              -0.000203330               0.001257240               0.001053911               0.000000000               0.000000000               0.000000000               0.000000000               0.000562627               0.003518464              -0.000000000              -0.000228822               0.001249084               0.001020261               0.000000000               0.000000000               0.000000000               0.000000000               0.000487124               0.003484761              -0.000000000              -0.000252923               0.001245883               0.000992960               0.000000000               0.000000000               0.000000000               0.000000000               0.000414810               0.003463773              -0.000000000              -0.000277417               0.001247052               0.000969635               0.000000000               0.000000000               0.000000000               0.000000000               0.000339403               0.003451980              -0.000000000              -0.000304220               0.001252055               0.000947835               0.000000000               0.000000000               0.000000000               0.000000000               0.000266006               0.003446058              -0.000000000              -0.000331004               0.001259009               0.000928005               0.000000000               0.000000000               0.000000000               0.000000000               0.000195733               0.003442662              -0.000000000              -0.000356932               0.001266520               0.000909588               0.000000000               0.000000000               0.000000000               0.000000000               0.000128021               0.003437324              -0.000000000              -0.000381657               0.001272982               0.000891326               0.000000000               0.000000000               0.000000000               0.000000000               0.000062101               0.003427077              -0.000000000              -0.000405096               0.001277380               0.000872284               0.000000000               0.000000000               0.000000000               0.000000000               0.000029437               0.003418946               0.000000000              -0.000416329               0.001278413               0.000862085               0.000000000               0.000000000               0.000000000               0.000000000               0.000630999               0.006893325              -0.000526636              -0.000625040               0.002506098               0.001881059               0.000000000               0.000000000               0.000000000               0.000000000               0.000658225               0.005712308              -0.000334498              -0.000467203               0.002059818               0.001592615               0.000000000               0.000000000               0.000000000               0.000000000               0.000884668               0.004774840              -0.000135880              -0.000265104               0.001679965               0.001414862               0.000000000               0.000000000               0.000000000               0.000000000               0.000908830               0.004259804              -0.000044176              -0.000191664               0.001483808               0.001292145               0.000000000               0.000000000               0.000000000               0.000000000               0.000855877               0.003954465              -0.000000709              -0.000173354               0.001375926               0.001202572               0.000000000               0.000000000               0.000000000               0.000000000               0.000778509               0.003765710               0.000019951              -0.000178773               0.001314815               0.001136042               0.000000000               0.000000000               0.000000000               0.000000000               0.000697227               0.003646194               0.000029895              -0.000194314               0.001280157               0.001085843               0.000000000               0.000000000               0.000000000               0.000000000               0.000615111               0.003569863               0.000034439              -0.000215566               0.001261798               0.001046232               0.000000000               0.000000000               0.000000000               0.000000000               0.000537153               0.003520650               0.000033908              -0.000238648               0.001253088               0.001014439               0.000000000               0.000000000               0.000000000               0.000000000               0.000465938               0.003487788               0.000032539              -0.000261246               0.001249666               0.000988420               0.000000000               0.000000000               0.000000000               0.000000000               0.000395648               0.003467650               0.000033390              -0.000285088               0.001250901               0.000965813               0.000000000               0.000000000               0.000000000               0.000000000               0.000323311               0.003456976               0.000033467              -0.000310880               0.001255940               0.000945061               0.000000000               0.000000000               0.000000000               0.000000000               0.000252765               0.003452600               0.000031580              -0.000336787               0.001263118               0.000926330               0.000000000               0.000000000               0.000000000               0.000000000               0.000184761               0.003450280               0.000027323              -0.000361999               0.001270748               0.000908749               0.000000000               0.000000000               0.000000000               0.000000000               0.000119622               0.003446740               0.000021251              -0.000385983               0.001277563               0.000891579               0.000000000               0.000000000               0.000000000               0.000000000               0.000058028               0.003440858               0.000012363              -0.000408346               0.001283056               0.000874711               0.000000000               0.000000000               0.000000000               0.000000000               0.000029074               0.003438477               0.000006281              -0.000418906               0.001285783               0.000866877               0.000000000               0.000000000               0.000000000               0.000000000               0.000730272               0.006542380              -0.000994955              -0.000543945               0.002362086               0.001818142               0.000000000               0.000000000               0.000000000               0.000000000               0.000683961               0.005466111              -0.000633311              -0.000426778               0.001964278               0.001537500               0.000000000               0.000000000               0.000000000               0.000000000               0.000830278               0.004640122              -0.000262723              -0.000268660               0.001636245               0.001367585               0.000000000               0.000000000               0.000000000               0.000000000               0.000822719               0.004186580              -0.000095537              -0.000214802               0.001467113               0.001252311               0.000000000               0.000000000               0.000000000               0.000000000               0.000760464               0.003916473              -0.000016465              -0.000204385               0.001373606               0.001169222               0.000000000               0.000000000               0.000000000               0.000000000               0.000682899               0.003748411               0.000021460              -0.000212464               0.001320279               0.001107815               0.000000000               0.000000000               0.000000000               0.000000000               0.000608434               0.003640609               0.000039902              -0.000226913               0.001289162               0.001062249               0.000000000               0.000000000               0.000000000               0.000000000               0.000535445               0.003568573               0.000049281              -0.000245279               0.001271272               0.001025993               0.000000000               0.000000000               0.000000000               0.000000000               0.000465613               0.003520745               0.000049483              -0.000265487               0.001262066               0.000996578               0.000000000               0.000000000               0.000000000               0.000000000               0.000402088               0.003488970               0.000046701              -0.000285338               0.001258091               0.000972753               0.000000000               0.000000000               0.000000000               0.000000000               0.000339694               0.003469062               0.000047579              -0.000306247               0.001258425               0.000952178               0.000000000               0.000000000               0.000000000               0.000000000               0.000276552               0.003459565               0.000047706              -0.000328738               0.001262756               0.000934018               0.000000000               0.000000000               0.000000000               0.000000000               0.000215916               0.003457259               0.000043914              -0.000351188               0.001269471               0.000918283               0.000000000               0.000000000               0.000000000               0.000000000               0.000157638               0.003457406               0.000036137              -0.000373060               0.001276811               0.000903750               0.000000000               0.000000000               0.000000000               0.000000000               0.000102634               0.003459433               0.000026625              -0.000393940               0.001284446               0.000890506               0.000000000               0.000000000               0.000000000               0.000000000               0.000050569               0.003465702               0.000015342              -0.000414248               0.001293305               0.000879057               0.000000000               0.000000000               0.000000000               0.000000000               0.000028321               0.003477424               0.000007207              -0.000424057               0.001300482               0.000876425               0.000000000               0.000000000               0.000000000               0.000000000               0.000866752               0.006004503              -0.001361011              -0.000425531               0.002143325               0.001717794               0.000000000               0.000000000               0.000000000               0.000000000               0.000714707               0.005095048              -0.000872908              -0.000368866               0.001821288               0.001452422               0.000000000               0.000000000               0.000000000               0.000000000               0.000747716               0.004442949              -0.000376195              -0.000274975               0.001572626               0.001297652               0.000000000               0.000000000               0.000000000               0.000000000               0.000699301               0.004078715              -0.000156715              -0.000247601               0.001442092               0.001194491               0.000000000               0.000000000               0.000000000               0.000000000               0.000628802               0.003855945              -0.000053269              -0.000246192               0.001367366               0.001121174               0.000000000               0.000000000               0.000000000               0.000000000               0.000554756               0.003711342              -0.000002102              -0.000255883               0.001322396               0.001066513               0.000000000               0.000000000               0.000000000               0.000000000               0.000487213               0.003615041               0.000023395              -0.000269175               0.001294727               0.001025552               0.000000000               0.000000000               0.000000000               0.000000000               0.000425837               0.003549996               0.000036258              -0.000284060               0.001278007               0.000993947               0.000000000               0.000000000               0.000000000               0.000000000               0.000367139               0.003506579               0.000037371              -0.000300645               0.001269063               0.000968418               0.000000000               0.000000000               0.000000000               0.000000000               0.000312486               0.003478836               0.000032467              -0.000317671               0.001265491               0.000947819               0.000000000               0.000000000               0.000000000               0.000000000               0.000261850               0.003460562               0.000033194              -0.000334376               0.001264968               0.000930592               0.000000000               0.000000000               0.000000000               0.000000000               0.000213356               0.003451260               0.000035038              -0.000351398               0.001267541               0.000916143               0.000000000               0.000000000               0.000000000               0.000000000               0.000168421               0.003449444               0.000031498              -0.000368022               0.001272477               0.000904455               0.000000000               0.000000000               0.000000000               0.000000000               0.000126588               0.003454251               0.000023227              -0.000384310               0.001279509               0.000895199               0.000000000               0.000000000               0.000000000               0.000000000               0.000085671               0.003466894               0.000014561              -0.000401234               0.001289364               0.000888130               0.000000000               0.000000000               0.000000000               0.000000000               0.000043512               0.003489874               0.000008113              -0.000419916               0.001303252               0.000883336               0.000000000               0.000000000               0.000000000               0.000000000               0.000028030               0.003516464               0.000002021              -0.000429046               0.001315158               0.000886113               0.000000000               0.000000000               0.000000000               0.000000000               0.001006598               0.005344279              -0.001602418              -0.000290561               0.001878262               0.001587701               0.000000000               0.000000000               0.000000000               0.000000000               0.000739266               0.004647464              -0.001043780              -0.000303708               0.001650375               0.001346667               0.000000000               0.000000000               0.000000000               0.000000000               0.000648659               0.004207263              -0.000476632              -0.000282660               0.001496627               0.001213967               0.000000000               0.000000000               0.000000000               0.000000000               0.000564024               0.003940766              -0.000229329              -0.000281086               0.001407271               0.001126185               0.000000000               0.000000000               0.000000000               0.000000000               0.000491240               0.003769019              -0.000113030              -0.000286912               0.001351964               0.001065053               0.000000000               0.000000000               0.000000000               0.000000000               0.000426547               0.003649534              -0.000053884              -0.000296236               0.001315244               0.001019009               0.000000000               0.000000000               0.000000000               0.000000000               0.000369822               0.003567383              -0.000023121              -0.000307239               0.001291529               0.000984290               0.000000000               0.000000000               0.000000000               0.000000000               0.000317081               0.003512054              -0.000007070              -0.000320100               0.001277373               0.000957273               0.000000000               0.000000000               0.000000000               0.000000000               0.000268128               0.003475593              -0.000001654              -0.000333900               0.001269820               0.000935919               0.000000000               0.000000000               0.000000000               0.000000000               0.000225618               0.003457225              -0.000004997              -0.000347546               0.001268245               0.000920700               0.000000000               0.000000000               0.000000000               0.000000000               0.000188668               0.003445961              -0.000004635              -0.000359994               0.001268640               0.000908646               0.000000000               0.000000000               0.000000000               0.000000000               0.000155986               0.003439356              -0.000000205              -0.000371424               0.001270248               0.000898825               0.000000000               0.000000000               0.000000000               0.000000000               0.000127972               0.003441127              -0.000000229              -0.000382150               0.001274414               0.000892264               0.000000000               0.000000000               0.000000000               0.000000000               0.000101083               0.003452604              -0.000003747              -0.000393668               0.001282079               0.000888411               0.000000000               0.000000000               0.000000000               0.000000000               0.000071417               0.003476173              -0.000006915              -0.000407739               0.001294626               0.000886886               0.000000000               0.000000000               0.000000000               0.000000000               0.000036719               0.003510411              -0.000005437              -0.000425031               0.001311802               0.000886771               0.000000000               0.000000000               0.000000000               0.000000000               0.000025778               0.003542809              -0.000007328              -0.000433183               0.001325319               0.000892136               0.000000000               0.000000000               0.000000000               0.000000000               0.001120691               0.004624986              -0.001718995              -0.000157866               0.001594268               0.001436402               0.000000000               0.000000000               0.000000000               0.000000000               0.000752422               0.004167122              -0.001146457              -0.000238733               0.001468604               0.001229871               0.000000000               0.000000000               0.000000000               0.000000000               0.000547400               0.003951177              -0.000563420              -0.000288622               0.001413253               0.001124631               0.000000000               0.000000000               0.000000000               0.000000000               0.000436646               0.003783996              -0.000311480              -0.000309256               0.001364405               0.001055148               0.000000000               0.000000000               0.000000000               0.000000000               0.000370221               0.003659136              -0.000190773              -0.000318558               0.001325886               0.001007327               0.000000000               0.000000000               0.000000000               0.000000000               0.000318263               0.003565835              -0.000125944              -0.000326380               0.001297393               0.000971013               0.000000000               0.000000000               0.000000000               0.000000000               0.000274670               0.003506644              -0.000090066              -0.000335329               0.001280646               0.000945317               0.000000000               0.000000000               0.000000000               0.000000000               0.000235925               0.003467788              -0.000069185              -0.000345001               0.001270918               0.000925917               0.000000000               0.000000000               0.000000000               0.000000000               0.000199893               0.003443741              -0.000056343              -0.000355507               0.001266405               0.000910898               0.000000000               0.000000000               0.000000000               0.000000000               0.000167224               0.003432446              -0.000054190              -0.000366346               0.001266253               0.000899907               0.000000000               0.000000000               0.000000000               0.000000000               0.000141437               0.003427373              -0.000054358              -0.000375382               0.001267573               0.000892192               0.000000000               0.000000000               0.000000000               0.000000000               0.000119658               0.003425335              -0.000047629              -0.000383294               0.001269532               0.000886238               0.000000000               0.000000000               0.000000000               0.000000000               0.000102338               0.003432336              -0.000042366              -0.000390664               0.001274322               0.000883658               0.000000000               0.000000000               0.000000000               0.000000000               0.000083894               0.003449593              -0.000038668              -0.000399738               0.001283099               0.000883361               0.000000000               0.000000000               0.000000000               0.000000000               0.000058728               0.003474840              -0.000032396              -0.000412331               0.001295712               0.000883381               0.000000000               0.000000000               0.000000000               0.000000000               0.000030554               0.003502674              -0.000020618              -0.000426376               0.001309672               0.000883296               0.000000000               0.000000000               0.000000000               0.000000000               0.000020130               0.003520683              -0.000014670              -0.000432535               0.001317728               0.000885192               0.000000000               0.000000000               0.000000000               0.000000000               0.001186933               0.003903176              -0.001718923              -0.000042799               0.001315311               0.001272512               0.000000000               0.000000000               0.000000000               0.000000000               0.000748571               0.003691128              -0.001188376              -0.000180678               0.001290589               0.001109912               0.000000000               0.000000000               0.000000000               0.000000000               0.000457315               0.003691168              -0.000640298              -0.000289903               0.001327011               0.001037109               0.000000000               0.000000000               0.000000000               0.000000000               0.000336905               0.003612583              -0.000398738              -0.000325233               0.001312593               0.000987360               0.000000000               0.000000000               0.000000000               0.000000000               0.000280923               0.003533570              -0.000276131              -0.000336349               0.001289961               0.000953612               0.000000000               0.000000000               0.000000000               0.000000000               0.000245326               0.003475611              -0.000203224              -0.000342453               0.001272676               0.000930223               0.000000000               0.000000000               0.000000000               0.000000000               0.000214933               0.003442458              -0.000158258              -0.000349707               0.001264043               0.000914337               0.000000000               0.000000000               0.000000000               0.000000000               0.000185942               0.003420802              -0.000131999              -0.000357871               0.001259546               0.000901675               0.000000000               0.000000000               0.000000000               0.000000000               0.000160625               0.003409256              -0.000114495              -0.000365922               0.001258381               0.000892459               0.000000000               0.000000000               0.000000000               0.000000000               0.000137698               0.003404608              -0.000107733              -0.000373938               0.001259504               0.000885566               0.000000000               0.000000000               0.000000000               0.000000000               0.000119322               0.003405128              -0.000105868              -0.000380894               0.001261996               0.000881102               0.000000000               0.000000000               0.000000000               0.000000000               0.000102400               0.003408652              -0.000095357              -0.000387681               0.001265433               0.000877752               0.000000000               0.000000000               0.000000000               0.000000000               0.000083974               0.003417191              -0.000079800              -0.000395658               0.001270938               0.000875280               0.000000000               0.000000000               0.000000000               0.000000000               0.000062946               0.003431409              -0.000063043              -0.000405320               0.001278898               0.000873578               0.000000000               0.000000000               0.000000000               0.000000000               0.000038942               0.003444630              -0.000042966              -0.000415974               0.001286857               0.000870882               0.000000000               0.000000000               0.000000000               0.000000000               0.000018045               0.003447720              -0.000022483              -0.000424197               0.001290628               0.000866431               0.000000000               0.000000000               0.000000000               0.000000000               0.000004879               0.003438969              -0.000010597              -0.000428040               0.001288992               0.000860951               0.000000000               0.000000000               0.000000000               0.000000000               0.001200863               0.003217277              -0.001622159               0.000048161               0.001056360               0.001104522               0.000000000               0.000000000               0.000000000               0.000000000               0.000729888               0.003244006              -0.001183113              -0.000131794               0.001125256               0.000993462               0.000000000               0.000000000               0.000000000               0.000000000               0.000388357               0.003437098              -0.000711421              -0.000284003               0.001240355               0.000956352               0.000000000               0.000000000               0.000000000               0.000000000               0.000274741               0.003438622              -0.000483862              -0.000326799               0.001255129               0.000928330               0.000000000               0.000000000               0.000000000               0.000000000               0.000234898               0.003409276              -0.000356030              -0.000338072               0.001249105               0.000911033               0.000000000               0.000000000               0.000000000               0.000000000               0.000211175               0.003387870              -0.000273846              -0.000344292               0.001244043               0.000899751               0.000000000               0.000000000               0.000000000               0.000000000               0.000189415               0.003376913              -0.000220395              -0.000351083               0.001242654               0.000891571               0.000000000               0.000000000               0.000000000               0.000000000               0.000167056               0.003373362              -0.000190560              -0.000359023               0.001244117               0.000885094               0.000000000               0.000000000               0.000000000               0.000000000               0.000146696               0.003374520              -0.000168674              -0.000366803               0.001247096               0.000880293               0.000000000               0.000000000               0.000000000               0.000000000               0.000130041               0.003375153              -0.000152628              -0.000373128               0.001249416               0.000876288               0.000000000               0.000000000               0.000000000               0.000000000               0.000110746               0.003376750              -0.000140073              -0.000380563               0.001252426               0.000871863               0.000000000               0.000000000               0.000000000               0.000000000               0.000086994               0.003380827              -0.000118762              -0.000389980               0.001256924               0.000866944               0.000000000               0.000000000               0.000000000               0.000000000               0.000059635               0.003385682              -0.000089423              -0.000400846               0.001262165               0.000861319               0.000000000               0.000000000               0.000000000               0.000000000               0.000031406               0.003386354              -0.000057892              -0.000411516               0.001265945               0.000854429               0.000000000               0.000000000               0.000000000               0.000000000               0.000007781               0.003377469              -0.000027756              -0.000419265               0.001265567               0.000846302               0.000000000               0.000000000               0.000000000               0.000000000              -0.000002823               0.003355908              -0.000007244              -0.000420546               0.001258807               0.000838261               0.000000000               0.000000000               0.000000000               0.000000000              -0.000009554               0.003333659               0.000002566              -0.000420289               0.001251305               0.000831016               0.000000000               0.000000000               0.000000000               0.000000000               0.001181613               0.002618266              -0.001465017               0.000115819               0.000834140               0.000949958               0.000000000               0.000000000               0.000000000               0.000000000               0.000718992               0.002844641              -0.001154861              -0.000085960               0.000976857               0.000890898               0.000000000               0.000000000               0.000000000               0.000000000               0.000361728               0.003205224              -0.000788981              -0.000265005               0.001156732               0.000891727               0.000000000               0.000000000               0.000000000               0.000000000               0.000257466               0.003289366              -0.000574306              -0.000314621               0.001201318               0.000886697               0.000000000               0.000000000               0.000000000               0.000000000               0.000224361               0.003307545              -0.000436997              -0.000329307               0.001212273               0.000882966               0.000000000               0.000000000               0.000000000               0.000000000               0.000205231               0.003317272              -0.000344457              -0.000337696               0.001218312               0.000880615               0.000000000               0.000000000               0.000000000               0.000000000               0.000186191               0.003328006              -0.000283799              -0.000346178               0.001224717               0.000878539               0.000000000               0.000000000               0.000000000               0.000000000               0.000173555               0.003343899              -0.000247197              -0.000352903               0.001232256               0.000879353               0.000000000               0.000000000               0.000000000               0.000000000               0.000160352               0.003356735              -0.000218160              -0.000359459               0.001238720               0.000879261               0.000000000               0.000000000               0.000000000               0.000000000               0.000144075               0.003358742              -0.000190028              -0.000365814               0.001241507               0.000875694               0.000000000               0.000000000               0.000000000               0.000000000               0.000119201               0.003355066              -0.000161626              -0.000374682               0.001243238               0.000868556               0.000000000               0.000000000               0.000000000               0.000000000               0.000086829               0.003355572              -0.000128292              -0.000386885               0.001247474               0.000860590               0.000000000               0.000000000               0.000000000               0.000000000               0.000049546               0.003354711              -0.000089941              -0.000400758               0.001251812               0.000851054               0.000000000               0.000000000               0.000000000               0.000000000               0.000011071               0.003343349              -0.000051388              -0.000413766               0.001252361               0.000838595               0.000000000               0.000000000               0.000000000               0.000000000              -0.000022773               0.003317207              -0.000019215              -0.000423190               0.001246788               0.000823598               0.000000000               0.000000000               0.000000000               0.000000000              -0.000043103               0.003277152              -0.000000462              -0.000425807               0.001234309               0.000808502               0.000000000               0.000000000               0.000000000               0.000000000              -0.000048451               0.003251437               0.000005896              -0.000424598               0.001225334               0.000800736               0.000000000               0.000000000               0.000000000               0.000000000               0.001118179               0.002043821              -0.001279726               0.000163837               0.000626654               0.000790490               0.000000000               0.000000000               0.000000000               0.000000000               0.000722940               0.002385912              -0.001116834              -0.000027138               0.000804342               0.000777204               0.000000000               0.000000000               0.000000000               0.000000000               0.000384701               0.002870449              -0.000881254              -0.000214543               0.001028321               0.000813778               0.000000000               0.000000000               0.000000000               0.000000000               0.000282972               0.003052767              -0.000685492              -0.000275481               0.001109406               0.000833925               0.000000000               0.000000000               0.000000000               0.000000000               0.000245178               0.003129632              -0.000539689              -0.000299262               0.001142954               0.000843692               0.000000000               0.000000000               0.000000000               0.000000000               0.000229192               0.003179124              -0.000436966              -0.000311443               0.001163512               0.000852069               0.000000000               0.000000000               0.000000000               0.000000000               0.000215385               0.003225588              -0.000367295              -0.000322428               0.001182661               0.000860233               0.000000000               0.000000000               0.000000000               0.000000000               0.000204203               0.003268964              -0.000317380              -0.000332044               0.001200325               0.000868281               0.000000000               0.000000000               0.000000000               0.000000000               0.000189301               0.003297503              -0.000274564              -0.000341199               0.001212890               0.000871690               0.000000000               0.000000000               0.000000000               0.000000000               0.000169489               0.003307904              -0.000234226              -0.000349929               0.001219267               0.000869338               0.000000000               0.000000000               0.000000000               0.000000000               0.000141287               0.003302498              -0.000194246              -0.000359829               0.001220764               0.000860936               0.000000000               0.000000000               0.000000000               0.000000000               0.000104820               0.003294487              -0.000154297              -0.000372502               0.001222319               0.000849816               0.000000000               0.000000000               0.000000000               0.000000000               0.000060500               0.003285663              -0.000110814              -0.000388019               0.001224550               0.000836530               0.000000000               0.000000000               0.000000000               0.000000000               0.000012311               0.003275656              -0.000067372              -0.000404839               0.001226821               0.000821981               0.000000000               0.000000000               0.000000000               0.000000000              -0.000034758               0.003258311              -0.000032346              -0.000420322               0.001226200               0.000805878               0.000000000               0.000000000               0.000000000               0.000000000              -0.000076074               0.003230397              -0.000009931              -0.000432326               0.001220897               0.000788571               0.000000000               0.000000000               0.000000000               0.000000000              -0.000097346               0.003209816               0.000000138              -0.000437731               0.001215838               0.000778108               0.000000000               0.000000000               0.000000000               0.000000000               0.000989099               0.001507342              -0.001070068               0.000182492               0.000441611               0.000624103               0.000000000               0.000000000               0.000000000               0.000000000               0.000723895               0.001931379              -0.001050204               0.000030036               0.000633774               0.000663810               0.000000000               0.000000000               0.000000000               0.000000000               0.000445740               0.002501890              -0.000950195              -0.000145584               0.000882483               0.000736898               0.000000000               0.000000000               0.000000000               0.000000000               0.000345242               0.002772991              -0.000791883              -0.000217158               0.000996707               0.000779549               0.000000000               0.000000000               0.000000000               0.000000000               0.000300556               0.002914974              -0.000650839              -0.000251663               0.001055536               0.000803873               0.000000000               0.000000000               0.000000000               0.000000000               0.000278227               0.003012871              -0.000541794              -0.000272273               0.001095038               0.000822765               0.000000000               0.000000000               0.000000000               0.000000000               0.000261992               0.003098424              -0.000461720              -0.000289056               0.001129149               0.000840094               0.000000000               0.000000000               0.000000000               0.000000000               0.000245723               0.003171356              -0.000397792              -0.000304273               0.001158532               0.000854260               0.000000000               0.000000000               0.000000000               0.000000000               0.000226731               0.003224276              -0.000342549              -0.000318010               0.001180751               0.000862742               0.000000000               0.000000000               0.000000000               0.000000000               0.000203915               0.003253578              -0.000293231              -0.000330228               0.001194591               0.000864363               0.000000000               0.000000000               0.000000000               0.000000000               0.000177601               0.003261337              -0.000246977              -0.000341066               0.001200790               0.000859724               0.000000000               0.000000000               0.000000000               0.000000000               0.000145480               0.003253297              -0.000201452              -0.000352106               0.001201790               0.000849684               0.000000000               0.000000000               0.000000000               0.000000000               0.000103170               0.003239829              -0.000152984              -0.000366289               0.001202029               0.000835740               0.000000000               0.000000000               0.000000000               0.000000000               0.000051390               0.003229354              -0.000104781              -0.000384397               0.001204573               0.000820176               0.000000000               0.000000000               0.000000000               0.000000000              -0.000006982               0.003220488              -0.000062196              -0.000405178               0.001208545               0.000803366               0.000000000               0.000000000               0.000000000               0.000000000              -0.000070381               0.003208679              -0.000027852              -0.000427477               0.001212041               0.000784564               0.000000000               0.000000000               0.000000000               0.000000000              -0.000117410               0.003189820              -0.000007012              -0.000442755               0.001210848               0.000768092               0.000000000               0.000000000               0.000000000               0.000000000               0.000799022               0.001040808              -0.000841232               0.000169530               0.000290422               0.000459952               0.000000000               0.000000000               0.000000000               0.000000000               0.000694440               0.001501271              -0.000939080               0.000072754               0.000476167               0.000548921               0.000000000               0.000000000               0.000000000               0.000000000               0.000516686               0.002097582              -0.000956662              -0.000068442               0.000722000               0.000653559               0.000000000               0.000000000               0.000000000               0.000000000               0.000433207               0.002433758              -0.000848022              -0.000141768               0.000858500               0.000716733               0.000000000               0.000000000               0.000000000               0.000000000               0.000384002               0.002640696              -0.000726314              -0.000186086               0.000942252               0.000756165               0.000000000               0.000000000               0.000000000               0.000000000               0.000353924               0.002793473              -0.000621502              -0.000216462               0.001003302               0.000786840               0.000000000               0.000000000               0.000000000               0.000000000               0.000331671               0.002922111              -0.000539563              -0.000240887               0.001054323               0.000813436               0.000000000               0.000000000               0.000000000               0.000000000               0.000309988               0.003032770              -0.000470184              -0.000262850               0.001098530               0.000835680               0.000000000               0.000000000               0.000000000               0.000000000               0.000285263               0.003119971              -0.000407132              -0.000283022               0.001134320               0.000851298               0.000000000               0.000000000               0.000000000               0.000000000               0.000254174               0.003178082              -0.000350601              -0.000301944               0.001159998               0.000858054               0.000000000               0.000000000               0.000000000               0.000000000               0.000222559               0.003205155              -0.000301827              -0.000317184               0.001174102               0.000856918               0.000000000               0.000000000               0.000000000               0.000000000               0.000189606               0.003208228              -0.000253705              -0.000329926               0.001179374               0.000849448               0.000000000               0.000000000               0.000000000               0.000000000               0.000151936               0.003203642              -0.000200406              -0.000343479               0.001182363               0.000838884               0.000000000               0.000000000               0.000000000               0.000000000               0.000104875               0.003197829              -0.000146291              -0.000360400               0.001186066               0.000825666               0.000000000               0.000000000               0.000000000               0.000000000               0.000046599               0.003194843              -0.000096216              -0.000381880               0.001192230               0.000810351               0.000000000               0.000000000               0.000000000               0.000000000              -0.000025250               0.003193284              -0.000047883              -0.000408628               0.001200627               0.000791999               0.000000000               0.000000000               0.000000000               0.000000000              -0.000085137               0.003179130              -0.000016214              -0.000429317               0.001202805               0.000773488               0.000000000               0.000000000               0.000000000               0.000000000               0.000563678               0.000665359              -0.000613573               0.000128208               0.000179048               0.000307255               0.000000000               0.000000000               0.000000000               0.000000000               0.000636650               0.001109875              -0.000787641               0.000100008               0.000336618               0.000436626               0.000000000               0.000000000               0.000000000               0.000000000               0.000586475               0.001681129              -0.000890922               0.000009786               0.000557109               0.000566894               0.000000000               0.000000000               0.000000000               0.000000000               0.000537887               0.002059814              -0.000832274              -0.000055770               0.000705188               0.000649418               0.000000000               0.000000000               0.000000000               0.000000000               0.000493482               0.002321593              -0.000740300              -0.000105144               0.000808904               0.000703761               0.000000000               0.000000000               0.000000000               0.000000000               0.000459157               0.002525860              -0.000652764              -0.000143549               0.000889794               0.000746245               0.000000000               0.000000000               0.000000000               0.000000000               0.000430083               0.002701382              -0.000575721              -0.000176392               0.000959249               0.000782857               0.000000000               0.000000000               0.000000000               0.000000000               0.000397505               0.002853193              -0.000506876              -0.000207585               0.001020250               0.000812665               0.000000000               0.000000000               0.000000000               0.000000000               0.000364553               0.002974246              -0.000443343              -0.000235073               0.001069763               0.000834690               0.000000000               0.000000000               0.000000000               0.000000000               0.000328992               0.003062587              -0.000387661              -0.000259451               0.001107336               0.000847885               0.000000000               0.000000000               0.000000000               0.000000000               0.000291190               0.003121858              -0.000339953              -0.000281035               0.001134287               0.000853252               0.000000000               0.000000000               0.000000000               0.000000000               0.000253410               0.003156482              -0.000293038              -0.000299531               0.001151994               0.000852463               0.000000000               0.000000000               0.000000000               0.000000000               0.000217580               0.003170209              -0.000241822              -0.000314683               0.001161620               0.000846937               0.000000000               0.000000000               0.000000000               0.000000000               0.000178426               0.003172540              -0.000187445              -0.000329657               0.001167388               0.000837731               0.000000000               0.000000000               0.000000000               0.000000000               0.000130327               0.003177651              -0.000130738              -0.000348333               0.001175317               0.000826984               0.000000000               0.000000000               0.000000000               0.000000000               0.000066148               0.003186560              -0.000068355              -0.000373513               0.001186681               0.000813167               0.000000000               0.000000000               0.000000000               0.000000000               0.000009480               0.003179628              -0.000029075              -0.000393898               0.001191165               0.000797267               0.000000000               0.000000000               0.000000000               0.000000000               0.000311342               0.000383715              -0.000409001               0.000068788               0.000104974               0.000173762               0.000000000               0.000000000               0.000000000               0.000000000               0.000556231               0.000777300              -0.000607201               0.000111423               0.000221956               0.000333379               0.000000000               0.000000000               0.000000000               0.000000000               0.000649221               0.001294242              -0.000751260               0.000081676               0.000404184               0.000485860               0.000000000               0.000000000               0.000000000               0.000000000               0.000650957               0.001692960              -0.000735255               0.000032488               0.000553485               0.000585973               0.000000000               0.000000000               0.000000000               0.000000000               0.000625745               0.001997310              -0.000676396              -0.000015010               0.000670767               0.000655756               0.000000000               0.000000000               0.000000000               0.000000000               0.000588528               0.002241696              -0.000610697              -0.000059514               0.000767062               0.000707548               0.000000000               0.000000000               0.000000000               0.000000000               0.000547189               0.002452922              -0.000544161              -0.000101420               0.000851439               0.000750019               0.000000000               0.000000000               0.000000000               0.000000000               0.000504991               0.002639628              -0.000483030              -0.000140582               0.000926728               0.000786146               0.000000000               0.000000000               0.000000000               0.000000000               0.000467021               0.002791914              -0.000428755              -0.000173856               0.000988581               0.000814724               0.000000000               0.000000000               0.000000000               0.000000000               0.000429623               0.002912334              -0.000378255              -0.000202933               0.001038413               0.000835480               0.000000000               0.000000000               0.000000000               0.000000000               0.000387594               0.003009969              -0.000333912              -0.000230898               0.001080279               0.000849381               0.000000000               0.000000000               0.000000000               0.000000000               0.000349420               0.003081617              -0.000295385              -0.000254169               0.001111919               0.000857749               0.000000000               0.000000000               0.000000000               0.000000000               0.000317966               0.003123587              -0.000253057              -0.000271211               0.001131589               0.000860378               0.000000000               0.000000000               0.000000000               0.000000000               0.000287383               0.003148159              -0.000202216              -0.000285751               0.001144626               0.000858875               0.000000000               0.000000000               0.000000000               0.000000000               0.000250504               0.003166480              -0.000144731              -0.000301870               0.001156106               0.000854236               0.000000000               0.000000000               0.000000000               0.000000000               0.000206197               0.003181752              -0.000078065              -0.000320394               0.001167371               0.000846977               0.000000000               0.000000000               0.000000000               0.000000000               0.000169313               0.003181378              -0.000038155              -0.000334179               0.001171842               0.000837663               0.000000000               0.000000000               0.000000000               0.000000000               0.000084016               0.000197364              -0.000239411               0.000006835               0.000063509               0.000070344               0.000000000               0.000000000               0.000000000               0.000000000               0.000472154               0.000526503              -0.000409799               0.000111244               0.000138418               0.000249661               0.000000000               0.000000000               0.000000000               0.000000000               0.000699576               0.000977775              -0.000544715               0.000140118               0.000279216               0.000419333               0.000000000               0.000000000               0.000000000               0.000000000               0.000756599               0.001379942              -0.000553314               0.000111231               0.000422899               0.000534130               0.000000000               0.000000000               0.000000000               0.000000000               0.000750106               0.001708576              -0.000522637               0.000067717               0.000546947               0.000614664               0.000000000               0.000000000               0.000000000               0.000000000               0.000713335               0.001977452              -0.000477753               0.000020319               0.000652371               0.000672690               0.000000000               0.000000000               0.000000000               0.000000000               0.000664281               0.002210858              -0.000428197              -0.000027252               0.000746029               0.000718777               0.000000000               0.000000000               0.000000000               0.000000000               0.000618262               0.002419639              -0.000384333              -0.000070607               0.000830074               0.000759467               0.000000000               0.000000000               0.000000000               0.000000000               0.000576935               0.002601610              -0.000344897              -0.000108850               0.000903478               0.000794628               0.000000000               0.000000000               0.000000000               0.000000000               0.000536800               0.002758651              -0.000303566              -0.000143531               0.000967385               0.000823854               0.000000000               0.000000000               0.000000000               0.000000000               0.000495987               0.002887736              -0.000270802              -0.000174972               0.001020893               0.000845921               0.000000000               0.000000000               0.000000000               0.000000000               0.000458528               0.002987841              -0.000247126              -0.000201532               0.001063114               0.000861583               0.000000000               0.000000000               0.000000000               0.000000000               0.000426009               0.003064903              -0.000216632              -0.000223359               0.001096077               0.000872718               0.000000000               0.000000000               0.000000000               0.000000000               0.000399637               0.003122066              -0.000172577              -0.000240394               0.001120810               0.000880416               0.000000000               0.000000000               0.000000000               0.000000000               0.000376948               0.003158819              -0.000121704              -0.000253496               0.001137428               0.000883931               0.000000000               0.000000000               0.000000000               0.000000000               0.000358920               0.003179118              -0.000065709              -0.000262794               0.001147294               0.000884499               0.000000000               0.000000000               0.000000000               0.000000000               0.000350151               0.003184427              -0.000034557              -0.000266746               0.001150380               0.000883634               0.000000000               0.000000000               0.000000000               0.000000000              -0.000075554               0.000091624              -0.000108043              -0.000039786               0.000043803               0.000004017               0.000000000               0.000000000               0.000000000               0.000000000               0.000410826               0.000370022              -0.000206053               0.000107806               0.000087404               0.000195210               0.000000000               0.000000000               0.000000000               0.000000000               0.000731011               0.000769059              -0.000286879               0.000177995               0.000197019               0.000375014               0.000000000               0.000000000               0.000000000               0.000000000               0.000832028               0.001167188              -0.000298771               0.000166110               0.000333689               0.000499799               0.000000000               0.000000000               0.000000000               0.000000000               0.000837296               0.001504444              -0.000286295               0.000125929               0.000459500               0.000585429               0.000000000               0.000000000               0.000000000               0.000000000               0.000802235               0.001783973              -0.000262278               0.000077841               0.000568705               0.000646546               0.000000000               0.000000000               0.000000000               0.000000000               0.000754337               0.002025346              -0.000235786               0.000029708               0.000665206               0.000694914               0.000000000               0.000000000               0.000000000               0.000000000               0.000706781               0.002249066              -0.000213610              -0.000016091               0.000755045               0.000738954               0.000000000               0.000000000               0.000000000               0.000000000               0.000659380               0.002459065              -0.000192696              -0.000060115               0.000839718               0.000779603               0.000000000               0.000000000               0.000000000               0.000000000               0.000615843               0.002643751              -0.000169142              -0.000099527               0.000914417               0.000814890               0.000000000               0.000000000               0.000000000               0.000000000               0.000576581               0.002795975              -0.000152883              -0.000133279               0.000976408               0.000843130               0.000000000               0.000000000               0.000000000               0.000000000               0.000535726               0.002918417              -0.000143038              -0.000163905               0.001027431               0.000863526               0.000000000               0.000000000               0.000000000               0.000000000               0.000497408               0.003018394              -0.000126956              -0.000190771               0.001069712               0.000878941               0.000000000               0.000000000               0.000000000               0.000000000               0.000472069               0.003095316              -0.000101060              -0.000209888               0.001101724               0.000891836               0.000000000               0.000000000               0.000000000               0.000000000               0.000465724               0.003146552              -0.000069382              -0.000218672               0.001121731               0.000903059               0.000000000               0.000000000               0.000000000               0.000000000               0.000478790               0.003175856              -0.000035684              -0.000217435               0.001131086               0.000913651               0.000000000               0.000000000               0.000000000               0.000000000               0.000498346               0.003188246              -0.000018593              -0.000211650               0.001133288               0.000921638               0.000000000               0.000000000               0.000000000               0.000000000               0.000000000               0.000000000               0.000000000               0.000000000               0.000000000               0.000000000               0.000000000               0.000000000               0.000000000               0.000000000               0.000000000               0.000000000               0.000000000               0.000000000               0.000000000               0.000000000               0.000000000               0.000000000               0.000000000               0.000000000               0.000000000               0.000000000               0.000000000               0.000000000               0.000000000               0.000000000               0.000000000               0.000000000               0.000000000               0.000000000               0.000000000               0.000000000               0.000000000               0.000000000               0.000000000               0.000000000               0.000000000               0.000000000               0.000000000               0.000000000               0.000000000               0.000000000               0.000000000               0.000000000               0.000000000               0.000000000               0.000000000               0.000000000               0.000000000               0.000000000               0.000000000               0.000000000               0.000000000               0.000000000               0.000000000               0.000000000               0.000000000               0.000000000               0.000000000               0.000000000               0.000000000               0.000000000               0.000000000               0.000000000               0.000000000               0.000000000               0.000000000               0.000000000               0.000000000               0.000000000               0.000000000               0.000000000               0.000000000               0.000000000               0.000000000               0.000000000               0.000000000               0.000000000               0.000000000               0.000000000               0.000000000               0.000000000               0.000000000               0.000000000               0.000000000               0.000000000               0.000000000               0.000000000               0.000000000               0.000000000               0.000000000               0.000000000               0.000000000               0.000000000               0.000000000               0.000000000               0.000000000               0.000000000               0.000000000               0.000000000               0.000000000               0.000000000               0.000000000               0.000000000               0.000000000               0.000000000               0.000000000               0.000000000               0.000000000               0.000000000               0.000000000               0.000000000               0.000000000               0.000000000               0.000000000               0.000000000               0.000000000               0.000000000               0.000000000               0.000000000               0.000000000               0.000000000               0.000000000               0.000000000               0.000000000               0.000000000               0.000000000               0.000000000               0.000000000               0.000000000               0.000000000               0.000000000               0.000000000               0.000000000               0.000000000               0.000000000               0.000000000               0.000000000               0.000000000               0.000000000               0.000000000               0.000000000               0.000000000               0.000000000               0.000000000               0.000000000               0.000000000               0.000000000               0.000000000               0.000000000               0.000000000               0.000000000               0.000000000               0.000000000               0.000000000               0.000000000               0.000000000               0.000000000               0.000000000               0.000000000               0.000000000               0.000000000               0.000000000               0.000000000               0.000000000               0.000000000               0.000000000               0.000000000               0.000000000               0.000000000               0.000000000               0.000000000               0.000000000               0.000000000               0.000000000               0.000000000               0.000000000               0.000000000               0.000000000               0.000000000               0.000000000               0.000000000               0.000000000               0.000000000               0.000000000               0.000000000               0.000000000               0.000000000               0.000000000               0.000000000               0.000000000               0.000000000               0.000000000               0.000000000               0.000000000               0.000000000               0.000000000               0.000000000               0.000000000               0.000000000               0.000000000               0.000000000               0.000000000               0.000000000               0.000000000               0.000000000               0.000000000               0.000000000               0.000000000               0.000000000               0.000000000               0.000000000               0.000000000               0.000000000               0.000000000               0.000000000               0.000000000               0.000000000               0.000000000               0.000000000               0.000000000               0.000000000               0.000000000               0.000000000               0.000000000               0.000000000               0.000000000               0.000000000               0.000000000               0.000000000               0.000000000               0.000000000               0.000000000               0.000000000               0.000000000               0.000000000               0.000000000               0.000000000               0.000000000               0.000000000               0.000000000               0.000000000               0.000000000               0.000000000               0.000000000               0.000000000               0.000000000               0.000000000               0.000000000               0.000000000               0.000000000               0.000000000               0.000000000               0.000000000               0.000000000               0.000000000               0.000000000               0.000000000               0.000000000               0.000000000               0.000000000               0.000000000               0.000000000               0.000000000               0.000000000               0.000000000               0.000000000               0.000000000               0.000000000               0.000000000               0.000000000               0.000000000               0.000000000               0.000000000               0.000000000               0.000000000               0.000000000               0.000000000               0.000000000               0.000000000               0.000000000               0.000000000               0.000000000               0.000000000               0.000000000               0.000000000               0.000000000               0.000000000               0.000000000               0.000000000               0.000000000               0.000000000               0.000000000               0.000000000               0.000000000               0.000000000               0.000000000               0.000000000               0.000000000               0.000000000               0.000000000               0.000000000               0.000000000               0.000000000               0.000000000               0.000000000               0.000000000               0.000000000               0.000000000               0.000000000               0.000000000               0.000000000               0.000000000               0.000000000               0.000000000               0.000000000               0.000000000               0.000000000               0.000000000               0.000000000               0.000000000               0.000000000               0.000000000               0.000000000               0.000000000               0.000000000               0.000000000               0.000000000               0.000000000               0.000000000               0.000000000               0.000000000               0.000000000               0.000000000               0.000000000               0.000000000               0.000000000               0.000000000               0.000000000               0.000000000               0.000630999               0.006893325               0.000526636              -0.000625040               0.002506098               0.001881059               0.000000000               0.000000000               0.000000000               0.000000000               0.000658225               0.005712308               0.000334498              -0.000467203               0.002059818               0.001592615               0.000000000               0.000000000               0.000000000               0.000000000               0.000884668               0.004774840               0.000135880              -0.000265104               0.001679965               0.001414862               0.000000000               0.000000000               0.000000000               0.000000000               0.000908830               0.004259804               0.000044176              -0.000191664               0.001483808               0.001292145               0.000000000               0.000000000               0.000000000               0.000000000               0.000855877               0.003954465               0.000000709              -0.000173354               0.001375926               0.001202572               0.000000000               0.000000000               0.000000000               0.000000000               0.000778509               0.003765710              -0.000019951              -0.000178773               0.001314815               0.001136042               0.000000000               0.000000000               0.000000000               0.000000000               0.000697227               0.003646194              -0.000029895              -0.000194314               0.001280157               0.001085843               0.000000000               0.000000000               0.000000000               0.000000000               0.000615111               0.003569863              -0.000034439              -0.000215566               0.001261798               0.001046232               0.000000000               0.000000000               0.000000000               0.000000000               0.000537153               0.003520650              -0.000033908              -0.000238648               0.001253088               0.001014439               0.000000000               0.000000000               0.000000000               0.000000000               0.000465938               0.003487788              -0.000032539              -0.000261246               0.001249666               0.000988420               0.000000000               0.000000000               0.000000000               0.000000000               0.000395648               0.003467650              -0.000033390              -0.000285088               0.001250901               0.000965813               0.000000000               0.000000000               0.000000000               0.000000000               0.000323311               0.003456976              -0.000033467              -0.000310880               0.001255940               0.000945061               0.000000000               0.000000000               0.000000000               0.000000000               0.000252765               0.003452600              -0.000031580              -0.000336787               0.001263118               0.000926330               0.000000000               0.000000000               0.000000000               0.000000000               0.000184761               0.003450280              -0.000027323              -0.000361999               0.001270748               0.000908749               0.000000000               0.000000000               0.000000000               0.000000000               0.000119622               0.003446740              -0.000021251              -0.000385983               0.001277563               0.000891579               0.000000000               0.000000000               0.000000000               0.000000000               0.000058028               0.003440858              -0.000012363              -0.000408346               0.001283056               0.000874711               0.000000000               0.000000000               0.000000000               0.000000000               0.000029074               0.003438477              -0.000006281              -0.000418906               0.001285783               0.000866877               0.000000000               0.000000000               0.000000000               0.000000000               0.000730272               0.006542380               0.000994955              -0.000543945               0.002362086               0.001818142               0.000000000               0.000000000               0.000000000               0.000000000               0.000683961               0.005466111               0.000633311              -0.000426778               0.001964278               0.001537500               0.000000000               0.000000000               0.000000000               0.000000000               0.000830278               0.004640122               0.000262723              -0.000268660               0.001636245               0.001367585               0.000000000               0.000000000               0.000000000               0.000000000               0.000822719               0.004186580               0.000095537              -0.000214802               0.001467113               0.001252311               0.000000000               0.000000000               0.000000000               0.000000000               0.000760464               0.003916473               0.000016465              -0.000204385               0.001373606               0.001169222               0.000000000               0.000000000               0.000000000               0.000000000               0.000682899               0.003748411              -0.000021460              -0.000212464               0.001320279               0.001107815               0.000000000               0.000000000               0.000000000               0.000000000               0.000608434               0.003640609              -0.000039902              -0.000226913               0.001289162               0.001062249               0.000000000               0.000000000               0.000000000               0.000000000               0.000535445               0.003568573              -0.000049281              -0.000245279               0.001271272               0.001025993               0.000000000               0.000000000               0.000000000               0.000000000               0.000465613               0.003520745              -0.000049483              -0.000265487               0.001262066               0.000996578               0.000000000               0.000000000               0.000000000               0.000000000               0.000402088               0.003488970              -0.000046701              -0.000285338               0.001258091               0.000972753               0.000000000               0.000000000               0.000000000               0.000000000               0.000339694               0.003469062              -0.000047579              -0.000306247               0.001258425               0.000952178               0.000000000               0.000000000               0.000000000               0.000000000               0.000276552               0.003459565              -0.000047706              -0.000328738               0.001262756               0.000934018               0.000000000               0.000000000               0.000000000               0.000000000               0.000215916               0.003457259              -0.000043914              -0.000351188               0.001269471               0.000918283               0.000000000               0.000000000               0.000000000               0.000000000               0.000157638               0.003457406              -0.000036137              -0.000373060               0.001276811               0.000903750               0.000000000               0.000000000               0.000000000               0.000000000               0.000102634               0.003459433              -0.000026625              -0.000393940               0.001284446               0.000890506               0.000000000               0.000000000               0.000000000               0.000000000               0.000050569               0.003465702              -0.000015342              -0.000414248               0.001293305               0.000879057               0.000000000               0.000000000               0.000000000               0.000000000               0.000028321               0.003477424              -0.000007207              -0.000424057               0.001300482               0.000876425               0.000000000               0.000000000               0.000000000               0.000000000               0.000866752               0.006004503               0.001361011              -0.000425531               0.002143325               0.001717794               0.000000000               0.000000000               0.000000000               0.000000000               0.000714707               0.005095048               0.000872908              -0.000368866               0.001821288               0.001452422               0.000000000               0.000000000               0.000000000               0.000000000               0.000747716               0.004442949               0.000376195              -0.000274975               0.001572626               0.001297652               0.000000000               0.000000000               0.000000000               0.000000000               0.000699301               0.004078715               0.000156715              -0.000247601               0.001442092               0.001194491               0.000000000               0.000000000               0.000000000               0.000000000               0.000628802               0.003855945               0.000053269              -0.000246192               0.001367366               0.001121174               0.000000000               0.000000000               0.000000000               0.000000000               0.000554756               0.003711342               0.000002102              -0.000255883               0.001322396               0.001066513               0.000000000               0.000000000               0.000000000               0.000000000               0.000487213               0.003615041              -0.000023395              -0.000269175               0.001294727               0.001025552               0.000000000               0.000000000               0.000000000               0.000000000               0.000425837               0.003549996              -0.000036258              -0.000284060               0.001278007               0.000993947               0.000000000               0.000000000               0.000000000               0.000000000               0.000367139               0.003506579              -0.000037371              -0.000300645               0.001269063               0.000968418               0.000000000               0.000000000               0.000000000               0.000000000               0.000312486               0.003478836              -0.000032467              -0.000317671               0.001265491               0.000947819               0.000000000               0.000000000               0.000000000               0.000000000               0.000261850               0.003460562              -0.000033194              -0.000334376               0.001264968               0.000930592               0.000000000               0.000000000               0.000000000               0.000000000               0.000213356               0.003451260              -0.000035038              -0.000351398               0.001267541               0.000916143               0.000000000               0.000000000               0.000000000               0.000000000               0.000168421               0.003449444              -0.000031498              -0.000368022               0.001272477               0.000904455               0.000000000               0.000000000               0.000000000               0.000000000               0.000126588               0.003454251              -0.000023227              -0.000384310               0.001279509               0.000895199               0.000000000               0.000000000               0.000000000               0.000000000               0.000085671               0.003466894              -0.000014561              -0.000401234               0.001289364               0.000888130               0.000000000               0.000000000               0.000000000               0.000000000               0.000043512               0.003489874              -0.000008113              -0.000419916               0.001303252               0.000883336               0.000000000               0.000000000               0.000000000               0.000000000               0.000028030               0.003516464              -0.000002021              -0.000429046               0.001315158               0.000886113               0.000000000               0.000000000               0.000000000               0.000000000               0.001006598               0.005344279               0.001602418              -0.000290561               0.001878262               0.001587701               0.000000000               0.000000000               0.000000000               0.000000000               0.000739266               0.004647464               0.001043780              -0.000303708               0.001650375               0.001346667               0.000000000               0.000000000               0.000000000               0.000000000               0.000648659               0.004207263               0.000476632              -0.000282660               0.001496627               0.001213967               0.000000000               0.000000000               0.000000000               0.000000000               0.000564024               0.003940766               0.000229329              -0.000281086               0.001407271               0.001126185               0.000000000               0.000000000               0.000000000               0.000000000               0.000491240               0.003769019               0.000113030              -0.000286912               0.001351964               0.001065053               0.000000000               0.000000000               0.000000000               0.000000000               0.000426547               0.003649534               0.000053884              -0.000296236               0.001315244               0.001019009               0.000000000               0.000000000               0.000000000               0.000000000               0.000369822               0.003567383               0.000023121              -0.000307239               0.001291529               0.000984290               0.000000000               0.000000000               0.000000000               0.000000000               0.000317081               0.003512054               0.000007070              -0.000320100               0.001277373               0.000957273               0.000000000               0.000000000               0.000000000               0.000000000               0.000268128               0.003475593               0.000001654              -0.000333900               0.001269820               0.000935919               0.000000000               0.000000000               0.000000000               0.000000000               0.000225618               0.003457225               0.000004997              -0.000347546               0.001268245               0.000920700               0.000000000               0.000000000               0.000000000               0.000000000               0.000188668               0.003445961               0.000004635              -0.000359994               0.001268640               0.000908646               0.000000000               0.000000000               0.000000000               0.000000000               0.000155986               0.003439356               0.000000205              -0.000371424               0.001270248               0.000898825               0.000000000               0.000000000               0.000000000               0.000000000               0.000127972               0.003441127               0.000000229              -0.000382150               0.001274414               0.000892264               0.000000000               0.000000000               0.000000000               0.000000000               0.000101083               0.003452604               0.000003747              -0.000393668               0.001282079               0.000888411               0.000000000               0.000000000               0.000000000               0.000000000               0.000071417               0.003476173               0.000006915              -0.000407739               0.001294626               0.000886886               0.000000000               0.000000000               0.000000000               0.000000000               0.000036719               0.003510411               0.000005437              -0.000425031               0.001311802               0.000886771               0.000000000               0.000000000               0.000000000               0.000000000               0.000025778               0.003542809               0.000007328              -0.000433183               0.001325319               0.000892136               0.000000000               0.000000000               0.000000000               0.000000000               0.001120691               0.004624986               0.001718995              -0.000157866               0.001594268               0.001436402               0.000000000               0.000000000               0.000000000               0.000000000               0.000752422               0.004167122               0.001146457              -0.000238733               0.001468604               0.001229871               0.000000000               0.000000000               0.000000000               0.000000000               0.000547400               0.003951177               0.000563420              -0.000288622               0.001413253               0.001124631               0.000000000               0.000000000               0.000000000               0.000000000               0.000436646               0.003783996               0.000311480              -0.000309256               0.001364405               0.001055148               0.000000000               0.000000000               0.000000000               0.000000000               0.000370221               0.003659136               0.000190773              -0.000318558               0.001325886               0.001007327               0.000000000               0.000000000               0.000000000               0.000000000               0.000318263               0.003565835               0.000125944              -0.000326380               0.001297393               0.000971013               0.000000000               0.000000000               0.000000000               0.000000000               0.000274670               0.003506644               0.000090066              -0.000335329               0.001280646               0.000945317               0.000000000               0.000000000               0.000000000               0.000000000               0.000235925               0.003467788               0.000069185              -0.000345001               0.001270918               0.000925917               0.000000000               0.000000000               0.000000000               0.000000000               0.000199893               0.003443741               0.000056343              -0.000355507               0.001266405               0.000910898               0.000000000               0.000000000               0.000000000               0.000000000               0.000167224               0.003432446               0.000054190              -0.000366346               0.001266253               0.000899907               0.000000000               0.000000000               0.000000000               0.000000000               0.000141437               0.003427373               0.000054358              -0.000375382               0.001267573               0.000892192               0.000000000               0.000000000               0.000000000               0.000000000               0.000119658               0.003425335               0.000047629              -0.000383294               0.001269532               0.000886238               0.000000000               0.000000000               0.000000000               0.000000000               0.000102338               0.003432336               0.000042366              -0.000390664               0.001274322               0.000883658               0.000000000               0.000000000               0.000000000               0.000000000               0.000083894               0.003449593               0.000038668              -0.000399738               0.001283099               0.000883361               0.000000000               0.000000000               0.000000000               0.000000000               0.000058728               0.003474840               0.000032396              -0.000412331               0.001295712               0.000883381               0.000000000               0.000000000               0.000000000               0.000000000               0.000030554               0.003502674               0.000020618              -0.000426376               0.001309672               0.000883296               0.000000000               0.000000000               0.000000000               0.000000000               0.000020130               0.003520683               0.000014670              -0.000432535               0.001317728               0.000885192               0.000000000               0.000000000               0.000000000               0.000000000               0.001186933               0.003903176               0.001718923              -0.000042799               0.001315311               0.001272512               0.000000000               0.000000000               0.000000000               0.000000000               0.000748571               0.003691128               0.001188376              -0.000180678               0.001290589               0.001109912               0.000000000               0.000000000               0.000000000               0.000000000               0.000457315               0.003691168               0.000640298              -0.000289903               0.001327011               0.001037109               0.000000000               0.000000000               0.000000000               0.000000000               0.000336905               0.003612583               0.000398738              -0.000325233               0.001312593               0.000987360               0.000000000               0.000000000               0.000000000               0.000000000               0.000280923               0.003533570               0.000276131              -0.000336349               0.001289961               0.000953612               0.000000000               0.000000000               0.000000000               0.000000000               0.000245326               0.003475611               0.000203224              -0.000342453               0.001272676               0.000930223               0.000000000               0.000000000               0.000000000               0.000000000               0.000214933               0.003442458               0.000158258              -0.000349707               0.001264043               0.000914337               0.000000000               0.000000000               0.000000000               0.000000000               0.000185942               0.003420802               0.000131999              -0.000357871               0.001259546               0.000901675               0.000000000               0.000000000               0.000000000               0.000000000               0.000160625               0.003409256               0.000114495              -0.000365922               0.001258381               0.000892459               0.000000000               0.000000000               0.000000000               0.000000000               0.000137698               0.003404608               0.000107733              -0.000373938               0.001259504               0.000885566               0.000000000               0.000000000               0.000000000               0.000000000               0.000119322               0.003405128               0.000105868              -0.000380894               0.001261996               0.000881102               0.000000000               0.000000000               0.000000000               0.000000000               0.000102400               0.003408652               0.000095357              -0.000387681               0.001265433               0.000877752               0.000000000               0.000000000               0.000000000               0.000000000               0.000083974               0.003417191               0.000079800              -0.000395658               0.001270938               0.000875280               0.000000000               0.000000000               0.000000000               0.000000000               0.000062946               0.003431409               0.000063043              -0.000405320               0.001278898               0.000873578               0.000000000               0.000000000               0.000000000               0.000000000               0.000038942               0.003444630               0.000042966              -0.000415974               0.001286857               0.000870882               0.000000000               0.000000000               0.000000000               0.000000000               0.000018045               0.003447720               0.000022483              -0.000424197               0.001290628               0.000866431               0.000000000               0.000000000               0.000000000               0.000000000               0.000004879               0.003438969               0.000010597              -0.000428040               0.001288992               0.000860951               0.000000000               0.000000000               0.000000000               0.000000000               0.001200863               0.003217277               0.001622159               0.000048161               0.001056360               0.001104522               0.000000000               0.000000000               0.000000000               0.000000000               0.000729888               0.003244006               0.001183113              -0.000131794               0.001125256               0.000993462               0.000000000               0.000000000               0.000000000               0.000000000               0.000388357               0.003437098               0.000711421              -0.000284003               0.001240355               0.000956352               0.000000000               0.000000000               0.000000000               0.000000000               0.000274741               0.003438622               0.000483862              -0.000326799               0.001255129               0.000928330               0.000000000               0.000000000               0.000000000               0.000000000               0.000234898               0.003409276               0.000356030              -0.000338072               0.001249105               0.000911033               0.000000000               0.000000000               0.000000000               0.000000000               0.000211175               0.003387870               0.000273846              -0.000344292               0.001244043               0.000899751               0.000000000               0.000000000               0.000000000               0.000000000               0.000189415               0.003376913               0.000220395              -0.000351083               0.001242654               0.000891571               0.000000000               0.000000000               0.000000000               0.000000000               0.000167056               0.003373362               0.000190560              -0.000359023               0.001244117               0.000885094               0.000000000               0.000000000               0.000000000               0.000000000               0.000146696               0.003374520               0.000168674              -0.000366803               0.001247096               0.000880293               0.000000000               0.000000000               0.000000000               0.000000000               0.000130041               0.003375153               0.000152628              -0.000373128               0.001249416               0.000876288               0.000000000               0.000000000               0.000000000               0.000000000               0.000110746               0.003376750               0.000140073              -0.000380563               0.001252426               0.000871863               0.000000000               0.000000000               0.000000000               0.000000000               0.000086994               0.003380827               0.000118762              -0.000389980               0.001256924               0.000866944               0.000000000               0.000000000               0.000000000               0.000000000               0.000059635               0.003385682               0.000089423              -0.000400846               0.001262165               0.000861319               0.000000000               0.000000000               0.000000000               0.000000000               0.000031406               0.003386354               0.000057892              -0.000411516               0.001265945               0.000854429               0.000000000               0.000000000               0.000000000               0.000000000               0.000007781               0.003377469               0.000027756              -0.000419265               0.001265567               0.000846302               0.000000000               0.000000000               0.000000000               0.000000000              -0.000002823               0.003355908               0.000007244              -0.000420546               0.001258807               0.000838261               0.000000000               0.000000000               0.000000000               0.000000000              -0.000009554               0.003333659              -0.000002566              -0.000420289               0.001251305               0.000831016               0.000000000               0.000000000               0.000000000               0.000000000               0.001181613               0.002618266               0.001465017               0.000115819               0.000834140               0.000949958               0.000000000               0.000000000               0.000000000               0.000000000               0.000718992               0.002844641               0.001154861              -0.000085960               0.000976857               0.000890898               0.000000000               0.000000000               0.000000000               0.000000000               0.000361728               0.003205224               0.000788981              -0.000265005               0.001156732               0.000891727               0.000000000               0.000000000               0.000000000               0.000000000               0.000257466               0.003289366               0.000574306              -0.000314621               0.001201318               0.000886697               0.000000000               0.000000000               0.000000000               0.000000000               0.000224361               0.003307545               0.000436997              -0.000329307               0.001212273               0.000882966               0.000000000               0.000000000               0.000000000               0.000000000               0.000205231               0.003317272               0.000344457              -0.000337696               0.001218312               0.000880615               0.000000000               0.000000000               0.000000000               0.000000000               0.000186191               0.003328006               0.000283799              -0.000346178               0.001224717               0.000878539               0.000000000               0.000000000               0.000000000               0.000000000               0.000173555               0.003343899               0.000247197              -0.000352903               0.001232256               0.000879353               0.000000000               0.000000000               0.000000000               0.000000000               0.000160352               0.003356735               0.000218160              -0.000359459               0.001238720               0.000879261               0.000000000               0.000000000               0.000000000               0.000000000               0.000144075               0.003358742               0.000190028              -0.000365814               0.001241507               0.000875694               0.000000000               0.000000000               0.000000000               0.000000000               0.000119201               0.003355066               0.000161626              -0.000374682               0.001243238               0.000868556               0.000000000               0.000000000               0.000000000               0.000000000               0.000086829               0.003355572               0.000128292              -0.000386885               0.001247474               0.000860590               0.000000000               0.000000000               0.000000000               0.000000000               0.000049546               0.003354711               0.000089941              -0.000400758               0.001251812               0.000851054               0.000000000               0.000000000               0.000000000               0.000000000               0.000011071               0.003343349               0.000051388              -0.000413766               0.001252361               0.000838595               0.000000000               0.000000000               0.000000000               0.000000000              -0.000022773               0.003317207               0.000019215              -0.000423190               0.001246788               0.000823598               0.000000000               0.000000000               0.000000000               0.000000000              -0.000043103               0.003277152               0.000000462              -0.000425807               0.001234309               0.000808502               0.000000000               0.000000000               0.000000000               0.000000000              -0.000048451               0.003251437              -0.000005896              -0.000424598               0.001225334               0.000800736               0.000000000               0.000000000               0.000000000               0.000000000               0.001118179               0.002043821               0.001279726               0.000163837               0.000626654               0.000790490               0.000000000               0.000000000               0.000000000               0.000000000               0.000722940               0.002385912               0.001116834              -0.000027138               0.000804342               0.000777204               0.000000000               0.000000000               0.000000000               0.000000000               0.000384701               0.002870449               0.000881254              -0.000214543               0.001028321               0.000813778               0.000000000               0.000000000               0.000000000               0.000000000               0.000282972               0.003052767               0.000685492              -0.000275481               0.001109406               0.000833925               0.000000000               0.000000000               0.000000000               0.000000000               0.000245178               0.003129632               0.000539689              -0.000299262               0.001142954               0.000843692               0.000000000               0.000000000               0.000000000               0.000000000               0.000229192               0.003179124               0.000436966              -0.000311443               0.001163512               0.000852069               0.000000000               0.000000000               0.000000000               0.000000000               0.000215385               0.003225588               0.000367295              -0.000322428               0.001182661               0.000860233               0.000000000               0.000000000               0.000000000               0.000000000               0.000204203               0.003268964               0.000317380              -0.000332044               0.001200325               0.000868281               0.000000000               0.000000000               0.000000000               0.000000000               0.000189301               0.003297503               0.000274564              -0.000341199               0.001212890               0.000871690               0.000000000               0.000000000               0.000000000               0.000000000               0.000169489               0.003307904               0.000234226              -0.000349929               0.001219267               0.000869338               0.000000000               0.000000000               0.000000000               0.000000000               0.000141287               0.003302498               0.000194246              -0.000359829               0.001220764               0.000860936               0.000000000               0.000000000               0.000000000               0.000000000               0.000104820               0.003294487               0.000154297              -0.000372502               0.001222319               0.000849816               0.000000000               0.000000000               0.000000000               0.000000000               0.000060500               0.003285663               0.000110814              -0.000388019               0.001224550               0.000836530               0.000000000               0.000000000               0.000000000               0.000000000               0.000012311               0.003275656               0.000067372              -0.000404839               0.001226821               0.000821981               0.000000000               0.000000000               0.000000000               0.000000000              -0.000034758               0.003258311               0.000032346              -0.000420322               0.001226200               0.000805878               0.000000000               0.000000000               0.000000000               0.000000000              -0.000076074               0.003230397               0.000009931              -0.000432326               0.001220897               0.000788571               0.000000000               0.000000000               0.000000000               0.000000000              -0.000097346               0.003209816              -0.000000138              -0.000437731               0.001215838               0.000778108               0.000000000               0.000000000               0.000000000               0.000000000               0.000989099               0.001507342               0.001070068               0.000182492               0.000441611               0.000624103               0.000000000               0.000000000               0.000000000               0.000000000               0.000723895               0.001931379               0.001050204               0.000030036               0.000633774               0.000663810               0.000000000               0.000000000               0.000000000               0.000000000               0.000445740               0.002501890               0.000950195              -0.000145584               0.000882483               0.000736898               0.000000000               0.000000000               0.000000000               0.000000000               0.000345242               0.002772991               0.000791883              -0.000217158               0.000996707               0.000779549               0.000000000               0.000000000               0.000000000               0.000000000               0.000300556               0.002914974               0.000650839              -0.000251663               0.001055536               0.000803873               0.000000000               0.000000000               0.000000000               0.000000000               0.000278227               0.003012871               0.000541794              -0.000272273               0.001095038               0.000822765               0.000000000               0.000000000               0.000000000               0.000000000               0.000261992               0.003098424               0.000461720              -0.000289056               0.001129149               0.000840094               0.000000000               0.000000000               0.000000000               0.000000000               0.000245723               0.003171356               0.000397792              -0.000304273               0.001158532               0.000854260               0.000000000               0.000000000               0.000000000               0.000000000               0.000226731               0.003224276               0.000342549              -0.000318010               0.001180751               0.000862742               0.000000000               0.000000000               0.000000000               0.000000000               0.000203915               0.003253578               0.000293231              -0.000330228               0.001194591               0.000864363               0.000000000               0.000000000               0.000000000               0.000000000               0.000177601               0.003261337               0.000246977              -0.000341066               0.001200790               0.000859724               0.000000000               0.000000000               0.000000000               0.000000000               0.000145480               0.003253297               0.000201452              -0.000352106               0.001201790               0.000849684               0.000000000               0.000000000               0.000000000               0.000000000               0.000103170               0.003239829               0.000152984              -0.000366289               0.001202029               0.000835740               0.000000000               0.000000000               0.000000000               0.000000000               0.000051390               0.003229354               0.000104781              -0.000384397               0.001204573               0.000820176               0.000000000               0.000000000               0.000000000               0.000000000              -0.000006982               0.003220488               0.000062196              -0.000405178               0.001208545               0.000803366               0.000000000               0.000000000               0.000000000               0.000000000              -0.000070381               0.003208679               0.000027852              -0.000427477               0.001212041               0.000784564               0.000000000               0.000000000               0.000000000               0.000000000              -0.000117410               0.003189820               0.000007012              -0.000442755               0.001210848               0.000768092               0.000000000               0.000000000               0.000000000               0.000000000               0.000799022               0.001040808               0.000841232               0.000169530               0.000290422               0.000459952               0.000000000               0.000000000               0.000000000               0.000000000               0.000694440               0.001501271               0.000939080               0.000072754               0.000476167               0.000548921               0.000000000               0.000000000               0.000000000               0.000000000               0.000516686               0.002097582               0.000956662              -0.000068442               0.000722000               0.000653559               0.000000000               0.000000000               0.000000000               0.000000000               0.000433207               0.002433758               0.000848022              -0.000141768               0.000858500               0.000716733               0.000000000               0.000000000               0.000000000               0.000000000               0.000384002               0.002640696               0.000726314              -0.000186086               0.000942252               0.000756165               0.000000000               0.000000000               0.000000000               0.000000000               0.000353924               0.002793473               0.000621502              -0.000216462               0.001003302               0.000786840               0.000000000               0.000000000               0.000000000               0.000000000               0.000331671               0.002922111               0.000539563              -0.000240887               0.001054323               0.000813436               0.000000000               0.000000000               0.000000000               0.000000000               0.000309988               0.003032770               0.000470184              -0.000262850               0.001098530               0.000835680               0.000000000               0.000000000               0.000000000               0.000000000               0.000285263               0.003119971               0.000407132              -0.000283022               0.001134320               0.000851298               0.000000000               0.000000000               0.000000000               0.000000000               0.000254174               0.003178082               0.000350601              -0.000301944               0.001159998               0.000858054               0.000000000               0.000000000               0.000000000               0.000000000               0.000222559               0.003205155               0.000301827              -0.000317184               0.001174102               0.000856918               0.000000000               0.000000000               0.000000000               0.000000000               0.000189606               0.003208228               0.000253705              -0.000329926               0.001179374               0.000849448               0.000000000               0.000000000               0.000000000               0.000000000               0.000151936               0.003203642               0.000200406              -0.000343479               0.001182363               0.000838884               0.000000000               0.000000000               0.000000000               0.000000000               0.000104875               0.003197829               0.000146291              -0.000360400               0.001186066               0.000825666               0.000000000               0.000000000               0.000000000               0.000000000               0.000046599               0.003194843               0.000096216              -0.000381880               0.001192230               0.000810351               0.000000000               0.000000000               0.000000000               0.000000000              -0.000025250               0.003193284               0.000047883              -0.000408628               0.001200627               0.000791999               0.000000000               0.000000000               0.000000000               0.000000000              -0.000085137               0.003179130               0.000016214              -0.000429317               0.001202805               0.000773488               0.000000000               0.000000000               0.000000000               0.000000000               0.000563678               0.000665359               0.000613573               0.000128208               0.000179048               0.000307255               0.000000000               0.000000000               0.000000000               0.000000000               0.000636650               0.001109875               0.000787641               0.000100008               0.000336618               0.000436626               0.000000000               0.000000000               0.000000000               0.000000000               0.000586475               0.001681129               0.000890922               0.000009786               0.000557109               0.000566894               0.000000000               0.000000000               0.000000000               0.000000000               0.000537887               0.002059814               0.000832274              -0.000055770               0.000705188               0.000649418               0.000000000               0.000000000               0.000000000               0.000000000               0.000493482               0.002321593               0.000740300              -0.000105144               0.000808904               0.000703761               0.000000000               0.000000000               0.000000000               0.000000000               0.000459157               0.002525860               0.000652764              -0.000143549               0.000889794               0.000746245               0.000000000               0.000000000               0.000000000               0.000000000               0.000430083               0.002701382               0.000575721              -0.000176392               0.000959249               0.000782857               0.000000000               0.000000000               0.000000000               0.000000000               0.000397505               0.002853193               0.000506876              -0.000207585               0.001020250               0.000812665               0.000000000               0.000000000               0.000000000               0.000000000               0.000364553               0.002974246               0.000443343              -0.000235073               0.001069763               0.000834690               0.000000000               0.000000000               0.000000000               0.000000000               0.000328992               0.003062587               0.000387661              -0.000259451               0.001107336               0.000847885               0.000000000               0.000000000               0.000000000               0.000000000               0.000291190               0.003121858               0.000339953              -0.000281035               0.001134287               0.000853252               0.000000000               0.000000000               0.000000000               0.000000000               0.000253410               0.003156482               0.000293038              -0.000299531               0.001151994               0.000852463               0.000000000               0.000000000               0.000000000               0.000000000               0.000217580               0.003170209               0.000241822              -0.000314683               0.001161620               0.000846937               0.000000000               0.000000000               0.000000000               0.000000000               0.000178426               0.003172540               0.000187445              -0.000329657               0.001167388               0.000837731               0.000000000               0.000000000               0.000000000               0.000000000               0.000130327               0.003177651               0.000130738              -0.000348333               0.001175317               0.000826984               0.000000000               0.000000000               0.000000000               0.000000000               0.000066148               0.003186560               0.000068355              -0.000373513               0.001186681               0.000813167               0.000000000               0.000000000               0.000000000               0.000000000               0.000009480               0.003179628               0.000029075              -0.000393898               0.001191165               0.000797267               0.000000000               0.000000000               0.000000000               0.000000000               0.000311342               0.000383715               0.000409001               0.000068788               0.000104974               0.000173762               0.000000000               0.000000000               0.000000000               0.000000000               0.000556231               0.000777300               0.000607201               0.000111423               0.000221956               0.000333379               0.000000000               0.000000000               0.000000000               0.000000000               0.000649221               0.001294242               0.000751260               0.000081676               0.000404184               0.000485860               0.000000000               0.000000000               0.000000000               0.000000000               0.000650957               0.001692960               0.000735255               0.000032488               0.000553485               0.000585973               0.000000000               0.000000000               0.000000000               0.000000000               0.000625745               0.001997310               0.000676396              -0.000015010               0.000670767               0.000655756               0.000000000               0.000000000               0.000000000               0.000000000               0.000588528               0.002241696               0.000610697              -0.000059514               0.000767062               0.000707548               0.000000000               0.000000000               0.000000000               0.000000000               0.000547189               0.002452922               0.000544161              -0.000101420               0.000851439               0.000750019               0.000000000               0.000000000               0.000000000               0.000000000               0.000504991               0.002639628               0.000483030              -0.000140582               0.000926728               0.000786146               0.000000000               0.000000000               0.000000000               0.000000000               0.000467021               0.002791914               0.000428755              -0.000173856               0.000988581               0.000814724               0.000000000               0.000000000               0.000000000               0.000000000               0.000429623               0.002912334               0.000378255              -0.000202933               0.001038413               0.000835480               0.000000000               0.000000000               0.000000000               0.000000000               0.000387594               0.003009969               0.000333912              -0.000230898               0.001080279               0.000849381               0.000000000               0.000000000               0.000000000               0.000000000               0.000349420               0.003081617               0.000295385              -0.000254169               0.001111919               0.000857749               0.000000000               0.000000000               0.000000000               0.000000000               0.000317966               0.003123587               0.000253057              -0.000271211               0.001131589               0.000860378               0.000000000               0.000000000               0.000000000               0.000000000               0.000287383               0.003148159               0.000202216              -0.000285751               0.001144626               0.000858875               0.000000000               0.000000000               0.000000000               0.000000000               0.000250504               0.003166480               0.000144731              -0.000301870               0.001156106               0.000854236               0.000000000               0.000000000               0.000000000               0.000000000               0.000206197               0.003181752               0.000078065              -0.000320394               0.001167371               0.000846977               0.000000000               0.000000000               0.000000000               0.000000000               0.000169313               0.003181378               0.000038155              -0.000334179               0.001171842               0.000837663               0.000000000               0.000000000               0.000000000               0.000000000               0.000084016               0.000197364               0.000239411               0.000006835               0.000063509               0.000070344               0.000000000               0.000000000               0.000000000               0.000000000               0.000472154               0.000526503               0.000409799               0.000111244               0.000138418               0.000249661               0.000000000               0.000000000               0.000000000               0.000000000               0.000699576               0.000977775               0.000544715               0.000140118               0.000279216               0.000419333               0.000000000               0.000000000               0.000000000               0.000000000               0.000756599               0.001379942               0.000553314               0.000111231               0.000422899               0.000534130               0.000000000               0.000000000               0.000000000               0.000000000               0.000750106               0.001708576               0.000522637               0.000067717               0.000546947               0.000614664               0.000000000               0.000000000               0.000000000               0.000000000               0.000713335               0.001977452               0.000477753               0.000020319               0.000652371               0.000672690               0.000000000               0.000000000               0.000000000               0.000000000               0.000664281               0.002210858               0.000428197              -0.000027252               0.000746029               0.000718777               0.000000000               0.000000000               0.000000000               0.000000000               0.000618262               0.002419639               0.000384333              -0.000070607               0.000830074               0.000759467               0.000000000               0.000000000               0.000000000               0.000000000               0.000576935               0.002601610               0.000344897              -0.000108850               0.000903478               0.000794628               0.000000000               0.000000000               0.000000000               0.000000000               0.000536800               0.002758651               0.000303566              -0.000143531               0.000967385               0.000823854               0.000000000               0.000000000               0.000000000               0.000000000               0.000495987               0.002887736               0.000270802              -0.000174972               0.001020893               0.000845921               0.000000000               0.000000000               0.000000000               0.000000000               0.000458528               0.002987841               0.000247126              -0.000201532               0.001063114               0.000861583               0.000000000               0.000000000               0.000000000               0.000000000               0.000426009               0.003064903               0.000216632              -0.000223359               0.001096077               0.000872718               0.000000000               0.000000000               0.000000000               0.000000000               0.000399637               0.003122066               0.000172577              -0.000240394               0.001120810               0.000880416               0.000000000               0.000000000               0.000000000               0.000000000               0.000376948               0.003158819               0.000121704              -0.000253496               0.001137428               0.000883931               0.000000000               0.000000000               0.000000000               0.000000000               0.000358920               0.003179118               0.000065709              -0.000262794               0.001147294               0.000884499               0.000000000               0.000000000               0.000000000               0.000000000               0.000350151               0.003184427               0.000034557              -0.000266746               0.001150380               0.000883634               0.000000000               0.000000000               0.000000000               0.000000000              -0.000075554               0.000091624               0.000108043              -0.000039786               0.000043803               0.000004017               0.000000000               0.000000000               0.000000000               0.000000000               0.000410826               0.000370022               0.000206053               0.000107806               0.000087404               0.000195210               0.000000000               0.000000000               0.000000000               0.000000000               0.000731011               0.000769059               0.000286879               0.000177995               0.000197019               0.000375014               0.000000000               0.000000000               0.000000000               0.000000000               0.000832028               0.001167188               0.000298771               0.000166110               0.000333689               0.000499799               0.000000000               0.000000000               0.000000000               0.000000000               0.000837296               0.001504444               0.000286295               0.000125929               0.000459500               0.000585429               0.000000000               0.000000000               0.000000000               0.000000000               0.000802235               0.001783973               0.000262278               0.000077841               0.000568705               0.000646546               0.000000000               0.000000000               0.000000000               0.000000000               0.000754337               0.002025346               0.000235786               0.000029708               0.000665206               0.000694914               0.000000000               0.000000000               0.000000000               0.000000000               0.000706781               0.002249066               0.000213610              -0.000016091               0.000755045               0.000738954               0.000000000               0.000000000               0.000000000               0.000000000               0.000659380               0.002459065               0.000192696              -0.000060115               0.000839718               0.000779603               0.000000000               0.000000000               0.000000000               0.000000000               0.000615843               0.002643751               0.000169142              -0.000099527               0.000914417               0.000814890               0.000000000               0.000000000               0.000000000               0.000000000               0.000576581               0.002795975               0.000152883              -0.000133279               0.000976408               0.000843130               0.000000000               0.000000000               0.000000000               0.000000000               0.000535726               0.002918417               0.000143038              -0.000163905               0.001027431               0.000863526               0.000000000               0.000000000               0.000000000               0.000000000               0.000497408               0.003018394               0.000126956              -0.000190771               0.001069712               0.000878941               0.000000000               0.000000000               0.000000000               0.000000000               0.000472069               0.003095316               0.000101060              -0.000209888               0.001101724               0.000891836               0.000000000               0.000000000               0.000000000               0.000000000               0.000465724               0.003146552               0.000069382              -0.000218672               0.001121731               0.000903059               0.000000000               0.000000000               0.000000000               0.000000000               0.000478790               0.003175856               0.000035684              -0.000217435               0.001131086               0.000913651               0.000000000               0.000000000               0.000000000               0.000000000               0.000498346               0.003188246               0.000018593              -0.000211650               0.001133288               0.000921638               0.000000000               0.000000000               0.000000000               0.000000000               0.000000000               0.000000000               0.000000000               0.000000000               0.000000000               0.000000000               0.000000000               0.000000000               0.000000000               0.000000000               0.000000000               0.000000000               0.000000000               0.000000000               0.000000000               0.000000000               0.000000000               0.000000000               0.000000000               0.000000000               0.000000000               0.000000000               0.000000000               0.000000000               0.000000000               0.000000000               0.000000000               0.000000000               0.000000000               0.000000000               0.000000000               0.000000000               0.000000000               0.000000000               0.000000000               0.000000000               0.000000000               0.000000000               0.000000000               0.000000000               0.000000000               0.000000000               0.000000000               0.000000000               0.000000000               0.000000000               0.000000000               0.000000000               0.000000000               0.000000000               0.000000000               0.000000000               0.000000000               0.000000000               0.000000000               0.000000000               0.000000000               0.000000000               0.000000000               0.000000000               0.000000000               0.000000000               0.000000000               0.000000000               0.000000000               0.000000000               0.000000000               0.000000000               0.000000000               0.000000000               0.000000000               0.000000000               0.000000000               0.000000000               0.000000000               0.000000000               0.000000000               0.000000000               0.000000000               0.000000000               0.000000000               0.000000000               0.000000000               0.000000000               0.000000000               0.000000000               0.000000000               0.000000000               0.000000000               0.000000000               0.000000000               0.000000000               0.000000000               0.000000000               0.000000000               0.000000000               0.000000000               0.000000000               0.000000000               0.000000000               0.000000000               0.000000000               0.000000000               0.000000000               0.000000000               0.000000000               0.000000000               0.000000000               0.000000000               0.000000000               0.000000000               0.000000000               0.000000000               0.000000000               0.000000000               0.000000000               0.000000000               0.000000000               0.000000000               0.000000000               0.000000000               0.000000000               0.000000000               0.000000000               0.000000000               0.000000000               0.000000000               0.000000000               0.000000000               0.000000000               0.000000000               0.000000000               0.000000000               0.000000000               0.000000000               0.000000000               0.000000000               0.000000000               0.000000000               0.000000000               0.000000000               0.000000000               0.000000000               0.000000000               0.000000000               0.000000000               0.000000000               0.000000000               0.000000000               0.000000000               0.000000000               0.000000000               0.000000000               0.000000000               0.000000000               0.000000000               0.000000000               0.000000000               0.000000000               0.000000000               0.000000000               0.000000000               0.000000000               0.000000000               0.000000000               0.000000000               0.000000000               0.000000000               0.000000000               0.000000000 </DataArray>
</PointData>
</Piece>
</UnstructuredGrid> </VTKFile>
