<?xml version="1.0"?>
<VTKFile type="UnstructuredGrid" version="0.1">
<UnstructuredGrid>
<Piece NumberOfPoints="      1156" NumberOfCells="      1024">
<Points>
<DataArray type="Float64"                                    Name="coordinates"                                                      NumberOfComponents=" 3" format="ascii">
              0.133000000               0.000000000               0.000000000               0.155937500               0.000000000               0.000000000               0.178875000               0.000000000               0.000000000               0.201812500               0.000000000               0.000000000               0.224750000               0.000000000               0.000000000               0.247687500               0.000000000               0.000000000               0.270625000               0.000000000               0.000000000               0.293562500               0.000000000               0.000000000               0.316500000               0.000000000               0.000000000               0.339437500               0.000000000               0.000000000               0.362375000               0.000000000               0.000000000               0.385312500               0.000000000               0.000000000               0.408250000               0.000000000               0.000000000               0.431187500               0.000000000               0.000000000               0.454125000               0.000000000               0.000000000               0.477062500               0.000000000               0.000000000               0.500000000               0.000000000               0.000000000               0.132359569               0.013036280               0.000000000               0.155337096               0.016127762               0.000000000               0.178314623               0.019219245               0.000000000               0.201292150               0.022310727               0.000000000               0.224269676               0.025402210               0.000000000               0.247247203               0.028493692               0.000000000               0.270224730               0.031585175               0.000000000               0.293202257               0.034676657               0.000000000               0.316179784               0.037768140               0.000000000               0.339157311               0.040859622               0.000000000               0.362134838               0.043951105               0.000000000               0.385112365               0.047042587               0.000000000               0.408089892               0.050134070               0.000000000               0.431067419               0.053225552               0.000000000               0.454044946               0.056317035               0.000000000               0.477022473               0.059408517               0.000000000               0.500000000               0.062500000               0.000000000               0.130444442               0.025947013               0.000000000               0.153541665               0.032137825               0.000000000               0.176638887               0.038328636               0.000000000               0.199736109               0.044519448               0.000000000               0.222833332               0.050710260               0.000000000               0.245930554               0.056901071               0.000000000               0.269027776               0.063091883               0.000000000               0.292124999               0.069282695               0.000000000               0.315222221               0.075473506               0.000000000               0.338319444               0.081664318               0.000000000               0.361416666               0.087855130               0.000000000               0.384513888               0.094045942               0.000000000               0.407611111               0.100236753               0.000000000               0.430708333               0.106427565               0.000000000               0.453805555               0.112618377               0.000000000               0.476902778               0.118809188               0.000000000               0.500000000               0.125000000               0.000000000               0.127273065               0.038607862               0.000000000               0.150568498               0.047913621               0.000000000               0.173863932               0.057219379               0.000000000               0.197159365               0.066525138               0.000000000               0.220454798               0.075830897               0.000000000               0.243750232               0.085136655               0.000000000               0.267045665               0.094442414               0.000000000               0.290341099               0.103748172               0.000000000               0.313636532               0.113053931               0.000000000               0.336931966               0.122359690               0.000000000               0.360227399               0.131665448               0.000000000               0.383522833               0.140971207               0.000000000               0.406818266               0.150276966               0.000000000               0.430113700               0.159582724               0.000000000               0.453409133               0.168888483               0.000000000               0.476704567               0.178194241               0.000000000               0.500000000               0.187500000               0.000000000               0.122875978               0.050896897               0.000000000               0.146446229               0.063340840               0.000000000               0.170016481               0.075784784               0.000000000               0.193586732               0.088228728               0.000000000               0.217156983               0.100672672               0.000000000               0.240727235               0.113116616               0.000000000               0.264297486               0.125560560               0.000000000               0.287867738               0.138004504               0.000000000               0.311437989               0.150448448               0.000000000               0.335008240               0.162892392               0.000000000               0.358578492               0.175336336               0.000000000               0.382148743               0.187780280               0.000000000               0.405718994               0.200224224               0.000000000               0.429289246               0.212668168               0.000000000               0.452859497               0.225112112               0.000000000               0.476429749               0.237556056               0.000000000               0.500000000               0.250000000               0.000000000               0.117295528               0.062695766               0.000000000               0.141214558               0.078308531               0.000000000               0.165133587               0.093921295               0.000000000               0.189052617               0.109534060               0.000000000               0.212971646               0.125146824               0.000000000               0.236890676               0.140759589               0.000000000               0.260809705               0.156372354               0.000000000               0.284728735               0.171985118               0.000000000               0.308647764               0.187597883               0.000000000               0.332566794               0.203210648               0.000000000               0.356485823               0.218823412               0.000000000               0.380404853               0.234436177               0.000000000               0.404323882               0.250048941               0.000000000               0.428242912               0.265661706               0.000000000               0.452161941               0.281274471               0.000000000               0.476080971               0.296887235               0.000000000               0.500000000               0.312500000               0.000000000               0.110585458               0.073890841               0.000000000               0.134923867               0.092710163               0.000000000               0.159262276               0.111529486               0.000000000               0.183600685               0.130348808               0.000000000               0.207939094               0.149168131               0.000000000               0.232277503               0.167987453               0.000000000               0.256615912               0.186806776               0.000000000               0.280954320               0.205626098               0.000000000               0.305292729               0.224445420               0.000000000               0.329631138               0.243264743               0.000000000               0.353969547               0.262084065               0.000000000               0.378307956               0.280903388               0.000000000               0.402646365               0.299722710               0.000000000               0.426984773               0.318542033               0.000000000               0.451323182               0.337361355               0.000000000               0.475661591               0.356180678               0.000000000               0.500000000               0.375000000               0.000000000               0.102810390               0.084374307               0.000000000               0.127634741               0.106444663               0.000000000               0.152459092               0.128515018               0.000000000               0.177283442               0.150585374               0.000000000               0.202107793               0.172655730               0.000000000               0.226932143               0.194726086               0.000000000               0.251756494               0.216796442               0.000000000               0.276580845               0.238866798               0.000000000               0.301405195               0.260937153               0.000000000               0.326229546               0.283007509               0.000000000               0.351053896               0.305077865               0.000000000               0.375878247               0.327148221               0.000000000               0.400702598               0.349218577               0.000000000               0.425526948               0.371288933               0.000000000               0.450351299               0.393359288               0.000000000               0.475175649               0.415429644               0.000000000               0.500000000               0.437500000               0.000000000               0.094045202               0.094045202               0.000000000               0.119417377               0.119417377               0.000000000               0.144789552               0.144789552               0.000000000               0.170161727               0.170161727               0.000000000               0.195533901               0.195533901               0.000000000               0.220906076               0.220906076               0.000000000               0.246278251               0.246278251               0.000000000               0.271650426               0.271650426               0.000000000               0.297022601               0.297022601               0.000000000               0.322394776               0.322394776               0.000000000               0.347766951               0.347766951               0.000000000               0.373139126               0.373139126               0.000000000               0.398511300               0.398511300               0.000000000               0.423883475               0.423883475               0.000000000               0.449255650               0.449255650               0.000000000               0.474627825               0.474627825               0.000000000               0.500000000               0.500000000               0.000000000               0.084374307               0.102810390               0.000000000               0.106444663               0.127634741               0.000000000               0.128515018               0.152459092               0.000000000               0.150585374               0.177283442               0.000000000               0.172655730               0.202107793               0.000000000               0.194726086               0.226932143               0.000000000               0.216796442               0.251756494               0.000000000               0.238866798               0.276580845               0.000000000               0.260937153               0.301405195               0.000000000               0.283007509               0.326229546               0.000000000               0.305077865               0.351053896               0.000000000               0.327148221               0.375878247               0.000000000               0.349218577               0.400702598               0.000000000               0.371288933               0.425526948               0.000000000               0.393359288               0.450351299               0.000000000               0.415429644               0.475175649               0.000000000               0.437500000               0.500000000               0.000000000               0.073890841               0.110585458               0.000000000               0.092710163               0.134923867               0.000000000               0.111529486               0.159262276               0.000000000               0.130348808               0.183600685               0.000000000               0.149168131               0.207939094               0.000000000               0.167987453               0.232277503               0.000000000               0.186806776               0.256615912               0.000000000               0.205626098               0.280954320               0.000000000               0.224445420               0.305292729               0.000000000               0.243264743               0.329631138               0.000000000               0.262084065               0.353969547               0.000000000               0.280903388               0.378307956               0.000000000               0.299722710               0.402646365               0.000000000               0.318542033               0.426984773               0.000000000               0.337361355               0.451323182               0.000000000               0.356180678               0.475661591               0.000000000               0.375000000               0.500000000               0.000000000               0.062695766               0.117295528               0.000000000               0.078308531               0.141214558               0.000000000               0.093921295               0.165133587               0.000000000               0.109534060               0.189052617               0.000000000               0.125146824               0.212971646               0.000000000               0.140759589               0.236890676               0.000000000               0.156372354               0.260809705               0.000000000               0.171985118               0.284728735               0.000000000               0.187597883               0.308647764               0.000000000               0.203210648               0.332566794               0.000000000               0.218823412               0.356485823               0.000000000               0.234436177               0.380404853               0.000000000               0.250048941               0.404323882               0.000000000               0.265661706               0.428242912               0.000000000               0.281274471               0.452161941               0.000000000               0.296887235               0.476080971               0.000000000               0.312500000               0.500000000               0.000000000               0.050896897               0.122875978               0.000000000               0.063340840               0.146446229               0.000000000               0.075784784               0.170016481               0.000000000               0.088228728               0.193586732               0.000000000               0.100672672               0.217156983               0.000000000               0.113116616               0.240727235               0.000000000               0.125560560               0.264297486               0.000000000               0.138004504               0.287867738               0.000000000               0.150448448               0.311437989               0.000000000               0.162892392               0.335008240               0.000000000               0.175336336               0.358578492               0.000000000               0.187780280               0.382148743               0.000000000               0.200224224               0.405718994               0.000000000               0.212668168               0.429289246               0.000000000               0.225112112               0.452859497               0.000000000               0.237556056               0.476429749               0.000000000               0.250000000               0.500000000               0.000000000               0.038607862               0.127273065               0.000000000               0.047913621               0.150568498               0.000000000               0.057219379               0.173863932               0.000000000               0.066525138               0.197159365               0.000000000               0.075830897               0.220454798               0.000000000               0.085136655               0.243750232               0.000000000               0.094442414               0.267045665               0.000000000               0.103748172               0.290341099               0.000000000               0.113053931               0.313636532               0.000000000               0.122359690               0.336931966               0.000000000               0.131665448               0.360227399               0.000000000               0.140971207               0.383522833               0.000000000               0.150276966               0.406818266               0.000000000               0.159582724               0.430113700               0.000000000               0.168888483               0.453409133               0.000000000               0.178194241               0.476704567               0.000000000               0.187500000               0.500000000               0.000000000               0.025947013               0.130444442               0.000000000               0.032137825               0.153541665               0.000000000               0.038328636               0.176638887               0.000000000               0.044519448               0.199736109               0.000000000               0.050710260               0.222833332               0.000000000               0.056901071               0.245930554               0.000000000               0.063091883               0.269027776               0.000000000               0.069282695               0.292124999               0.000000000               0.075473506               0.315222221               0.000000000               0.081664318               0.338319444               0.000000000               0.087855130               0.361416666               0.000000000               0.094045942               0.384513888               0.000000000               0.100236753               0.407611111               0.000000000               0.106427565               0.430708333               0.000000000               0.112618377               0.453805555               0.000000000               0.118809188               0.476902778               0.000000000               0.125000000               0.500000000               0.000000000               0.013036280               0.132359569               0.000000000               0.016127762               0.155337096               0.000000000               0.019219245               0.178314623               0.000000000               0.022310727               0.201292150               0.000000000               0.025402210               0.224269676               0.000000000               0.028493692               0.247247203               0.000000000               0.031585175               0.270224730               0.000000000               0.034676657               0.293202257               0.000000000               0.037768140               0.316179784               0.000000000               0.040859622               0.339157311               0.000000000               0.043951105               0.362134838               0.000000000               0.047042587               0.385112365               0.000000000               0.050134070               0.408089892               0.000000000               0.053225552               0.431067419               0.000000000               0.056317035               0.454044946               0.000000000               0.059408517               0.477022473               0.000000000               0.062500000               0.500000000               0.000000000               0.000000000               0.133000000               0.000000000               0.000000000               0.155937500               0.000000000               0.000000000               0.178875000               0.000000000               0.000000000               0.201812500               0.000000000               0.000000000               0.224750000               0.000000000               0.000000000               0.247687500               0.000000000               0.000000000               0.270625000               0.000000000               0.000000000               0.293562500               0.000000000               0.000000000               0.316500000               0.000000000               0.000000000               0.339437500               0.000000000               0.000000000               0.362375000               0.000000000               0.000000000               0.385312500               0.000000000               0.000000000               0.408250000               0.000000000               0.000000000               0.431187500               0.000000000               0.000000000               0.454125000               0.000000000               0.000000000               0.477062500               0.000000000               0.000000000               0.500000000               0.000000000               0.133000000               0.000000000               0.000000000               0.155937500               0.000000000               0.000000000               0.178875000               0.000000000               0.000000000               0.201812500               0.000000000               0.000000000               0.224750000               0.000000000               0.000000000               0.247687500               0.000000000               0.000000000               0.270625000               0.000000000               0.000000000               0.293562500               0.000000000               0.000000000               0.316500000               0.000000000               0.000000000               0.339437500               0.000000000               0.000000000               0.362375000               0.000000000               0.000000000               0.385312500               0.000000000               0.000000000               0.408250000               0.000000000               0.000000000               0.431187500               0.000000000               0.000000000               0.454125000               0.000000000               0.000000000               0.477062500               0.000000000               0.000000000               0.500000000               0.000000000               0.000000000               0.132359569              -0.013036280               0.000000000               0.155337096              -0.016127762               0.000000000               0.178314623              -0.019219245               0.000000000               0.201292150              -0.022310727               0.000000000               0.224269676              -0.025402210               0.000000000               0.247247203              -0.028493692               0.000000000               0.270224730              -0.031585175               0.000000000               0.293202257              -0.034676657               0.000000000               0.316179784              -0.037768140               0.000000000               0.339157311              -0.040859622               0.000000000               0.362134838              -0.043951105               0.000000000               0.385112365              -0.047042587               0.000000000               0.408089892              -0.050134070               0.000000000               0.431067419              -0.053225552               0.000000000               0.454044946              -0.056317035               0.000000000               0.477022473              -0.059408517               0.000000000               0.500000000              -0.062500000               0.000000000               0.130444442              -0.025947013               0.000000000               0.153541665              -0.032137825               0.000000000               0.176638887              -0.038328636               0.000000000               0.199736109              -0.044519448               0.000000000               0.222833332              -0.050710260               0.000000000               0.245930554              -0.056901071               0.000000000               0.269027776              -0.063091883               0.000000000               0.292124999              -0.069282695               0.000000000               0.315222221              -0.075473506               0.000000000               0.338319444              -0.081664318               0.000000000               0.361416666              -0.087855130               0.000000000               0.384513888              -0.094045942               0.000000000               0.407611111              -0.100236753               0.000000000               0.430708333              -0.106427565               0.000000000               0.453805555              -0.112618377               0.000000000               0.476902778              -0.118809188               0.000000000               0.500000000              -0.125000000               0.000000000               0.127273065              -0.038607862               0.000000000               0.150568498              -0.047913621               0.000000000               0.173863932              -0.057219379               0.000000000               0.197159365              -0.066525138               0.000000000               0.220454798              -0.075830897               0.000000000               0.243750232              -0.085136655               0.000000000               0.267045665              -0.094442414               0.000000000               0.290341099              -0.103748172               0.000000000               0.313636532              -0.113053931               0.000000000               0.336931966              -0.122359690               0.000000000               0.360227399              -0.131665448               0.000000000               0.383522833              -0.140971207               0.000000000               0.406818266              -0.150276966               0.000000000               0.430113700              -0.159582724               0.000000000               0.453409133              -0.168888483               0.000000000               0.476704567              -0.178194241               0.000000000               0.500000000              -0.187500000               0.000000000               0.122875978              -0.050896897               0.000000000               0.146446229              -0.063340840               0.000000000               0.170016481              -0.075784784               0.000000000               0.193586732              -0.088228728               0.000000000               0.217156983              -0.100672672               0.000000000               0.240727235              -0.113116616               0.000000000               0.264297486              -0.125560560               0.000000000               0.287867738              -0.138004504               0.000000000               0.311437989              -0.150448448               0.000000000               0.335008240              -0.162892392               0.000000000               0.358578492              -0.175336336               0.000000000               0.382148743              -0.187780280               0.000000000               0.405718994              -0.200224224               0.000000000               0.429289246              -0.212668168               0.000000000               0.452859497              -0.225112112               0.000000000               0.476429749              -0.237556056               0.000000000               0.500000000              -0.250000000               0.000000000               0.117295528              -0.062695766               0.000000000               0.141214558              -0.078308531               0.000000000               0.165133587              -0.093921295               0.000000000               0.189052617              -0.109534060               0.000000000               0.212971646              -0.125146824               0.000000000               0.236890676              -0.140759589               0.000000000               0.260809705              -0.156372354               0.000000000               0.284728735              -0.171985118               0.000000000               0.308647764              -0.187597883               0.000000000               0.332566794              -0.203210648               0.000000000               0.356485823              -0.218823412               0.000000000               0.380404853              -0.234436177               0.000000000               0.404323882              -0.250048941               0.000000000               0.428242912              -0.265661706               0.000000000               0.452161941              -0.281274471               0.000000000               0.476080971              -0.296887235               0.000000000               0.500000000              -0.312500000               0.000000000               0.110585458              -0.073890841               0.000000000               0.134923867              -0.092710163               0.000000000               0.159262276              -0.111529486               0.000000000               0.183600685              -0.130348808               0.000000000               0.207939094              -0.149168131               0.000000000               0.232277503              -0.167987453               0.000000000               0.256615912              -0.186806776               0.000000000               0.280954320              -0.205626098               0.000000000               0.305292729              -0.224445420               0.000000000               0.329631138              -0.243264743               0.000000000               0.353969547              -0.262084065               0.000000000               0.378307956              -0.280903388               0.000000000               0.402646365              -0.299722710               0.000000000               0.426984773              -0.318542033               0.000000000               0.451323182              -0.337361355               0.000000000               0.475661591              -0.356180678               0.000000000               0.500000000              -0.375000000               0.000000000               0.102810390              -0.084374307               0.000000000               0.127634741              -0.106444663               0.000000000               0.152459092              -0.128515018               0.000000000               0.177283442              -0.150585374               0.000000000               0.202107793              -0.172655730               0.000000000               0.226932143              -0.194726086               0.000000000               0.251756494              -0.216796442               0.000000000               0.276580845              -0.238866798               0.000000000               0.301405195              -0.260937153               0.000000000               0.326229546              -0.283007509               0.000000000               0.351053896              -0.305077865               0.000000000               0.375878247              -0.327148221               0.000000000               0.400702598              -0.349218577               0.000000000               0.425526948              -0.371288933               0.000000000               0.450351299              -0.393359288               0.000000000               0.475175649              -0.415429644               0.000000000               0.500000000              -0.437500000               0.000000000               0.094045202              -0.094045202               0.000000000               0.119417377              -0.119417377               0.000000000               0.144789552              -0.144789552               0.000000000               0.170161727              -0.170161727               0.000000000               0.195533901              -0.195533901               0.000000000               0.220906076              -0.220906076               0.000000000               0.246278251              -0.246278251               0.000000000               0.271650426              -0.271650426               0.000000000               0.297022601              -0.297022601               0.000000000               0.322394776              -0.322394776               0.000000000               0.347766951              -0.347766951               0.000000000               0.373139126              -0.373139126               0.000000000               0.398511300              -0.398511300               0.000000000               0.423883475              -0.423883475               0.000000000               0.449255650              -0.449255650               0.000000000               0.474627825              -0.474627825               0.000000000               0.500000000              -0.500000000               0.000000000               0.084374307              -0.102810390               0.000000000               0.106444663              -0.127634741               0.000000000               0.128515018              -0.152459092               0.000000000               0.150585374              -0.177283442               0.000000000               0.172655730              -0.202107793               0.000000000               0.194726086              -0.226932143               0.000000000               0.216796442              -0.251756494               0.000000000               0.238866798              -0.276580845               0.000000000               0.260937153              -0.301405195               0.000000000               0.283007509              -0.326229546               0.000000000               0.305077865              -0.351053896               0.000000000               0.327148221              -0.375878247               0.000000000               0.349218577              -0.400702598               0.000000000               0.371288933              -0.425526948               0.000000000               0.393359288              -0.450351299               0.000000000               0.415429644              -0.475175649               0.000000000               0.437500000              -0.500000000               0.000000000               0.073890841              -0.110585458               0.000000000               0.092710163              -0.134923867               0.000000000               0.111529486              -0.159262276               0.000000000               0.130348808              -0.183600685               0.000000000               0.149168131              -0.207939094               0.000000000               0.167987453              -0.232277503               0.000000000               0.186806776              -0.256615912               0.000000000               0.205626098              -0.280954320               0.000000000               0.224445420              -0.305292729               0.000000000               0.243264743              -0.329631138               0.000000000               0.262084065              -0.353969547               0.000000000               0.280903388              -0.378307956               0.000000000               0.299722710              -0.402646365               0.000000000               0.318542033              -0.426984773               0.000000000               0.337361355              -0.451323182               0.000000000               0.356180678              -0.475661591               0.000000000               0.375000000              -0.500000000               0.000000000               0.062695766              -0.117295528               0.000000000               0.078308531              -0.141214558               0.000000000               0.093921295              -0.165133587               0.000000000               0.109534060              -0.189052617               0.000000000               0.125146824              -0.212971646               0.000000000               0.140759589              -0.236890676               0.000000000               0.156372354              -0.260809705               0.000000000               0.171985118              -0.284728735               0.000000000               0.187597883              -0.308647764               0.000000000               0.203210648              -0.332566794               0.000000000               0.218823412              -0.356485823               0.000000000               0.234436177              -0.380404853               0.000000000               0.250048941              -0.404323882               0.000000000               0.265661706              -0.428242912               0.000000000               0.281274471              -0.452161941               0.000000000               0.296887235              -0.476080971               0.000000000               0.312500000              -0.500000000               0.000000000               0.050896897              -0.122875978               0.000000000               0.063340840              -0.146446229               0.000000000               0.075784784              -0.170016481               0.000000000               0.088228728              -0.193586732               0.000000000               0.100672672              -0.217156983               0.000000000               0.113116616              -0.240727235               0.000000000               0.125560560              -0.264297486               0.000000000               0.138004504              -0.287867738               0.000000000               0.150448448              -0.311437989               0.000000000               0.162892392              -0.335008240               0.000000000               0.175336336              -0.358578492               0.000000000               0.187780280              -0.382148743               0.000000000               0.200224224              -0.405718994               0.000000000               0.212668168              -0.429289246               0.000000000               0.225112112              -0.452859497               0.000000000               0.237556056              -0.476429749               0.000000000               0.250000000              -0.500000000               0.000000000               0.038607862              -0.127273065               0.000000000               0.047913621              -0.150568498               0.000000000               0.057219379              -0.173863932               0.000000000               0.066525138              -0.197159365               0.000000000               0.075830897              -0.220454798               0.000000000               0.085136655              -0.243750232               0.000000000               0.094442414              -0.267045665               0.000000000               0.103748172              -0.290341099               0.000000000               0.113053931              -0.313636532               0.000000000               0.122359690              -0.336931966               0.000000000               0.131665448              -0.360227399               0.000000000               0.140971207              -0.383522833               0.000000000               0.150276966              -0.406818266               0.000000000               0.159582724              -0.430113700               0.000000000               0.168888483              -0.453409133               0.000000000               0.178194241              -0.476704567               0.000000000               0.187500000              -0.500000000               0.000000000               0.025947013              -0.130444442               0.000000000               0.032137825              -0.153541665               0.000000000               0.038328636              -0.176638887               0.000000000               0.044519448              -0.199736109               0.000000000               0.050710260              -0.222833332               0.000000000               0.056901071              -0.245930554               0.000000000               0.063091883              -0.269027776               0.000000000               0.069282695              -0.292124999               0.000000000               0.075473506              -0.315222221               0.000000000               0.081664318              -0.338319444               0.000000000               0.087855130              -0.361416666               0.000000000               0.094045942              -0.384513888               0.000000000               0.100236753              -0.407611111               0.000000000               0.106427565              -0.430708333               0.000000000               0.112618377              -0.453805555               0.000000000               0.118809188              -0.476902778               0.000000000               0.125000000              -0.500000000               0.000000000               0.013036280              -0.132359569               0.000000000               0.016127762              -0.155337096               0.000000000               0.019219245              -0.178314623               0.000000000               0.022310727              -0.201292150               0.000000000               0.025402210              -0.224269676               0.000000000               0.028493692              -0.247247203               0.000000000               0.031585175              -0.270224730               0.000000000               0.034676657              -0.293202257               0.000000000               0.037768140              -0.316179784               0.000000000               0.040859622              -0.339157311               0.000000000               0.043951105              -0.362134838               0.000000000               0.047042587              -0.385112365               0.000000000               0.050134070              -0.408089892               0.000000000               0.053225552              -0.431067419               0.000000000               0.056317035              -0.454044946               0.000000000               0.059408517              -0.477022473               0.000000000               0.062500000              -0.500000000               0.000000000               0.000000000              -0.133000000               0.000000000               0.000000000              -0.155937500               0.000000000               0.000000000              -0.178875000               0.000000000               0.000000000              -0.201812500               0.000000000               0.000000000              -0.224750000               0.000000000               0.000000000              -0.247687500               0.000000000               0.000000000              -0.270625000               0.000000000               0.000000000              -0.293562500               0.000000000               0.000000000              -0.316500000               0.000000000               0.000000000              -0.339437500               0.000000000               0.000000000              -0.362375000               0.000000000               0.000000000              -0.385312500               0.000000000               0.000000000              -0.408250000               0.000000000               0.000000000              -0.431187500               0.000000000               0.000000000              -0.454125000               0.000000000               0.000000000              -0.477062500               0.000000000               0.000000000              -0.500000000               0.000000000              -0.133000000               0.000000000               0.000000000              -0.155937500               0.000000000               0.000000000              -0.178875000               0.000000000               0.000000000              -0.201812500               0.000000000               0.000000000              -0.224750000               0.000000000               0.000000000              -0.247687500               0.000000000               0.000000000              -0.270625000               0.000000000               0.000000000              -0.293562500               0.000000000               0.000000000              -0.316500000               0.000000000               0.000000000              -0.339437500               0.000000000               0.000000000              -0.362375000               0.000000000               0.000000000              -0.385312500               0.000000000               0.000000000              -0.408250000               0.000000000               0.000000000              -0.431187500               0.000000000               0.000000000              -0.454125000               0.000000000               0.000000000              -0.477062500               0.000000000               0.000000000              -0.500000000               0.000000000               0.000000000              -0.132359569              -0.013036280               0.000000000              -0.155337096              -0.016127762               0.000000000              -0.178314623              -0.019219245               0.000000000              -0.201292150              -0.022310727               0.000000000              -0.224269676              -0.025402210               0.000000000              -0.247247203              -0.028493692               0.000000000              -0.270224730              -0.031585175               0.000000000              -0.293202257              -0.034676657               0.000000000              -0.316179784              -0.037768140               0.000000000              -0.339157311              -0.040859622               0.000000000              -0.362134838              -0.043951105               0.000000000              -0.385112365              -0.047042587               0.000000000              -0.408089892              -0.050134070               0.000000000              -0.431067419              -0.053225552               0.000000000              -0.454044946              -0.056317035               0.000000000              -0.477022473              -0.059408517               0.000000000              -0.500000000              -0.062500000               0.000000000              -0.130444442              -0.025947013               0.000000000              -0.153541665              -0.032137825               0.000000000              -0.176638887              -0.038328636               0.000000000              -0.199736109              -0.044519448               0.000000000              -0.222833332              -0.050710260               0.000000000              -0.245930554              -0.056901071               0.000000000              -0.269027776              -0.063091883               0.000000000              -0.292124999              -0.069282695               0.000000000              -0.315222221              -0.075473506               0.000000000              -0.338319444              -0.081664318               0.000000000              -0.361416666              -0.087855130               0.000000000              -0.384513888              -0.094045942               0.000000000              -0.407611111              -0.100236753               0.000000000              -0.430708333              -0.106427565               0.000000000              -0.453805555              -0.112618377               0.000000000              -0.476902778              -0.118809188               0.000000000              -0.500000000              -0.125000000               0.000000000              -0.127273065              -0.038607862               0.000000000              -0.150568498              -0.047913621               0.000000000              -0.173863932              -0.057219379               0.000000000              -0.197159365              -0.066525138               0.000000000              -0.220454798              -0.075830897               0.000000000              -0.243750232              -0.085136655               0.000000000              -0.267045665              -0.094442414               0.000000000              -0.290341099              -0.103748172               0.000000000              -0.313636532              -0.113053931               0.000000000              -0.336931966              -0.122359690               0.000000000              -0.360227399              -0.131665448               0.000000000              -0.383522833              -0.140971207               0.000000000              -0.406818266              -0.150276966               0.000000000              -0.430113700              -0.159582724               0.000000000              -0.453409133              -0.168888483               0.000000000              -0.476704567              -0.178194241               0.000000000              -0.500000000              -0.187500000               0.000000000              -0.122875978              -0.050896897               0.000000000              -0.146446229              -0.063340840               0.000000000              -0.170016481              -0.075784784               0.000000000              -0.193586732              -0.088228728               0.000000000              -0.217156983              -0.100672672               0.000000000              -0.240727235              -0.113116616               0.000000000              -0.264297486              -0.125560560               0.000000000              -0.287867738              -0.138004504               0.000000000              -0.311437989              -0.150448448               0.000000000              -0.335008240              -0.162892392               0.000000000              -0.358578492              -0.175336336               0.000000000              -0.382148743              -0.187780280               0.000000000              -0.405718994              -0.200224224               0.000000000              -0.429289246              -0.212668168               0.000000000              -0.452859497              -0.225112112               0.000000000              -0.476429749              -0.237556056               0.000000000              -0.500000000              -0.250000000               0.000000000              -0.117295528              -0.062695766               0.000000000              -0.141214558              -0.078308531               0.000000000              -0.165133587              -0.093921295               0.000000000              -0.189052617              -0.109534060               0.000000000              -0.212971646              -0.125146824               0.000000000              -0.236890676              -0.140759589               0.000000000              -0.260809705              -0.156372354               0.000000000              -0.284728735              -0.171985118               0.000000000              -0.308647764              -0.187597883               0.000000000              -0.332566794              -0.203210648               0.000000000              -0.356485823              -0.218823412               0.000000000              -0.380404853              -0.234436177               0.000000000              -0.404323882              -0.250048941               0.000000000              -0.428242912              -0.265661706               0.000000000              -0.452161941              -0.281274471               0.000000000              -0.476080971              -0.296887235               0.000000000              -0.500000000              -0.312500000               0.000000000              -0.110585458              -0.073890841               0.000000000              -0.134923867              -0.092710163               0.000000000              -0.159262276              -0.111529486               0.000000000              -0.183600685              -0.130348808               0.000000000              -0.207939094              -0.149168131               0.000000000              -0.232277503              -0.167987453               0.000000000              -0.256615912              -0.186806776               0.000000000              -0.280954320              -0.205626098               0.000000000              -0.305292729              -0.224445420               0.000000000              -0.329631138              -0.243264743               0.000000000              -0.353969547              -0.262084065               0.000000000              -0.378307956              -0.280903388               0.000000000              -0.402646365              -0.299722710               0.000000000              -0.426984773              -0.318542033               0.000000000              -0.451323182              -0.337361355               0.000000000              -0.475661591              -0.356180678               0.000000000              -0.500000000              -0.375000000               0.000000000              -0.102810390              -0.084374307               0.000000000              -0.127634741              -0.106444663               0.000000000              -0.152459092              -0.128515018               0.000000000              -0.177283442              -0.150585374               0.000000000              -0.202107793              -0.172655730               0.000000000              -0.226932143              -0.194726086               0.000000000              -0.251756494              -0.216796442               0.000000000              -0.276580845              -0.238866798               0.000000000              -0.301405195              -0.260937153               0.000000000              -0.326229546              -0.283007509               0.000000000              -0.351053896              -0.305077865               0.000000000              -0.375878247              -0.327148221               0.000000000              -0.400702598              -0.349218577               0.000000000              -0.425526948              -0.371288933               0.000000000              -0.450351299              -0.393359288               0.000000000              -0.475175649              -0.415429644               0.000000000              -0.500000000              -0.437500000               0.000000000              -0.094045202              -0.094045202               0.000000000              -0.119417377              -0.119417377               0.000000000              -0.144789552              -0.144789552               0.000000000              -0.170161727              -0.170161727               0.000000000              -0.195533901              -0.195533901               0.000000000              -0.220906076              -0.220906076               0.000000000              -0.246278251              -0.246278251               0.000000000              -0.271650426              -0.271650426               0.000000000              -0.297022601              -0.297022601               0.000000000              -0.322394776              -0.322394776               0.000000000              -0.347766951              -0.347766951               0.000000000              -0.373139126              -0.373139126               0.000000000              -0.398511300              -0.398511300               0.000000000              -0.423883475              -0.423883475               0.000000000              -0.449255650              -0.449255650               0.000000000              -0.474627825              -0.474627825               0.000000000              -0.500000000              -0.500000000               0.000000000              -0.084374307              -0.102810390               0.000000000              -0.106444663              -0.127634741               0.000000000              -0.128515018              -0.152459092               0.000000000              -0.150585374              -0.177283442               0.000000000              -0.172655730              -0.202107793               0.000000000              -0.194726086              -0.226932143               0.000000000              -0.216796442              -0.251756494               0.000000000              -0.238866798              -0.276580845               0.000000000              -0.260937153              -0.301405195               0.000000000              -0.283007509              -0.326229546               0.000000000              -0.305077865              -0.351053896               0.000000000              -0.327148221              -0.375878247               0.000000000              -0.349218577              -0.400702598               0.000000000              -0.371288933              -0.425526948               0.000000000              -0.393359288              -0.450351299               0.000000000              -0.415429644              -0.475175649               0.000000000              -0.437500000              -0.500000000               0.000000000              -0.073890841              -0.110585458               0.000000000              -0.092710163              -0.134923867               0.000000000              -0.111529486              -0.159262276               0.000000000              -0.130348808              -0.183600685               0.000000000              -0.149168131              -0.207939094               0.000000000              -0.167987453              -0.232277503               0.000000000              -0.186806776              -0.256615912               0.000000000              -0.205626098              -0.280954320               0.000000000              -0.224445420              -0.305292729               0.000000000              -0.243264743              -0.329631138               0.000000000              -0.262084065              -0.353969547               0.000000000              -0.280903388              -0.378307956               0.000000000              -0.299722710              -0.402646365               0.000000000              -0.318542033              -0.426984773               0.000000000              -0.337361355              -0.451323182               0.000000000              -0.356180678              -0.475661591               0.000000000              -0.375000000              -0.500000000               0.000000000              -0.062695766              -0.117295528               0.000000000              -0.078308531              -0.141214558               0.000000000              -0.093921295              -0.165133587               0.000000000              -0.109534060              -0.189052617               0.000000000              -0.125146824              -0.212971646               0.000000000              -0.140759589              -0.236890676               0.000000000              -0.156372354              -0.260809705               0.000000000              -0.171985118              -0.284728735               0.000000000              -0.187597883              -0.308647764               0.000000000              -0.203210648              -0.332566794               0.000000000              -0.218823412              -0.356485823               0.000000000              -0.234436177              -0.380404853               0.000000000              -0.250048941              -0.404323882               0.000000000              -0.265661706              -0.428242912               0.000000000              -0.281274471              -0.452161941               0.000000000              -0.296887235              -0.476080971               0.000000000              -0.312500000              -0.500000000               0.000000000              -0.050896897              -0.122875978               0.000000000              -0.063340840              -0.146446229               0.000000000              -0.075784784              -0.170016481               0.000000000              -0.088228728              -0.193586732               0.000000000              -0.100672672              -0.217156983               0.000000000              -0.113116616              -0.240727235               0.000000000              -0.125560560              -0.264297486               0.000000000              -0.138004504              -0.287867738               0.000000000              -0.150448448              -0.311437989               0.000000000              -0.162892392              -0.335008240               0.000000000              -0.175336336              -0.358578492               0.000000000              -0.187780280              -0.382148743               0.000000000              -0.200224224              -0.405718994               0.000000000              -0.212668168              -0.429289246               0.000000000              -0.225112112              -0.452859497               0.000000000              -0.237556056              -0.476429749               0.000000000              -0.250000000              -0.500000000               0.000000000              -0.038607862              -0.127273065               0.000000000              -0.047913621              -0.150568498               0.000000000              -0.057219379              -0.173863932               0.000000000              -0.066525138              -0.197159365               0.000000000              -0.075830897              -0.220454798               0.000000000              -0.085136655              -0.243750232               0.000000000              -0.094442414              -0.267045665               0.000000000              -0.103748172              -0.290341099               0.000000000              -0.113053931              -0.313636532               0.000000000              -0.122359690              -0.336931966               0.000000000              -0.131665448              -0.360227399               0.000000000              -0.140971207              -0.383522833               0.000000000              -0.150276966              -0.406818266               0.000000000              -0.159582724              -0.430113700               0.000000000              -0.168888483              -0.453409133               0.000000000              -0.178194241              -0.476704567               0.000000000              -0.187500000              -0.500000000               0.000000000              -0.025947013              -0.130444442               0.000000000              -0.032137825              -0.153541665               0.000000000              -0.038328636              -0.176638887               0.000000000              -0.044519448              -0.199736109               0.000000000              -0.050710260              -0.222833332               0.000000000              -0.056901071              -0.245930554               0.000000000              -0.063091883              -0.269027776               0.000000000              -0.069282695              -0.292124999               0.000000000              -0.075473506              -0.315222221               0.000000000              -0.081664318              -0.338319444               0.000000000              -0.087855130              -0.361416666               0.000000000              -0.094045942              -0.384513888               0.000000000              -0.100236753              -0.407611111               0.000000000              -0.106427565              -0.430708333               0.000000000              -0.112618377              -0.453805555               0.000000000              -0.118809188              -0.476902778               0.000000000              -0.125000000              -0.500000000               0.000000000              -0.013036280              -0.132359569               0.000000000              -0.016127762              -0.155337096               0.000000000              -0.019219245              -0.178314623               0.000000000              -0.022310727              -0.201292150               0.000000000              -0.025402210              -0.224269676               0.000000000              -0.028493692              -0.247247203               0.000000000              -0.031585175              -0.270224730               0.000000000              -0.034676657              -0.293202257               0.000000000              -0.037768140              -0.316179784               0.000000000              -0.040859622              -0.339157311               0.000000000              -0.043951105              -0.362134838               0.000000000              -0.047042587              -0.385112365               0.000000000              -0.050134070              -0.408089892               0.000000000              -0.053225552              -0.431067419               0.000000000              -0.056317035              -0.454044946               0.000000000              -0.059408517              -0.477022473               0.000000000              -0.062500000              -0.500000000               0.000000000               0.000000000              -0.133000000               0.000000000               0.000000000              -0.155937500               0.000000000               0.000000000              -0.178875000               0.000000000               0.000000000              -0.201812500               0.000000000               0.000000000              -0.224750000               0.000000000               0.000000000              -0.247687500               0.000000000               0.000000000              -0.270625000               0.000000000               0.000000000              -0.293562500               0.000000000               0.000000000              -0.316500000               0.000000000               0.000000000              -0.339437500               0.000000000               0.000000000              -0.362375000               0.000000000               0.000000000              -0.385312500               0.000000000               0.000000000              -0.408250000               0.000000000               0.000000000              -0.431187500               0.000000000               0.000000000              -0.454125000               0.000000000               0.000000000              -0.477062500               0.000000000               0.000000000              -0.500000000               0.000000000              -0.133000000               0.000000000               0.000000000              -0.155937500               0.000000000               0.000000000              -0.178875000               0.000000000               0.000000000              -0.201812500               0.000000000               0.000000000              -0.224750000               0.000000000               0.000000000              -0.247687500               0.000000000               0.000000000              -0.270625000               0.000000000               0.000000000              -0.293562500               0.000000000               0.000000000              -0.316500000               0.000000000               0.000000000              -0.339437500               0.000000000               0.000000000              -0.362375000               0.000000000               0.000000000              -0.385312500               0.000000000               0.000000000              -0.408250000               0.000000000               0.000000000              -0.431187500               0.000000000               0.000000000              -0.454125000               0.000000000               0.000000000              -0.477062500               0.000000000               0.000000000              -0.500000000               0.000000000               0.000000000              -0.132359569               0.013036280               0.000000000              -0.155337096               0.016127762               0.000000000              -0.178314623               0.019219245               0.000000000              -0.201292150               0.022310727               0.000000000              -0.224269676               0.025402210               0.000000000              -0.247247203               0.028493692               0.000000000              -0.270224730               0.031585175               0.000000000              -0.293202257               0.034676657               0.000000000              -0.316179784               0.037768140               0.000000000              -0.339157311               0.040859622               0.000000000              -0.362134838               0.043951105               0.000000000              -0.385112365               0.047042587               0.000000000              -0.408089892               0.050134070               0.000000000              -0.431067419               0.053225552               0.000000000              -0.454044946               0.056317035               0.000000000              -0.477022473               0.059408517               0.000000000              -0.500000000               0.062500000               0.000000000              -0.130444442               0.025947013               0.000000000              -0.153541665               0.032137825               0.000000000              -0.176638887               0.038328636               0.000000000              -0.199736109               0.044519448               0.000000000              -0.222833332               0.050710260               0.000000000              -0.245930554               0.056901071               0.000000000              -0.269027776               0.063091883               0.000000000              -0.292124999               0.069282695               0.000000000              -0.315222221               0.075473506               0.000000000              -0.338319444               0.081664318               0.000000000              -0.361416666               0.087855130               0.000000000              -0.384513888               0.094045942               0.000000000              -0.407611111               0.100236753               0.000000000              -0.430708333               0.106427565               0.000000000              -0.453805555               0.112618377               0.000000000              -0.476902778               0.118809188               0.000000000              -0.500000000               0.125000000               0.000000000              -0.127273065               0.038607862               0.000000000              -0.150568498               0.047913621               0.000000000              -0.173863932               0.057219379               0.000000000              -0.197159365               0.066525138               0.000000000              -0.220454798               0.075830897               0.000000000              -0.243750232               0.085136655               0.000000000              -0.267045665               0.094442414               0.000000000              -0.290341099               0.103748172               0.000000000              -0.313636532               0.113053931               0.000000000              -0.336931966               0.122359690               0.000000000              -0.360227399               0.131665448               0.000000000              -0.383522833               0.140971207               0.000000000              -0.406818266               0.150276966               0.000000000              -0.430113700               0.159582724               0.000000000              -0.453409133               0.168888483               0.000000000              -0.476704567               0.178194241               0.000000000              -0.500000000               0.187500000               0.000000000              -0.122875978               0.050896897               0.000000000              -0.146446229               0.063340840               0.000000000              -0.170016481               0.075784784               0.000000000              -0.193586732               0.088228728               0.000000000              -0.217156983               0.100672672               0.000000000              -0.240727235               0.113116616               0.000000000              -0.264297486               0.125560560               0.000000000              -0.287867738               0.138004504               0.000000000              -0.311437989               0.150448448               0.000000000              -0.335008240               0.162892392               0.000000000              -0.358578492               0.175336336               0.000000000              -0.382148743               0.187780280               0.000000000              -0.405718994               0.200224224               0.000000000              -0.429289246               0.212668168               0.000000000              -0.452859497               0.225112112               0.000000000              -0.476429749               0.237556056               0.000000000              -0.500000000               0.250000000               0.000000000              -0.117295528               0.062695766               0.000000000              -0.141214558               0.078308531               0.000000000              -0.165133587               0.093921295               0.000000000              -0.189052617               0.109534060               0.000000000              -0.212971646               0.125146824               0.000000000              -0.236890676               0.140759589               0.000000000              -0.260809705               0.156372354               0.000000000              -0.284728735               0.171985118               0.000000000              -0.308647764               0.187597883               0.000000000              -0.332566794               0.203210648               0.000000000              -0.356485823               0.218823412               0.000000000              -0.380404853               0.234436177               0.000000000              -0.404323882               0.250048941               0.000000000              -0.428242912               0.265661706               0.000000000              -0.452161941               0.281274471               0.000000000              -0.476080971               0.296887235               0.000000000              -0.500000000               0.312500000               0.000000000              -0.110585458               0.073890841               0.000000000              -0.134923867               0.092710163               0.000000000              -0.159262276               0.111529486               0.000000000              -0.183600685               0.130348808               0.000000000              -0.207939094               0.149168131               0.000000000              -0.232277503               0.167987453               0.000000000              -0.256615912               0.186806776               0.000000000              -0.280954320               0.205626098               0.000000000              -0.305292729               0.224445420               0.000000000              -0.329631138               0.243264743               0.000000000              -0.353969547               0.262084065               0.000000000              -0.378307956               0.280903388               0.000000000              -0.402646365               0.299722710               0.000000000              -0.426984773               0.318542033               0.000000000              -0.451323182               0.337361355               0.000000000              -0.475661591               0.356180678               0.000000000              -0.500000000               0.375000000               0.000000000              -0.102810390               0.084374307               0.000000000              -0.127634741               0.106444663               0.000000000              -0.152459092               0.128515018               0.000000000              -0.177283442               0.150585374               0.000000000              -0.202107793               0.172655730               0.000000000              -0.226932143               0.194726086               0.000000000              -0.251756494               0.216796442               0.000000000              -0.276580845               0.238866798               0.000000000              -0.301405195               0.260937153               0.000000000              -0.326229546               0.283007509               0.000000000              -0.351053896               0.305077865               0.000000000              -0.375878247               0.327148221               0.000000000              -0.400702598               0.349218577               0.000000000              -0.425526948               0.371288933               0.000000000              -0.450351299               0.393359288               0.000000000              -0.475175649               0.415429644               0.000000000              -0.500000000               0.437500000               0.000000000              -0.094045202               0.094045202               0.000000000              -0.119417377               0.119417377               0.000000000              -0.144789552               0.144789552               0.000000000              -0.170161727               0.170161727               0.000000000              -0.195533901               0.195533901               0.000000000              -0.220906076               0.220906076               0.000000000              -0.246278251               0.246278251               0.000000000              -0.271650426               0.271650426               0.000000000              -0.297022601               0.297022601               0.000000000              -0.322394776               0.322394776               0.000000000              -0.347766951               0.347766951               0.000000000              -0.373139126               0.373139126               0.000000000              -0.398511300               0.398511300               0.000000000              -0.423883475               0.423883475               0.000000000              -0.449255650               0.449255650               0.000000000              -0.474627825               0.474627825               0.000000000              -0.500000000               0.500000000               0.000000000              -0.084374307               0.102810390               0.000000000              -0.106444663               0.127634741               0.000000000              -0.128515018               0.152459092               0.000000000              -0.150585374               0.177283442               0.000000000              -0.172655730               0.202107793               0.000000000              -0.194726086               0.226932143               0.000000000              -0.216796442               0.251756494               0.000000000              -0.238866798               0.276580845               0.000000000              -0.260937153               0.301405195               0.000000000              -0.283007509               0.326229546               0.000000000              -0.305077865               0.351053896               0.000000000              -0.327148221               0.375878247               0.000000000              -0.349218577               0.400702598               0.000000000              -0.371288933               0.425526948               0.000000000              -0.393359288               0.450351299               0.000000000              -0.415429644               0.475175649               0.000000000              -0.437500000               0.500000000               0.000000000              -0.073890841               0.110585458               0.000000000              -0.092710163               0.134923867               0.000000000              -0.111529486               0.159262276               0.000000000              -0.130348808               0.183600685               0.000000000              -0.149168131               0.207939094               0.000000000              -0.167987453               0.232277503               0.000000000              -0.186806776               0.256615912               0.000000000              -0.205626098               0.280954320               0.000000000              -0.224445420               0.305292729               0.000000000              -0.243264743               0.329631138               0.000000000              -0.262084065               0.353969547               0.000000000              -0.280903388               0.378307956               0.000000000              -0.299722710               0.402646365               0.000000000              -0.318542033               0.426984773               0.000000000              -0.337361355               0.451323182               0.000000000              -0.356180678               0.475661591               0.000000000              -0.375000000               0.500000000               0.000000000              -0.062695766               0.117295528               0.000000000              -0.078308531               0.141214558               0.000000000              -0.093921295               0.165133587               0.000000000              -0.109534060               0.189052617               0.000000000              -0.125146824               0.212971646               0.000000000              -0.140759589               0.236890676               0.000000000              -0.156372354               0.260809705               0.000000000              -0.171985118               0.284728735               0.000000000              -0.187597883               0.308647764               0.000000000              -0.203210648               0.332566794               0.000000000              -0.218823412               0.356485823               0.000000000              -0.234436177               0.380404853               0.000000000              -0.250048941               0.404323882               0.000000000              -0.265661706               0.428242912               0.000000000              -0.281274471               0.452161941               0.000000000              -0.296887235               0.476080971               0.000000000              -0.312500000               0.500000000               0.000000000              -0.050896897               0.122875978               0.000000000              -0.063340840               0.146446229               0.000000000              -0.075784784               0.170016481               0.000000000              -0.088228728               0.193586732               0.000000000              -0.100672672               0.217156983               0.000000000              -0.113116616               0.240727235               0.000000000              -0.125560560               0.264297486               0.000000000              -0.138004504               0.287867738               0.000000000              -0.150448448               0.311437989               0.000000000              -0.162892392               0.335008240               0.000000000              -0.175336336               0.358578492               0.000000000              -0.187780280               0.382148743               0.000000000              -0.200224224               0.405718994               0.000000000              -0.212668168               0.429289246               0.000000000              -0.225112112               0.452859497               0.000000000              -0.237556056               0.476429749               0.000000000              -0.250000000               0.500000000               0.000000000              -0.038607862               0.127273065               0.000000000              -0.047913621               0.150568498               0.000000000              -0.057219379               0.173863932               0.000000000              -0.066525138               0.197159365               0.000000000              -0.075830897               0.220454798               0.000000000              -0.085136655               0.243750232               0.000000000              -0.094442414               0.267045665               0.000000000              -0.103748172               0.290341099               0.000000000              -0.113053931               0.313636532               0.000000000              -0.122359690               0.336931966               0.000000000              -0.131665448               0.360227399               0.000000000              -0.140971207               0.383522833               0.000000000              -0.150276966               0.406818266               0.000000000              -0.159582724               0.430113700               0.000000000              -0.168888483               0.453409133               0.000000000              -0.178194241               0.476704567               0.000000000              -0.187500000               0.500000000               0.000000000              -0.025947013               0.130444442               0.000000000              -0.032137825               0.153541665               0.000000000              -0.038328636               0.176638887               0.000000000              -0.044519448               0.199736109               0.000000000              -0.050710260               0.222833332               0.000000000              -0.056901071               0.245930554               0.000000000              -0.063091883               0.269027776               0.000000000              -0.069282695               0.292124999               0.000000000              -0.075473506               0.315222221               0.000000000              -0.081664318               0.338319444               0.000000000              -0.087855130               0.361416666               0.000000000              -0.094045942               0.384513888               0.000000000              -0.100236753               0.407611111               0.000000000              -0.106427565               0.430708333               0.000000000              -0.112618377               0.453805555               0.000000000              -0.118809188               0.476902778               0.000000000              -0.125000000               0.500000000               0.000000000              -0.013036280               0.132359569               0.000000000              -0.016127762               0.155337096               0.000000000              -0.019219245               0.178314623               0.000000000              -0.022310727               0.201292150               0.000000000              -0.025402210               0.224269676               0.000000000              -0.028493692               0.247247203               0.000000000              -0.031585175               0.270224730               0.000000000              -0.034676657               0.293202257               0.000000000              -0.037768140               0.316179784               0.000000000              -0.040859622               0.339157311               0.000000000              -0.043951105               0.362134838               0.000000000              -0.047042587               0.385112365               0.000000000              -0.050134070               0.408089892               0.000000000              -0.053225552               0.431067419               0.000000000              -0.056317035               0.454044946               0.000000000              -0.059408517               0.477022473               0.000000000              -0.062500000               0.500000000               0.000000000               0.000000000               0.133000000               0.000000000               0.000000000               0.155937500               0.000000000               0.000000000               0.178875000               0.000000000               0.000000000               0.201812500               0.000000000               0.000000000               0.224750000               0.000000000               0.000000000               0.247687500               0.000000000               0.000000000               0.270625000               0.000000000               0.000000000               0.293562500               0.000000000               0.000000000               0.316500000               0.000000000               0.000000000               0.339437500               0.000000000               0.000000000               0.362375000               0.000000000               0.000000000               0.385312500               0.000000000               0.000000000               0.408250000               0.000000000               0.000000000               0.431187500               0.000000000               0.000000000               0.454125000               0.000000000               0.000000000               0.477062500               0.000000000               0.000000000               0.500000000               0.000000000 </DataArray>
</Points>
<Cells>
<DataArray type="Int32"                                    Name="connectivity"                                                      NumberOfComponents=" 1" format="ascii">
         0          1         18         17          1          2         19         18          2          3         20         19          3          4         21         20          4          5         22         21          5          6         23         22          6          7         24         23          7          8         25         24          8          9         26         25          9         10         27         26         10         11         28         27         11         12         29         28         12         13         30         29         13         14         31         30         14         15         32         31         15         16         33         32         17         18         35         34         18         19         36         35         19         20         37         36         20         21         38         37         21         22         39         38         22         23         40         39         23         24         41         40         24         25         42         41         25         26         43         42         26         27         44         43         27         28         45         44         28         29         46         45         29         30         47         46         30         31         48         47         31         32         49         48         32         33         50         49         34         35         52         51         35         36         53         52         36         37         54         53         37         38         55         54         38         39         56         55         39         40         57         56         40         41         58         57         41         42         59         58         42         43         60         59         43         44         61         60         44         45         62         61         45         46         63         62         46         47         64         63         47         48         65         64         48         49         66         65         49         50         67         66         51         52         69         68         52         53         70         69         53         54         71         70         54         55         72         71         55         56         73         72         56         57         74         73         57         58         75         74         58         59         76         75         59         60         77         76         60         61         78         77         61         62         79         78         62         63         80         79         63         64         81         80         64         65         82         81         65         66         83         82         66         67         84         83         68         69         86         85         69         70         87         86         70         71         88         87         71         72         89         88         72         73         90         89         73         74         91         90         74         75         92         91         75         76         93         92         76         77         94         93         77         78         95         94         78         79         96         95         79         80         97         96         80         81         98         97         81         82         99         98         82         83        100         99         83         84        101        100         85         86        103        102         86         87        104        103         87         88        105        104         88         89        106        105         89         90        107        106         90         91        108        107         91         92        109        108         92         93        110        109         93         94        111        110         94         95        112        111         95         96        113        112         96         97        114        113         97         98        115        114         98         99        116        115         99        100        117        116        100        101        118        117        102        103        120        119        103        104        121        120        104        105        122        121        105        106        123        122        106        107        124        123        107        108        125        124        108        109        126        125        109        110        127        126        110        111        128        127        111        112        129        128        112        113        130        129        113        114        131        130        114        115        132        131        115        116        133        132        116        117        134        133        117        118        135        134        119        120        137        136        120        121        138        137        121        122        139        138        122        123        140        139        123        124        141        140        124        125        142        141        125        126        143        142        126        127        144        143        127        128        145        144        128        129        146        145        129        130        147        146        130        131        148        147        131        132        149        148        132        133        150        149        133        134        151        150        134        135        152        151        136        137        154        153        137        138        155        154        138        139        156        155        139        140        157        156        140        141        158        157        141        142        159        158        142        143        160        159        143        144        161        160        144        145        162        161        145        146        163        162        146        147        164        163        147        148        165        164        148        149        166        165        149        150        167        166        150        151        168        167        151        152        169        168        153        154        171        170        154        155        172        171        155        156        173        172        156        157        174        173        157        158        175        174        158        159        176        175        159        160        177        176        160        161        178        177        161        162        179        178        162        163        180        179        163        164        181        180        164        165        182        181        165        166        183        182        166        167        184        183        167        168        185        184        168        169        186        185        170        171        188        187        171        172        189        188        172        173        190        189        173        174        191        190        174        175        192        191        175        176        193        192        176        177        194        193        177        178        195        194        178        179        196        195        179        180        197        196        180        181        198        197        181        182        199        198        182        183        200        199        183        184        201        200        184        185        202        201        185        186        203        202        187        188        205        204        188        189        206        205        189        190        207        206        190        191        208        207        191        192        209        208        192        193        210        209        193        194        211        210        194        195        212        211        195        196        213        212        196        197        214        213        197        198        215        214        198        199        216        215        199        200        217        216        200        201        218        217        201        202        219        218        202        203        220        219        204        205        222        221        205        206        223        222        206        207        224        223        207        208        225        224        208        209        226        225        209        210        227        226        210        211        228        227        211        212        229        228        212        213        230        229        213        214        231        230        214        215        232        231        215        216        233        232        216        217        234        233        217        218        235        234        218        219        236        235        219        220        237        236        221        222        239        238        222        223        240        239        223        224        241        240        224        225        242        241        225        226        243        242        226        227        244        243        227        228        245        244        228        229        246        245        229        230        247        246        230        231        248        247        231        232        249        248        232        233        250        249        233        234        251        250        234        235        252        251        235        236        253        252        236        237        254        253        238        239        256        255        239        240        257        256        240        241        258        257        241        242        259        258        242        243        260        259        243        244        261        260        244        245        262        261        245        246        263        262        246        247        264        263        247        248        265        264        248        249        266        265        249        250        267        266        250        251        268        267        251        252        269        268        252        253        270        269        253        254        271        270        255        256        273        272        256        257        274        273        257        258        275        274        258        259        276        275        259        260        277        276        260        261        278        277        261        262        279        278        262        263        280        279        263        264        281        280        264        265        282        281        265        266        283        282        266        267        284        283        267        268        285        284        268        269        286        285        269        270        287        286        270        271        288        287        306        307          1          0        307        308          2          1        308        309          3          2        309        310          4          3        310        311          5          4        311        312          6          5        312        313          7          6        313        314          8          7        314        315          9          8        315        316         10          9        316        317         11         10        317        318         12         11        318        319         13         12        319        320         14         13        320        321         15         14        321        322         16         15        323        324        307        306        324        325        308        307        325        326        309        308        326        327        310        309        327        328        311        310        328        329        312        311        329        330        313        312        330        331        314        313        331        332        315        314        332        333        316        315        333        334        317        316        334        335        318        317        335        336        319        318        336        337        320        319        337        338        321        320        338        339        322        321        340        341        324        323        341        342        325        324        342        343        326        325        343        344        327        326        344        345        328        327        345        346        329        328        346        347        330        329        347        348        331        330        348        349        332        331        349        350        333        332        350        351        334        333        351        352        335        334        352        353        336        335        353        354        337        336        354        355        338        337        355        356        339        338        357        358        341        340        358        359        342        341        359        360        343        342        360        361        344        343        361        362        345        344        362        363        346        345        363        364        347        346        364        365        348        347        365        366        349        348        366        367        350        349        367        368        351        350        368        369        352        351        369        370        353        352        370        371        354        353        371        372        355        354        372        373        356        355        374        375        358        357        375        376        359        358        376        377        360        359        377        378        361        360        378        379        362        361        379        380        363        362        380        381        364        363        381        382        365        364        382        383        366        365        383        384        367        366        384        385        368        367        385        386        369        368        386        387        370        369        387        388        371        370        388        389        372        371        389        390        373        372        391        392        375        374        392        393        376        375        393        394        377        376        394        395        378        377        395        396        379        378        396        397        380        379        397        398        381        380        398        399        382        381        399        400        383        382        400        401        384        383        401        402        385        384        402        403        386        385        403        404        387        386        404        405        388        387        405        406        389        388        406        407        390        389        408        409        392        391        409        410        393        392        410        411        394        393        411        412        395        394        412        413        396        395        413        414        397        396        414        415        398        397        415        416        399        398        416        417        400        399        417        418        401        400        418        419        402        401        419        420        403        402        420        421        404        403        421        422        405        404        422        423        406        405        423        424        407        406        425        426        409        408        426        427        410        409        427        428        411        410        428        429        412        411        429        430        413        412        430        431        414        413        431        432        415        414        432        433        416        415        433        434        417        416        434        435        418        417        435        436        419        418        436        437        420        419        437        438        421        420        438        439        422        421        439        440        423        422        440        441        424        423        442        443        426        425        443        444        427        426        444        445        428        427        445        446        429        428        446        447        430        429        447        448        431        430        448        449        432        431        449        450        433        432        450        451        434        433        451        452        435        434        452        453        436        435        453        454        437        436        454        455        438        437        455        456        439        438        456        457        440        439        457        458        441        440        459        460        443        442        460        461        444        443        461        462        445        444        462        463        446        445        463        464        447        446        464        465        448        447        465        466        449        448        466        467        450        449        467        468        451        450        468        469        452        451        469        470        453        452        470        471        454        453        471        472        455        454        472        473        456        455        473        474        457        456        474        475        458        457        476        477        460        459        477        478        461        460        478        479        462        461        479        480        463        462        480        481        464        463        481        482        465        464        482        483        466        465        483        484        467        466        484        485        468        467        485        486        469        468        486        487        470        469        487        488        471        470        488        489        472        471        489        490        473        472        490        491        474        473        491        492        475        474        493        494        477        476        494        495        478        477        495        496        479        478        496        497        480        479        497        498        481        480        498        499        482        481        499        500        483        482        500        501        484        483        501        502        485        484        502        503        486        485        503        504        487        486        504        505        488        487        505        506        489        488        506        507        490        489        507        508        491        490        508        509        492        491        510        511        494        493        511        512        495        494        512        513        496        495        513        514        497        496        514        515        498        497        515        516        499        498        516        517        500        499        517        518        501        500        518        519        502        501        519        520        503        502        520        521        504        503        521        522        505        504        522        523        506        505        523        524        507        506        524        525        508        507        525        526        509        508        527        528        511        510        528        529        512        511        529        530        513        512        530        531        514        513        531        532        515        514        532        533        516        515        533        534        517        516        534        535        518        517        535        536        519        518        536        537        520        519        537        538        521        520        538        539        522        521        539        540        523        522        540        541        524        523        541        542        525        524        542        543        526        525        544        545        528        527        545        546        529        528        546        547        530        529        547        548        531        530        548        549        532        531        549        550        533        532        550        551        534        533        551        552        535        534        552        553        536        535        553        554        537        536        554        555        538        537        555        556        539        538        556        557        540        539        557        558        541        540        558        559        542        541        559        560        543        542        561        562        545        544        562        563        546        545        563        564        547        546        564        565        548        547        565        566        549        548        566        567        550        549        567        568        551        550        568        569        552        551        569        570        553        552        570        571        554        553        571        572        555        554        572        573        556        555        573        574        557        556        574        575        558        557        575        576        559        558        576        577        560        559        578        579        596        595        579        580        597        596        580        581        598        597        581        582        599        598        582        583        600        599        583        584        601        600        584        585        602        601        585        586        603        602        586        587        604        603        587        588        605        604        588        589        606        605        589        590        607        606        590        591        608        607        591        592        609        608        592        593        610        609        593        594        611        610        595        596        613        612        596        597        614        613        597        598        615        614        598        599        616        615        599        600        617        616        600        601        618        617        601        602        619        618        602        603        620        619        603        604        621        620        604        605        622        621        605        606        623        622        606        607        624        623        607        608        625        624        608        609        626        625        609        610        627        626        610        611        628        627        612        613        630        629        613        614        631        630        614        615        632        631        615        616        633        632        616        617        634        633        617        618        635        634        618        619        636        635        619        620        637        636        620        621        638        637        621        622        639        638        622        623        640        639        623        624        641        640        624        625        642        641        625        626        643        642        626        627        644        643        627        628        645        644        629        630        647        646        630        631        648        647        631        632        649        648        632        633        650        649        633        634        651        650        634        635        652        651        635        636        653        652        636        637        654        653        637        638        655        654        638        639        656        655        639        640        657        656        640        641        658        657        641        642        659        658        642        643        660        659        643        644        661        660        644        645        662        661        646        647        664        663        647        648        665        664        648        649        666        665        649        650        667        666        650        651        668        667        651        652        669        668        652        653        670        669        653        654        671        670        654        655        672        671        655        656        673        672        656        657        674        673        657        658        675        674        658        659        676        675        659        660        677        676        660        661        678        677        661        662        679        678        663        664        681        680        664        665        682        681        665        666        683        682        666        667        684        683        667        668        685        684        668        669        686        685        669        670        687        686        670        671        688        687        671        672        689        688        672        673        690        689        673        674        691        690        674        675        692        691        675        676        693        692        676        677        694        693        677        678        695        694        678        679        696        695        680        681        698        697        681        682        699        698        682        683        700        699        683        684        701        700        684        685        702        701        685        686        703        702        686        687        704        703        687        688        705        704        688        689        706        705        689        690        707        706        690        691        708        707        691        692        709        708        692        693        710        709        693        694        711        710        694        695        712        711        695        696        713        712        697        698        715        714        698        699        716        715        699        700        717        716        700        701        718        717        701        702        719        718        702        703        720        719        703        704        721        720        704        705        722        721        705        706        723        722        706        707        724        723        707        708        725        724        708        709        726        725        709        710        727        726        710        711        728        727        711        712        729        728        712        713        730        729        714        715        732        731        715        716        733        732        716        717        734        733        717        718        735        734        718        719        736        735        719        720        737        736        720        721        738        737        721        722        739        738        722        723        740        739        723        724        741        740        724        725        742        741        725        726        743        742        726        727        744        743        727        728        745        744        728        729        746        745        729        730        747        746        731        732        749        748        732        733        750        749        733        734        751        750        734        735        752        751        735        736        753        752        736        737        754        753        737        738        755        754        738        739        756        755        739        740        757        756        740        741        758        757        741        742        759        758        742        743        760        759        743        744        761        760        744        745        762        761        745        746        763        762        746        747        764        763        748        749        766        765        749        750        767        766        750        751        768        767        751        752        769        768        752        753        770        769        753        754        771        770        754        755        772        771        755        756        773        772        756        757        774        773        757        758        775        774        758        759        776        775        759        760        777        776        760        761        778        777        761        762        779        778        762        763        780        779        763        764        781        780        765        766        783        782        766        767        784        783        767        768        785        784        768        769        786        785        769        770        787        786        770        771        788        787        771        772        789        788        772        773        790        789        773        774        791        790        774        775        792        791        775        776        793        792        776        777        794        793        777        778        795        794        778        779        796        795        779        780        797        796        780        781        798        797        782        783        800        799        783        784        801        800        784        785        802        801        785        786        803        802        786        787        804        803        787        788        805        804        788        789        806        805        789        790        807        806        790        791        808        807        791        792        809        808        792        793        810        809        793        794        811        810        794        795        812        811        795        796        813        812        796        797        814        813        797        798        815        814        799        800        817        816        800        801        818        817        801        802        819        818        802        803        820        819        803        804        821        820        804        805        822        821        805        806        823        822        806        807        824        823        807        808        825        824        808        809        826        825        809        810        827        826        810        811        828        827        811        812        829        828        812        813        830        829        813        814        831        830        814        815        832        831        816        817        834        833        817        818        835        834        818        819        836        835        819        820        837        836        820        821        838        837        821        822        839        838        822        823        840        839        823        824        841        840        824        825        842        841        825        826        843        842        826        827        844        843        827        828        845        844        828        829        846        845        829        830        847        846        830        831        848        847        831        832        849        848        833        834        562        561        834        835        563        562        835        836        564        563        836        837        565        564        837        838        566        565        838        839        567        566        839        840        568        567        840        841        569        568        841        842        570        569        842        843        571        570        843        844        572        571        844        845        573        572        845        846        574        573        846        847        575        574        847        848        576        575        848        849        577        576        884        885        579        578        885        886        580        579        886        887        581        580        887        888        582        581        888        889        583        582        889        890        584        583        890        891        585        584        891        892        586        585        892        893        587        586        893        894        588        587        894        895        589        588        895        896        590        589        896        897        591        590        897        898        592        591        898        899        593        592        899        900        594        593        901        902        885        884        902        903        886        885        903        904        887        886        904        905        888        887        905        906        889        888        906        907        890        889        907        908        891        890        908        909        892        891        909        910        893        892        910        911        894        893        911        912        895        894        912        913        896        895        913        914        897        896        914        915        898        897        915        916        899        898        916        917        900        899        918        919        902        901        919        920        903        902        920        921        904        903        921        922        905        904        922        923        906        905        923        924        907        906        924        925        908        907        925        926        909        908        926        927        910        909        927        928        911        910        928        929        912        911        929        930        913        912        930        931        914        913        931        932        915        914        932        933        916        915        933        934        917        916        935        936        919        918        936        937        920        919        937        938        921        920        938        939        922        921        939        940        923        922        940        941        924        923        941        942        925        924        942        943        926        925        943        944        927        926        944        945        928        927        945        946        929        928        946        947        930        929        947        948        931        930        948        949        932        931        949        950        933        932        950        951        934        933        952        953        936        935        953        954        937        936        954        955        938        937        955        956        939        938        956        957        940        939        957        958        941        940        958        959        942        941        959        960        943        942        960        961        944        943        961        962        945        944        962        963        946        945        963        964        947        946        964        965        948        947        965        966        949        948        966        967        950        949        967        968        951        950        969        970        953        952        970        971        954        953        971        972        955        954        972        973        956        955        973        974        957        956        974        975        958        957        975        976        959        958        976        977        960        959        977        978        961        960        978        979        962        961        979        980        963        962        980        981        964        963        981        982        965        964        982        983        966        965        983        984        967        966        984        985        968        967        986        987        970        969        987        988        971        970        988        989        972        971        989        990        973        972        990        991        974        973        991        992        975        974        992        993        976        975        993        994        977        976        994        995        978        977        995        996        979        978        996        997        980        979        997        998        981        980        998        999        982        981        999       1000        983        982       1000       1001        984        983       1001       1002        985        984       1003       1004        987        986       1004       1005        988        987       1005       1006        989        988       1006       1007        990        989       1007       1008        991        990       1008       1009        992        991       1009       1010        993        992       1010       1011        994        993       1011       1012        995        994       1012       1013        996        995       1013       1014        997        996       1014       1015        998        997       1015       1016        999        998       1016       1017       1000        999       1017       1018       1001       1000       1018       1019       1002       1001       1020       1021       1004       1003       1021       1022       1005       1004       1022       1023       1006       1005       1023       1024       1007       1006       1024       1025       1008       1007       1025       1026       1009       1008       1026       1027       1010       1009       1027       1028       1011       1010       1028       1029       1012       1011       1029       1030       1013       1012       1030       1031       1014       1013       1031       1032       1015       1014       1032       1033       1016       1015       1033       1034       1017       1016       1034       1035       1018       1017       1035       1036       1019       1018       1037       1038       1021       1020       1038       1039       1022       1021       1039       1040       1023       1022       1040       1041       1024       1023       1041       1042       1025       1024       1042       1043       1026       1025       1043       1044       1027       1026       1044       1045       1028       1027       1045       1046       1029       1028       1046       1047       1030       1029       1047       1048       1031       1030       1048       1049       1032       1031       1049       1050       1033       1032       1050       1051       1034       1033       1051       1052       1035       1034       1052       1053       1036       1035       1054       1055       1038       1037       1055       1056       1039       1038       1056       1057       1040       1039       1057       1058       1041       1040       1058       1059       1042       1041       1059       1060       1043       1042       1060       1061       1044       1043       1061       1062       1045       1044       1062       1063       1046       1045       1063       1064       1047       1046       1064       1065       1048       1047       1065       1066       1049       1048       1066       1067       1050       1049       1067       1068       1051       1050       1068       1069       1052       1051       1069       1070       1053       1052       1071       1072       1055       1054       1072       1073       1056       1055       1073       1074       1057       1056       1074       1075       1058       1057       1075       1076       1059       1058       1076       1077       1060       1059       1077       1078       1061       1060       1078       1079       1062       1061       1079       1080       1063       1062       1080       1081       1064       1063       1081       1082       1065       1064       1082       1083       1066       1065       1083       1084       1067       1066       1084       1085       1068       1067       1085       1086       1069       1068       1086       1087       1070       1069       1088       1089       1072       1071       1089       1090       1073       1072       1090       1091       1074       1073       1091       1092       1075       1074       1092       1093       1076       1075       1093       1094       1077       1076       1094       1095       1078       1077       1095       1096       1079       1078       1096       1097       1080       1079       1097       1098       1081       1080       1098       1099       1082       1081       1099       1100       1083       1082       1100       1101       1084       1083       1101       1102       1085       1084       1102       1103       1086       1085       1103       1104       1087       1086       1105       1106       1089       1088       1106       1107       1090       1089       1107       1108       1091       1090       1108       1109       1092       1091       1109       1110       1093       1092       1110       1111       1094       1093       1111       1112       1095       1094       1112       1113       1096       1095       1113       1114       1097       1096       1114       1115       1098       1097       1115       1116       1099       1098       1116       1117       1100       1099       1117       1118       1101       1100       1118       1119       1102       1101       1119       1120       1103       1102       1120       1121       1104       1103       1122       1123       1106       1105       1123       1124       1107       1106       1124       1125       1108       1107       1125       1126       1109       1108       1126       1127       1110       1109       1127       1128       1111       1110       1128       1129       1112       1111       1129       1130       1113       1112       1130       1131       1114       1113       1131       1132       1115       1114       1132       1133       1116       1115       1133       1134       1117       1116       1134       1135       1118       1117       1135       1136       1119       1118       1136       1137       1120       1119       1137       1138       1121       1120        272        273       1123       1122        273        274       1124       1123        274        275       1125       1124        275        276       1126       1125        276        277       1127       1126        277        278       1128       1127        278        279       1129       1128        279        280       1130       1129        280        281       1131       1130        281        282       1132       1131        282        283       1133       1132        283        284       1134       1133        284        285       1135       1134        285        286       1136       1135        286        287       1137       1136        287        288       1138       1137 </DataArray>
<DataArray type="Int32"                                    Name="offsets"                                                      NumberOfComponents=" 1" format="ascii">
         4          8         12         16         20         24         28         32         36         40         44         48         52         56         60         64         68         72         76         80         84         88         92         96        100        104        108        112        116        120        124        128        132        136        140        144        148        152        156        160        164        168        172        176        180        184        188        192        196        200        204        208        212        216        220        224        228        232        236        240        244        248        252        256        260        264        268        272        276        280        284        288        292        296        300        304        308        312        316        320        324        328        332        336        340        344        348        352        356        360        364        368        372        376        380        384        388        392        396        400        404        408        412        416        420        424        428        432        436        440        444        448        452        456        460        464        468        472        476        480        484        488        492        496        500        504        508        512        516        520        524        528        532        536        540        544        548        552        556        560        564        568        572        576        580        584        588        592        596        600        604        608        612        616        620        624        628        632        636        640        644        648        652        656        660        664        668        672        676        680        684        688        692        696        700        704        708        712        716        720        724        728        732        736        740        744        748        752        756        760        764        768        772        776        780        784        788        792        796        800        804        808        812        816        820        824        828        832        836        840        844        848        852        856        860        864        868        872        876        880        884        888        892        896        900        904        908        912        916        920        924        928        932        936        940        944        948        952        956        960        964        968        972        976        980        984        988        992        996       1000       1004       1008       1012       1016       1020       1024       1028       1032       1036       1040       1044       1048       1052       1056       1060       1064       1068       1072       1076       1080       1084       1088       1092       1096       1100       1104       1108       1112       1116       1120       1124       1128       1132       1136       1140       1144       1148       1152       1156       1160       1164       1168       1172       1176       1180       1184       1188       1192       1196       1200       1204       1208       1212       1216       1220       1224       1228       1232       1236       1240       1244       1248       1252       1256       1260       1264       1268       1272       1276       1280       1284       1288       1292       1296       1300       1304       1308       1312       1316       1320       1324       1328       1332       1336       1340       1344       1348       1352       1356       1360       1364       1368       1372       1376       1380       1384       1388       1392       1396       1400       1404       1408       1412       1416       1420       1424       1428       1432       1436       1440       1444       1448       1452       1456       1460       1464       1468       1472       1476       1480       1484       1488       1492       1496       1500       1504       1508       1512       1516       1520       1524       1528       1532       1536       1540       1544       1548       1552       1556       1560       1564       1568       1572       1576       1580       1584       1588       1592       1596       1600       1604       1608       1612       1616       1620       1624       1628       1632       1636       1640       1644       1648       1652       1656       1660       1664       1668       1672       1676       1680       1684       1688       1692       1696       1700       1704       1708       1712       1716       1720       1724       1728       1732       1736       1740       1744       1748       1752       1756       1760       1764       1768       1772       1776       1780       1784       1788       1792       1796       1800       1804       1808       1812       1816       1820       1824       1828       1832       1836       1840       1844       1848       1852       1856       1860       1864       1868       1872       1876       1880       1884       1888       1892       1896       1900       1904       1908       1912       1916       1920       1924       1928       1932       1936       1940       1944       1948       1952       1956       1960       1964       1968       1972       1976       1980       1984       1988       1992       1996       2000       2004       2008       2012       2016       2020       2024       2028       2032       2036       2040       2044       2048       2052       2056       2060       2064       2068       2072       2076       2080       2084       2088       2092       2096       2100       2104       2108       2112       2116       2120       2124       2128       2132       2136       2140       2144       2148       2152       2156       2160       2164       2168       2172       2176       2180       2184       2188       2192       2196       2200       2204       2208       2212       2216       2220       2224       2228       2232       2236       2240       2244       2248       2252       2256       2260       2264       2268       2272       2276       2280       2284       2288       2292       2296       2300       2304       2308       2312       2316       2320       2324       2328       2332       2336       2340       2344       2348       2352       2356       2360       2364       2368       2372       2376       2380       2384       2388       2392       2396       2400       2404       2408       2412       2416       2420       2424       2428       2432       2436       2440       2444       2448       2452       2456       2460       2464       2468       2472       2476       2480       2484       2488       2492       2496       2500       2504       2508       2512       2516       2520       2524       2528       2532       2536       2540       2544       2548       2552       2556       2560       2564       2568       2572       2576       2580       2584       2588       2592       2596       2600       2604       2608       2612       2616       2620       2624       2628       2632       2636       2640       2644       2648       2652       2656       2660       2664       2668       2672       2676       2680       2684       2688       2692       2696       2700       2704       2708       2712       2716       2720       2724       2728       2732       2736       2740       2744       2748       2752       2756       2760       2764       2768       2772       2776       2780       2784       2788       2792       2796       2800       2804       2808       2812       2816       2820       2824       2828       2832       2836       2840       2844       2848       2852       2856       2860       2864       2868       2872       2876       2880       2884       2888       2892       2896       2900       2904       2908       2912       2916       2920       2924       2928       2932       2936       2940       2944       2948       2952       2956       2960       2964       2968       2972       2976       2980       2984       2988       2992       2996       3000       3004       3008       3012       3016       3020       3024       3028       3032       3036       3040       3044       3048       3052       3056       3060       3064       3068       3072       3076       3080       3084       3088       3092       3096       3100       3104       3108       3112       3116       3120       3124       3128       3132       3136       3140       3144       3148       3152       3156       3160       3164       3168       3172       3176       3180       3184       3188       3192       3196       3200       3204       3208       3212       3216       3220       3224       3228       3232       3236       3240       3244       3248       3252       3256       3260       3264       3268       3272       3276       3280       3284       3288       3292       3296       3300       3304       3308       3312       3316       3320       3324       3328       3332       3336       3340       3344       3348       3352       3356       3360       3364       3368       3372       3376       3380       3384       3388       3392       3396       3400       3404       3408       3412       3416       3420       3424       3428       3432       3436       3440       3444       3448       3452       3456       3460       3464       3468       3472       3476       3480       3484       3488       3492       3496       3500       3504       3508       3512       3516       3520       3524       3528       3532       3536       3540       3544       3548       3552       3556       3560       3564       3568       3572       3576       3580       3584       3588       3592       3596       3600       3604       3608       3612       3616       3620       3624       3628       3632       3636       3640       3644       3648       3652       3656       3660       3664       3668       3672       3676       3680       3684       3688       3692       3696       3700       3704       3708       3712       3716       3720       3724       3728       3732       3736       3740       3744       3748       3752       3756       3760       3764       3768       3772       3776       3780       3784       3788       3792       3796       3800       3804       3808       3812       3816       3820       3824       3828       3832       3836       3840       3844       3848       3852       3856       3860       3864       3868       3872       3876       3880       3884       3888       3892       3896       3900       3904       3908       3912       3916       3920       3924       3928       3932       3936       3940       3944       3948       3952       3956       3960       3964       3968       3972       3976       3980       3984       3988       3992       3996       4000       4004       4008       4012       4016       4020       4024       4028       4032       4036       4040       4044       4048       4052       4056       4060       4064       4068       4072       4076       4080       4084       4088       4092       4096 </DataArray>
<DataArray type="UInt8"                                    Name="types"                                                      NumberOfComponents=" 1" format="ascii">
         9          9          9          9          9          9          9          9          9          9          9          9          9          9          9          9          9          9          9          9          9          9          9          9          9          9          9          9          9          9          9          9          9          9          9          9          9          9          9          9          9          9          9          9          9          9          9          9          9          9          9          9          9          9          9          9          9          9          9          9          9          9          9          9          9          9          9          9          9          9          9          9          9          9          9          9          9          9          9          9          9          9          9          9          9          9          9          9          9          9          9          9          9          9          9          9          9          9          9          9          9          9          9          9          9          9          9          9          9          9          9          9          9          9          9          9          9          9          9          9          9          9          9          9          9          9          9          9          9          9          9          9          9          9          9          9          9          9          9          9          9          9          9          9          9          9          9          9          9          9          9          9          9          9          9          9          9          9          9          9          9          9          9          9          9          9          9          9          9          9          9          9          9          9          9          9          9          9          9          9          9          9          9          9          9          9          9          9          9          9          9          9          9          9          9          9          9          9          9          9          9          9          9          9          9          9          9          9          9          9          9          9          9          9          9          9          9          9          9          9          9          9          9          9          9          9          9          9          9          9          9          9          9          9          9          9          9          9          9          9          9          9          9          9          9          9          9          9          9          9          9          9          9          9          9          9          9          9          9          9          9          9          9          9          9          9          9          9          9          9          9          9          9          9          9          9          9          9          9          9          9          9          9          9          9          9          9          9          9          9          9          9          9          9          9          9          9          9          9          9          9          9          9          9          9          9          9          9          9          9          9          9          9          9          9          9          9          9          9          9          9          9          9          9          9          9          9          9          9          9          9          9          9          9          9          9          9          9          9          9          9          9          9          9          9          9          9          9          9          9          9          9          9          9          9          9          9          9          9          9          9          9          9          9          9          9          9          9          9          9          9          9          9          9          9          9          9          9          9          9          9          9          9          9          9          9          9          9          9          9          9          9          9          9          9          9          9          9          9          9          9          9          9          9          9          9          9          9          9          9          9          9          9          9          9          9          9          9          9          9          9          9          9          9          9          9          9          9          9          9          9          9          9          9          9          9          9          9          9          9          9          9          9          9          9          9          9          9          9          9          9          9          9          9          9          9          9          9          9          9          9          9          9          9          9          9          9          9          9          9          9          9          9          9          9          9          9          9          9          9          9          9          9          9          9          9          9          9          9          9          9          9          9          9          9          9          9          9          9          9          9          9          9          9          9          9          9          9          9          9          9          9          9          9          9          9          9          9          9          9          9          9          9          9          9          9          9          9          9          9          9          9          9          9          9          9          9          9          9          9          9          9          9          9          9          9          9          9          9          9          9          9          9          9          9          9          9          9          9          9          9          9          9          9          9          9          9          9          9          9          9          9          9          9          9          9          9          9          9          9          9          9          9          9          9          9          9          9          9          9          9          9          9          9          9          9          9          9          9          9          9          9          9          9          9          9          9          9          9          9          9          9          9          9          9          9          9          9          9          9          9          9          9          9          9          9          9          9          9          9          9          9          9          9          9          9          9          9          9          9          9          9          9          9          9          9          9          9          9          9          9          9          9          9          9          9          9          9          9          9          9          9          9          9          9          9          9          9          9          9          9          9          9          9          9          9          9          9          9          9          9          9          9          9          9          9          9          9          9          9          9          9          9          9          9          9          9          9          9          9          9          9          9          9          9          9          9          9          9          9          9          9          9          9          9          9          9          9          9          9          9          9          9          9          9          9          9          9          9          9          9          9          9          9          9          9          9          9          9          9          9          9          9          9          9          9          9          9          9          9          9          9          9          9          9          9          9          9          9          9          9          9          9          9          9          9          9          9          9          9          9          9          9          9          9          9          9          9          9          9          9          9          9          9          9          9          9          9          9          9          9          9          9          9          9          9          9          9          9          9          9          9          9          9          9          9          9          9          9          9          9          9          9          9          9          9          9          9          9          9          9          9          9          9          9          9          9          9          9          9          9          9          9          9          9          9          9          9          9          9          9          9          9          9          9          9          9          9          9          9          9          9          9          9          9          9          9          9          9          9          9          9          9          9          9          9          9          9          9          9          9          9          9          9          9          9          9          9          9          9          9          9          9          9          9          9          9          9          9          9          9          9          9          9          9          9          9          9          9          9          9          9          9          9          9          9          9          9          9          9          9          9          9          9          9          9          9          9          9          9          9          9          9          9          9          9          9          9          9          9          9          9          9          9          9          9          9          9          9          9          9          9          9          9          9          9          9          9          9          9          9          9          9          9          9          9          9          9          9          9          9          9          9          9          9          9          9          9          9          9          9          9          9          9          9          9          9          9          9          9          9          9          9          9          9          9          9          9          9          9          9          9          9          9          9          9          9          9          9          9          9          9          9          9          9          9          9          9          9          9          9          9          9          9          9          9          9          9          9          9          9          9          9          9 </DataArray>
</Cells>
<CellData>
<DataArray type="Int32"                                    Name="material"                                                      NumberOfComponents=" 1" format="ascii">
         1          1          1          1          1          1          1          1          1          1          1          1          1          1          1          1          1          1          1          1          1          1          1          1          1          1          1          1          1          1          1          1          1          1          1          1          1          1          1          1          1          1          1          1          1          1          1          1          1          1          1          1          1          1          1          1          1          1          1          1          1          1          1          1          1          1          1          1          1          1          1          1          1          1          1          1          1          1          1          1          1          1          1          1          1          1          1          1          1          1          1          1          1          1          1          1          1          1          1          1          1          1          1          1          1          1          1          1          1          1          1          1          1          1          1          1          1          1          1          1          1          1          1          1          1          1          1          1          1          1          1          1          1          1          1          1          1          1          1          1          1          1          1          1          1          1          1          1          1          1          1          1          1          1          1          1          1          1          1          1          1          1          1          1          1          1          1          1          1          1          1          1          1          1          1          1          1          1          1          1          1          1          1          1          1          1          1          1          1          1          1          1          1          1          1          1          1          1          1          1          1          1          1          1          1          1          1          1          1          1          1          1          1          1          1          1          1          1          1          1          1          1          1          1          1          1          1          1          1          1          1          1          1          1          1          1          1          1          1          1          1          1          1          1          1          1          1          1          1          1          1          1          1          1          1          1          1          1          1          1          1          1          1          1          1          1          1          1          1          1          1          1          1          1          1          1          1          1          1          1          1          1          1          1          1          1          1          1          1          1          1          1          1          1          1          1          1          1          1          1          1          1          1          1          1          1          1          1          1          1          1          1          1          1          1          1          1          1          1          1          1          1          1          1          1          1          1          1          1          1          1          1          1          1          1          1          1          1          1          1          1          1          1          1          1          1          1          1          1          1          1          1          1          1          1          1          1          1          1          1          1          1          1          1          1          1          1          1          1          1          1          1          1          1          1          1          1          1          1          1          1          1          1          1          1          1          1          1          1          1          1          1          1          1          1          1          1          1          1          1          1          1          1          1          1          1          1          1          1          1          1          1          1          1          1          1          1          1          1          1          1          1          1          1          1          1          1          1          1          1          1          1          1          1          1          1          1          1          1          1          1          1          1          1          1          1          1          1          1          1          1          1          1          1          1          1          1          1          1          1          1          1          1          1          1          1          1          1          1          1          1          1          1          1          1          1          1          1          1          1          1          1          1          1          1          1          1          1          1          1          1          1          1          1          1          1          1          1          1          1          1          1          1          1          1          1          1          1          1          1          1          1          1          1          1          1          1          1          1          1          1          1          1          1          1          1          1          1          1          1          1          1          1          1          1          1          1          1          1          1          1          1          1          1          1          1          1          1          1          1          1          1          1          1          1          1          1          1          1          1          1          1          1          1          1          1          1          1          1          1          1          1          1          1          1          1          1          1          1          1          1          1          1          1          1          1          1          1          1          1          1          1          1          1          1          1          1          1          1          1          1          1          1          1          1          1          1          1          1          1          1          1          1          1          1          1          1          1          1          1          1          1          1          1          1          1          1          1          1          1          1          1          1          1          1          1          1          1          1          1          1          1          1          1          1          1          1          1          1          1          1          1          1          1          1          1          1          1          1          1          1          1          1          1          1          1          1          1          1          1          1          1          1          1          1          1          1          1          1          1          1          1          1          1          1          1          1          1          1          1          1          1          1          1          1          1          1          1          1          1          1          1          1          1          1          1          1          1          1          1          1          1          1          1          1          1          1          1          1          1          1          1          1          1          1          1          1          1          1          1          1          1          1          1          1          1          1          1          1          1          1          1          1          1          1          1          1          1          1          1          1          1          1          1          1          1          1          1          1          1          1          1          1          1          1          1          1          1          1          1          1          1          1          1          1          1          1          1          1          1          1          1          1          1          1          1          1          1          1          1          1          1          1          1          1          1          1          1          1          1          1          1          1          1          1          1          1          1          1          1          1          1          1          1          1          1          1          1          1          1          1          1          1          1          1          1          1          1          1          1          1          1          1          1          1          1          1          1          1          1          1          1          1          1          1          1          1          1          1          1          1          1          1          1          1          1          1          1          1          1          1          1          1          1          1          1          1          1          1          1          1          1          1          1          1          1          1          1          1          1          1          1          1          1          1          1          1          1          1          1          1          1          1          1          1          1          1          1          1          1          1          1          1          1          1          1          1          1          1          1          1          1          1          1          1          1          1          1          1          1          1          1          1          1          1          1          1          1          1          1          1          1          1          1          1          1          1          1          1          1          1          1          1          1          1          1          1          1          1          1          1          1          1          1          1          1          1          1          1          1          1          1          1          1          1          1          1          1          1          1          1          1          1          1          1          1          1          1          1          1          1          1          1          1          1          1          1          1          1          1          1          1          1          1          1          1          1          1          1          1          1          1          1          1          1          1          1          1          1          1          1          1          1          1          1          1          1          1          1          1          1          1          1          1 </DataArray>
</CellData>
<PointData>
<DataArray type="Float64"                                    Name="u"                                                      NumberOfComponents=" 3" format="ascii">
             -0.000888669               0.000000000               0.999999985              -0.000939033               0.000000000               0.999999985              -0.000960486               0.000000000               0.999999985              -0.000972683               0.000000000               0.999999985              -0.000982891               0.000000000               0.999999985              -0.000993556               0.000000000               0.999999985              -0.001005470              -0.000000000               0.999999985              -0.001018471              -0.000000000               0.999999985              -0.001032196              -0.000000000               0.999999985              -0.001046121              -0.000000000               0.999999985              -0.001059772              -0.000000000               0.999999985              -0.001072802               0.000000000               0.999999985              -0.001084949              -0.000000000               0.999999985              -0.001095930               0.000000000               0.999999985              -0.001105270              -0.000000000               0.999999985              -0.001112320              -0.000000000               0.999999985              -0.001116216              -0.000000000               0.999999985              -0.000883694               0.000131456               0.999999985              -0.000929763               0.000104540               0.999999985              -0.000948508               0.000092287               0.999999985              -0.000958942               0.000087475               0.999999985              -0.000967833               0.000086357               0.999999985              -0.000977488               0.000086933               0.999999985              -0.000988419               0.000087914               0.999999985              -0.001000347               0.000088633               0.999999985              -0.001012781               0.000088381               0.999999985              -0.001025223               0.000086954               0.999999985              -0.001037227               0.000084115               0.999999985              -0.001048450               0.000079648               0.999999985              -0.001058575               0.000073473               0.999999985              -0.001067280               0.000065004               0.999999985              -0.001074180               0.000053468               0.999999985              -0.001078718               0.000037882               0.999999985              -0.001080327               0.000016979               0.999999985              -0.000868791               0.000261758               0.999999985              -0.000902515               0.000208662               0.999999985              -0.000913651               0.000185610               0.999999985              -0.000919329               0.000177005               0.999999985              -0.000924964               0.000175499               0.999999985              -0.000931904               0.000177018               0.999999985              -0.000940052               0.000179410               0.999999985              -0.000948976               0.000180870               0.999999985              -0.000958065               0.000180690               0.999999985              -0.000966780               0.000178059               0.999999985              -0.000974565               0.000172648               0.999999985              -0.000981116               0.000164180               0.999999985              -0.000986144               0.000152529               0.999999985              -0.000989253               0.000136891               0.999999985              -0.000990167               0.000115776               0.999999985              -0.000988621               0.000088296               0.999999985              -0.000984434               0.000053097               0.999999985              -0.000844187               0.000389718               0.999999985              -0.000858607               0.000312259               0.999999985              -0.000858849               0.000280723               0.999999985              -0.000858198               0.000270155               0.999999985              -0.000859604               0.000269364               0.999999985              -0.000862992               0.000272550               0.999999985              -0.000867628               0.000276466               0.999999985              -0.000872597               0.000279148               0.999999985              -0.000877134               0.000279115               0.999999985              -0.000880440               0.000275544               0.999999985              -0.000882223               0.000268093               0.999999985              -0.000882218               0.000256595               0.999999985              -0.000880093               0.000240769               0.999999985              -0.000875585               0.000219677               0.999999985              -0.000868341               0.000192243               0.999999985              -0.000858438               0.000157987               0.999999985              -0.000846273               0.000116166               0.999999985              -0.000810678               0.000514059               0.999999985              -0.000800402               0.000415264               0.999999985              -0.000788383               0.000378185               0.999999985              -0.000781372               0.000367695               0.999999985              -0.000778787               0.000368761               0.999999985              -0.000778947               0.000374104               0.999999985              -0.000780031               0.000379896               0.999999985              -0.000780746               0.000383648               0.999999985              -0.000779997               0.000383796               0.999999985              -0.000777249               0.000379349               0.999999985              -0.000772067               0.000370386               0.999999985              -0.000764248               0.000356708               0.999999985              -0.000753609               0.000338013               0.999999985              -0.000739904               0.000313490               0.999999985              -0.000723276               0.000282755               0.999999985              -0.000704142               0.000245976               0.999999985              -0.000683133               0.000203452               0.999999985              -0.000768915               0.000633756               0.999999985              -0.000730958               0.000517621               0.999999985              -0.000707564               0.000477991               0.999999985              -0.000695611               0.000469287               0.999999985              -0.000690290               0.000472966               0.999999985              -0.000687853               0.000480852               0.999999985              -0.000685748               0.000488290               0.999999985              -0.000682152               0.000492864               0.999999985              -0.000675882               0.000492879               0.999999985              -0.000666379               0.000487787               0.999999985              -0.000653328               0.000477523               0.999999985              -0.000636760               0.000462381               0.999999985              -0.000616709               0.000441805               0.999999985              -0.000593121               0.000415390               0.999999985              -0.000566580               0.000383698               0.999999985              -0.000537804               0.000347442               0.999999985              -0.000507613               0.000307606               0.999999985              -0.000719691               0.000747761               0.999999985              -0.000653598               0.000619415               0.999999985              -0.000621492               0.000579811               0.999999985              -0.000607085               0.000573798               0.999999985              -0.000600673               0.000580360               0.999999985              -0.000596632               0.000590474               0.999999985              -0.000591588               0.000599253               0.999999985              -0.000583405               0.000604205               0.999999985              -0.000571018               0.000603975               0.999999985              -0.000554011               0.000598176               0.999999985              -0.000532355               0.000586936               0.999999985              -0.000506200               0.000570541               0.999999985              -0.000475877               0.000548761               0.999999985              -0.000441904               0.000521673               0.999999985              -0.000405198               0.000490396               0.999999985              -0.000366652               0.000456065               0.999999985              -0.000327089               0.000419971               0.999999985              -0.000663972               0.000854870               0.999999985              -0.000571928               0.000720522               0.999999985              -0.000535007               0.000682731               0.999999985              -0.000520998               0.000679470               0.999999985              -0.000514951               0.000688616               0.999999985              -0.000509799               0.000700527               0.999999985              -0.000501618               0.000710240               0.999999985              -0.000488359               0.000715203               0.999999985              -0.000468991               0.000714404               0.999999985              -0.000443529               0.000707930               0.999999985              -0.000412303               0.000695667               0.999999985              -0.000375708               0.000678072               0.999999985              -0.000334566               0.000655468               0.999999985              -0.000289886               0.000628393               0.999999985              -0.000242692               0.000598367               0.999999985              -0.000193940               0.000566643               0.999999985              -0.000144348               0.000534114               0.999999985              -0.000603361               0.000953199               0.999999985              -0.000488752               0.000820941               0.999999985              -0.000452540               0.000785218               0.999999985              -0.000441048               0.000784158               0.999999985              -0.000436241               0.000795319               0.999999985              -0.000429856               0.000808587               0.999999985              -0.000417983               0.000818873               0.999999985              -0.000398467               0.000823685               0.999999985              -0.000370947               0.000822312               0.999999985              -0.000335915               0.000814891               0.999999985              -0.000294070               0.000801561               0.999999985              -0.000246134               0.000782960               0.999999985              -0.000193450               0.000759771               0.999999985              -0.000137231               0.000733465               0.999999985              -0.000078564               0.000705765               0.999999985              -0.000018796               0.000677771               0.999999985               0.000041133               0.000649810               0.999999985              -0.000540655               0.001046408               0.999999985              -0.000418999               0.000933599               0.999999985              -0.000380071               0.000894010               0.999999985              -0.000368093               0.000887981               0.999999985              -0.000364038               0.000896243               0.999999985              -0.000359753               0.000909232               0.999999985              -0.000351050               0.000921995               0.999999985              -0.000335542               0.000931537               0.999999985              -0.000312545               0.000936623               0.999999985              -0.000282242               0.000936848               0.999999985              -0.000245177               0.000932223               0.999999985              -0.000201847               0.000922915               0.999999985              -0.000152804               0.000909438               0.999999985              -0.000098776               0.000892767               0.999999985              -0.000040971               0.000874176               0.999999985               0.000018964               0.000854631               0.999999985               0.000079432               0.000835306               0.999999985              -0.000472494               0.001131403               0.999999985              -0.000352019               0.001042740               0.999999985              -0.000310566               0.001005813               0.999999985              -0.000297133               0.000997224               0.999999985              -0.000293037               0.001003464               0.999999985              -0.000289946               0.001016446               0.999999985              -0.000283669               0.001031285               0.999999985              -0.000271737               0.001045105               0.999999985              -0.000253102               0.001056101               0.999999985              -0.000227660               0.001063340               0.999999985              -0.000195490               0.001066634               0.999999985              -0.000156822               0.001066007               0.999999985              -0.000112015               0.001061606               0.999999985              -0.000061290               0.001053950               0.999999985              -0.000005235               0.001043956               0.999999985               0.000054526               0.001032749               0.999999985               0.000116233               0.001021470               0.999999985              -0.000400111               0.001206197               0.999999985              -0.000287829               0.001145108               0.999999985              -0.000245788               0.001115435               0.999999985              -0.000230729               0.001107688               0.999999985              -0.000225795               0.001113521               0.999999985              -0.000223144               0.001126992               0.999999985              -0.000218474               0.001144026               0.999999985              -0.000209574               0.001161788               0.999999985              -0.000195070               0.001178273               0.999999985              -0.000174334               0.001192267               0.999999985              -0.000147109               0.001203208               0.999999985              -0.000113490               0.001210943               0.999999985              -0.000073548               0.001215400               0.999999985              -0.000027139               0.001216706               0.999999985               0.000025912               0.001215324               0.999999985               0.000084983               0.001212251               0.999999985               0.000148325               0.001208747               0.999999985              -0.000324250               0.001269318               0.999999985              -0.000226581               0.001236329               0.999999985              -0.000186666               0.001217304               0.999999985              -0.000170899               0.001213297               0.999999985              -0.000165016               0.001220623               0.999999985              -0.000162158               0.001235589               0.999999985              -0.000158633               0.001255106               0.999999985              -0.000152024               0.001276692               0.999999985              -0.000141000               0.001298494               0.999999985              -0.000124709               0.001319163               0.999999985              -0.000102708               0.001337726               0.999999985              -0.000074629               0.001353751               0.999999985              -0.000040359               0.001367145               0.999999985               0.000000543               0.001377646               0.999999985               0.000048947               0.001385543               0.999999985               0.000105307               0.001391226               0.999999985               0.000169239               0.001395706               0.999999985              -0.000245607               0.001319737               0.999999985              -0.000167783               0.001312376               0.999999985              -0.000133464               0.001305324               0.999999985              -0.000118652               0.001306959               0.999999985              -0.000112383               0.001317323               0.999999985              -0.000109441               0.001334646               0.999999985              -0.000106590               0.001356965               0.999999985              -0.000101667               0.001382289               0.999999985              -0.000093586               0.001409025               0.999999985              -0.000081657               0.001435869               0.999999985              -0.000065152               0.001461672               0.999999985              -0.000043411               0.001485737               0.999999985              -0.000016117               0.001507785               0.999999985               0.000017554               0.001527602               0.999999985               0.000058617               0.001545118               0.999999985               0.000108522               0.001560254               0.999999985               0.000168332               0.001573335               0.999999985              -0.000164920               0.001356469               0.999999985              -0.000110873               0.001369552               0.999999985              -0.000085605               0.001373529               0.999999985              -0.000073902               0.001381131               0.999999985              -0.000068537               0.001394970               0.999999985              -0.000065918               0.001414970               0.999999985              -0.000063751               0.001439902               0.999999985              -0.000060395               0.001468374               0.999999985              -0.000055085               0.001499064               0.999999985              -0.000047371               0.001530821               0.999999985              -0.000036520               0.001562778               0.999999985              -0.000021737               0.001594118               0.999999985              -0.000002614               0.001624211               0.999999985               0.000021656               0.001652785               0.999999985               0.000052030               0.001679408               0.999999985               0.000090045               0.001703659               0.999999985               0.000137982               0.001725221               0.999999985              -0.000082835               0.001378776               0.999999985              -0.000055166               0.001405082               0.999999985              -0.000041724               0.001416823               0.999999985              -0.000035230               0.001428915               0.999999985              -0.000032126               0.001445500               0.999999985              -0.000030548               0.001467485               0.999999985              -0.000029400               0.001494301               0.999999985              -0.000027665               0.001524882               0.999999985              -0.000025107               0.001558129               0.999999985              -0.000021198               0.001593072               0.999999985              -0.000015843               0.001629108               0.999999985              -0.000008453               0.001665557               0.999999985               0.000001437               0.001701679               0.999999985               0.000014123               0.001736907               0.999999985               0.000030385               0.001770489               0.999999985               0.000051287               0.001801721               0.999999985               0.000078348               0.001829808               0.999999985              -0.000000000               0.001386223               0.999999985               0.000000000               0.001417127               0.999999985              -0.000000000               0.001431658               0.999999985               0.000000000               0.001445367               0.999999985               0.000000000               0.001463014               0.999999985               0.000000000               0.001485713               0.999999985              -0.000000000               0.001513256               0.999999985              -0.000000000               0.001544747               0.999999985              -0.000000000               0.001578925               0.999999985              -0.000000000               0.001614980               0.999999985              -0.000000000               0.001652371               0.999999985               0.000000000               0.001690566               0.999999985              -0.000000000               0.001728932               0.999999985               0.000000000               0.001766618               0.999999985               0.000000000               0.001802765               0.999999985               0.000000000               0.001836719               0.999999985               0.000000000               0.001867419               0.999999985              -0.000888669               0.000000000               0.999999985              -0.000939033               0.000000000               0.999999985              -0.000960486               0.000000000               0.999999985              -0.000972683               0.000000000               0.999999985              -0.000982891               0.000000000               0.999999985              -0.000993556               0.000000000               0.999999985              -0.001005470              -0.000000000               0.999999985              -0.001018471              -0.000000000               0.999999985              -0.001032196              -0.000000000               0.999999985              -0.001046121              -0.000000000               0.999999985              -0.001059772              -0.000000000               0.999999985              -0.001072802               0.000000000               0.999999985              -0.001084949              -0.000000000               0.999999985              -0.001095930               0.000000000               0.999999985              -0.001105270              -0.000000000               0.999999985              -0.001112320              -0.000000000               0.999999985              -0.001116216              -0.000000000               0.999999985              -0.000883694              -0.000131456               0.999999985              -0.000929763              -0.000104540               0.999999985              -0.000948508              -0.000092287               0.999999985              -0.000958942              -0.000087475               0.999999985              -0.000967833              -0.000086357               0.999999985              -0.000977488              -0.000086933               0.999999985              -0.000988419              -0.000087914               0.999999985              -0.001000347              -0.000088633               0.999999985              -0.001012781              -0.000088381               0.999999985              -0.001025223              -0.000086954               0.999999985              -0.001037227              -0.000084115               0.999999985              -0.001048450              -0.000079648               0.999999985              -0.001058575              -0.000073473               0.999999985              -0.001067280              -0.000065004               0.999999985              -0.001074180              -0.000053468               0.999999985              -0.001078718              -0.000037882               0.999999985              -0.001080327              -0.000016979               0.999999985              -0.000868791              -0.000261758               0.999999985              -0.000902515              -0.000208662               0.999999985              -0.000913651              -0.000185610               0.999999985              -0.000919329              -0.000177005               0.999999985              -0.000924964              -0.000175499               0.999999985              -0.000931904              -0.000177018               0.999999985              -0.000940052              -0.000179410               0.999999985              -0.000948976              -0.000180870               0.999999985              -0.000958065              -0.000180690               0.999999985              -0.000966780              -0.000178059               0.999999985              -0.000974565              -0.000172648               0.999999985              -0.000981116              -0.000164180               0.999999985              -0.000986144              -0.000152529               0.999999985              -0.000989253              -0.000136891               0.999999985              -0.000990167              -0.000115776               0.999999985              -0.000988621              -0.000088296               0.999999985              -0.000984434              -0.000053097               0.999999985              -0.000844187              -0.000389718               0.999999985              -0.000858607              -0.000312259               0.999999985              -0.000858849              -0.000280723               0.999999985              -0.000858198              -0.000270155               0.999999985              -0.000859604              -0.000269364               0.999999985              -0.000862992              -0.000272550               0.999999985              -0.000867628              -0.000276466               0.999999985              -0.000872597              -0.000279148               0.999999985              -0.000877134              -0.000279115               0.999999985              -0.000880440              -0.000275544               0.999999985              -0.000882223              -0.000268093               0.999999985              -0.000882218              -0.000256595               0.999999985              -0.000880093              -0.000240769               0.999999985              -0.000875585              -0.000219677               0.999999985              -0.000868341              -0.000192243               0.999999985              -0.000858438              -0.000157987               0.999999985              -0.000846273              -0.000116166               0.999999985              -0.000810678              -0.000514059               0.999999985              -0.000800402              -0.000415264               0.999999985              -0.000788383              -0.000378185               0.999999985              -0.000781372              -0.000367695               0.999999985              -0.000778787              -0.000368761               0.999999985              -0.000778947              -0.000374104               0.999999985              -0.000780031              -0.000379896               0.999999985              -0.000780746              -0.000383648               0.999999985              -0.000779997              -0.000383796               0.999999985              -0.000777249              -0.000379349               0.999999985              -0.000772067              -0.000370386               0.999999985              -0.000764248              -0.000356708               0.999999985              -0.000753609              -0.000338013               0.999999985              -0.000739904              -0.000313490               0.999999985              -0.000723276              -0.000282755               0.999999985              -0.000704142              -0.000245976               0.999999985              -0.000683133              -0.000203452               0.999999985              -0.000768915              -0.000633756               0.999999985              -0.000730958              -0.000517621               0.999999985              -0.000707564              -0.000477991               0.999999985              -0.000695611              -0.000469287               0.999999985              -0.000690290              -0.000472966               0.999999985              -0.000687853              -0.000480852               0.999999985              -0.000685748              -0.000488290               0.999999985              -0.000682152              -0.000492864               0.999999985              -0.000675882              -0.000492879               0.999999985              -0.000666379              -0.000487787               0.999999985              -0.000653328              -0.000477523               0.999999985              -0.000636760              -0.000462381               0.999999985              -0.000616709              -0.000441805               0.999999985              -0.000593121              -0.000415390               0.999999985              -0.000566580              -0.000383698               0.999999985              -0.000537804              -0.000347442               0.999999985              -0.000507613              -0.000307606               0.999999985              -0.000719691              -0.000747761               0.999999985              -0.000653598              -0.000619415               0.999999985              -0.000621492              -0.000579811               0.999999985              -0.000607085              -0.000573798               0.999999985              -0.000600673              -0.000580360               0.999999985              -0.000596632              -0.000590474               0.999999985              -0.000591588              -0.000599253               0.999999985              -0.000583405              -0.000604205               0.999999985              -0.000571018              -0.000603975               0.999999985              -0.000554011              -0.000598176               0.999999985              -0.000532355              -0.000586936               0.999999985              -0.000506200              -0.000570541               0.999999985              -0.000475877              -0.000548761               0.999999985              -0.000441904              -0.000521673               0.999999985              -0.000405198              -0.000490396               0.999999985              -0.000366652              -0.000456065               0.999999985              -0.000327089              -0.000419971               0.999999985              -0.000663972              -0.000854870               0.999999985              -0.000571928              -0.000720522               0.999999985              -0.000535007              -0.000682731               0.999999985              -0.000520998              -0.000679470               0.999999985              -0.000514951              -0.000688616               0.999999985              -0.000509799              -0.000700527               0.999999985              -0.000501618              -0.000710240               0.999999985              -0.000488359              -0.000715203               0.999999985              -0.000468991              -0.000714404               0.999999985              -0.000443529              -0.000707930               0.999999985              -0.000412303              -0.000695667               0.999999985              -0.000375708              -0.000678072               0.999999985              -0.000334566              -0.000655468               0.999999985              -0.000289886              -0.000628393               0.999999985              -0.000242692              -0.000598367               0.999999985              -0.000193940              -0.000566643               0.999999985              -0.000144348              -0.000534114               0.999999985              -0.000603361              -0.000953199               0.999999985              -0.000488752              -0.000820941               0.999999985              -0.000452540              -0.000785218               0.999999985              -0.000441048              -0.000784158               0.999999985              -0.000436241              -0.000795319               0.999999985              -0.000429856              -0.000808587               0.999999985              -0.000417983              -0.000818873               0.999999985              -0.000398467              -0.000823685               0.999999985              -0.000370947              -0.000822312               0.999999985              -0.000335915              -0.000814891               0.999999985              -0.000294070              -0.000801561               0.999999985              -0.000246134              -0.000782960               0.999999985              -0.000193450              -0.000759771               0.999999985              -0.000137231              -0.000733465               0.999999985              -0.000078564              -0.000705765               0.999999985              -0.000018796              -0.000677771               0.999999985               0.000041133              -0.000649810               0.999999985              -0.000540655              -0.001046408               0.999999985              -0.000418999              -0.000933599               0.999999985              -0.000380071              -0.000894010               0.999999985              -0.000368093              -0.000887981               0.999999985              -0.000364038              -0.000896243               0.999999985              -0.000359753              -0.000909232               0.999999985              -0.000351050              -0.000921995               0.999999985              -0.000335542              -0.000931537               0.999999985              -0.000312545              -0.000936623               0.999999985              -0.000282242              -0.000936848               0.999999985              -0.000245177              -0.000932223               0.999999985              -0.000201847              -0.000922915               0.999999985              -0.000152804              -0.000909438               0.999999985              -0.000098776              -0.000892767               0.999999985              -0.000040971              -0.000874176               0.999999985               0.000018964              -0.000854631               0.999999985               0.000079432              -0.000835306               0.999999985              -0.000472494              -0.001131403               0.999999985              -0.000352019              -0.001042740               0.999999985              -0.000310566              -0.001005813               0.999999985              -0.000297133              -0.000997224               0.999999985              -0.000293037              -0.001003464               0.999999985              -0.000289946              -0.001016446               0.999999985              -0.000283669              -0.001031285               0.999999985              -0.000271737              -0.001045105               0.999999985              -0.000253102              -0.001056101               0.999999985              -0.000227660              -0.001063340               0.999999985              -0.000195490              -0.001066634               0.999999985              -0.000156822              -0.001066007               0.999999985              -0.000112015              -0.001061606               0.999999985              -0.000061290              -0.001053950               0.999999985              -0.000005235              -0.001043956               0.999999985               0.000054526              -0.001032749               0.999999985               0.000116233              -0.001021470               0.999999985              -0.000400111              -0.001206197               0.999999985              -0.000287829              -0.001145108               0.999999985              -0.000245788              -0.001115435               0.999999985              -0.000230729              -0.001107688               0.999999985              -0.000225795              -0.001113521               0.999999985              -0.000223144              -0.001126992               0.999999985              -0.000218474              -0.001144026               0.999999985              -0.000209574              -0.001161788               0.999999985              -0.000195070              -0.001178273               0.999999985              -0.000174334              -0.001192267               0.999999985              -0.000147109              -0.001203208               0.999999985              -0.000113490              -0.001210943               0.999999985              -0.000073548              -0.001215400               0.999999985              -0.000027139              -0.001216706               0.999999985               0.000025912              -0.001215324               0.999999985               0.000084983              -0.001212251               0.999999985               0.000148325              -0.001208747               0.999999985              -0.000324250              -0.001269318               0.999999985              -0.000226581              -0.001236329               0.999999985              -0.000186666              -0.001217304               0.999999985              -0.000170899              -0.001213297               0.999999985              -0.000165016              -0.001220623               0.999999985              -0.000162158              -0.001235589               0.999999985              -0.000158633              -0.001255106               0.999999985              -0.000152024              -0.001276692               0.999999985              -0.000141000              -0.001298494               0.999999985              -0.000124709              -0.001319163               0.999999985              -0.000102708              -0.001337726               0.999999985              -0.000074629              -0.001353751               0.999999985              -0.000040359              -0.001367145               0.999999985               0.000000543              -0.001377646               0.999999985               0.000048947              -0.001385543               0.999999985               0.000105307              -0.001391226               0.999999985               0.000169239              -0.001395706               0.999999985              -0.000245607              -0.001319737               0.999999985              -0.000167783              -0.001312376               0.999999985              -0.000133464              -0.001305324               0.999999985              -0.000118652              -0.001306959               0.999999985              -0.000112383              -0.001317323               0.999999985              -0.000109441              -0.001334646               0.999999985              -0.000106590              -0.001356965               0.999999985              -0.000101667              -0.001382289               0.999999985              -0.000093586              -0.001409025               0.999999985              -0.000081657              -0.001435869               0.999999985              -0.000065152              -0.001461672               0.999999985              -0.000043411              -0.001485737               0.999999985              -0.000016117              -0.001507785               0.999999985               0.000017554              -0.001527602               0.999999985               0.000058617              -0.001545118               0.999999985               0.000108522              -0.001560254               0.999999985               0.000168332              -0.001573335               0.999999985              -0.000164920              -0.001356469               0.999999985              -0.000110873              -0.001369552               0.999999985              -0.000085605              -0.001373529               0.999999985              -0.000073902              -0.001381131               0.999999985              -0.000068537              -0.001394970               0.999999985              -0.000065918              -0.001414970               0.999999985              -0.000063751              -0.001439902               0.999999985              -0.000060395              -0.001468374               0.999999985              -0.000055085              -0.001499064               0.999999985              -0.000047371              -0.001530821               0.999999985              -0.000036520              -0.001562778               0.999999985              -0.000021737              -0.001594118               0.999999985              -0.000002614              -0.001624211               0.999999985               0.000021656              -0.001652785               0.999999985               0.000052030              -0.001679408               0.999999985               0.000090045              -0.001703659               0.999999985               0.000137982              -0.001725221               0.999999985              -0.000082835              -0.001378776               0.999999985              -0.000055166              -0.001405082               0.999999985              -0.000041724              -0.001416823               0.999999985              -0.000035230              -0.001428915               0.999999985              -0.000032126              -0.001445500               0.999999985              -0.000030548              -0.001467485               0.999999985              -0.000029400              -0.001494301               0.999999985              -0.000027665              -0.001524882               0.999999985              -0.000025107              -0.001558129               0.999999985              -0.000021198              -0.001593072               0.999999985              -0.000015843              -0.001629108               0.999999985              -0.000008453              -0.001665557               0.999999985               0.000001437              -0.001701679               0.999999985               0.000014123              -0.001736907               0.999999985               0.000030385              -0.001770489               0.999999985               0.000051287              -0.001801721               0.999999985               0.000078348              -0.001829808               0.999999985              -0.000000000              -0.001386223               0.999999985              -0.000000000              -0.001417127               0.999999985              -0.000000000              -0.001431658               0.999999985              -0.000000000              -0.001445367               0.999999985              -0.000000000              -0.001463014               0.999999985               0.000000000              -0.001485713               0.999999985              -0.000000000              -0.001513256               0.999999985               0.000000000              -0.001544747               0.999999985               0.000000000              -0.001578925               0.999999985              -0.000000000              -0.001614980               0.999999985               0.000000000              -0.001652371               0.999999985              -0.000000000              -0.001690566               0.999999985              -0.000000000              -0.001728932               0.999999985               0.000000000              -0.001766618               0.999999985               0.000000000              -0.001802765               0.999999985               0.000000000              -0.001836719               0.999999985               0.000000000              -0.001867419               0.999999985               0.000888669              -0.000000000               0.999999985               0.000939033               0.000000000               0.999999985               0.000960486               0.000000000               0.999999985               0.000972683               0.000000000               0.999999985               0.000982891               0.000000000               0.999999985               0.000993556               0.000000000               0.999999985               0.001005470              -0.000000000               0.999999985               0.001018471              -0.000000000               0.999999985               0.001032196               0.000000000               0.999999985               0.001046121              -0.000000000               0.999999985               0.001059772               0.000000000               0.999999985               0.001072802               0.000000000               0.999999985               0.001084949               0.000000000               0.999999985               0.001095930               0.000000000               0.999999985               0.001105270               0.000000000               0.999999985               0.001112320               0.000000000               0.999999985               0.001116216               0.000000000               0.999999985               0.000883694              -0.000131456               0.999999985               0.000929763              -0.000104540               0.999999985               0.000948508              -0.000092287               0.999999985               0.000958942              -0.000087475               0.999999985               0.000967833              -0.000086357               0.999999985               0.000977488              -0.000086933               0.999999985               0.000988419              -0.000087914               0.999999985               0.001000347              -0.000088633               0.999999985               0.001012781              -0.000088381               0.999999985               0.001025223              -0.000086954               0.999999985               0.001037227              -0.000084115               0.999999985               0.001048450              -0.000079648               0.999999985               0.001058575              -0.000073473               0.999999985               0.001067280              -0.000065004               0.999999985               0.001074180              -0.000053468               0.999999985               0.001078718              -0.000037882               0.999999985               0.001080327              -0.000016979               0.999999985               0.000868791              -0.000261758               0.999999985               0.000902515              -0.000208662               0.999999985               0.000913651              -0.000185610               0.999999985               0.000919329              -0.000177005               0.999999985               0.000924964              -0.000175499               0.999999985               0.000931904              -0.000177018               0.999999985               0.000940052              -0.000179410               0.999999985               0.000948976              -0.000180870               0.999999985               0.000958065              -0.000180690               0.999999985               0.000966780              -0.000178059               0.999999985               0.000974565              -0.000172648               0.999999985               0.000981116              -0.000164180               0.999999985               0.000986144              -0.000152529               0.999999985               0.000989253              -0.000136891               0.999999985               0.000990167              -0.000115776               0.999999985               0.000988621              -0.000088296               0.999999985               0.000984434              -0.000053097               0.999999985               0.000844187              -0.000389718               0.999999985               0.000858607              -0.000312259               0.999999985               0.000858849              -0.000280723               0.999999985               0.000858198              -0.000270155               0.999999985               0.000859604              -0.000269364               0.999999985               0.000862992              -0.000272550               0.999999985               0.000867628              -0.000276466               0.999999985               0.000872597              -0.000279148               0.999999985               0.000877134              -0.000279115               0.999999985               0.000880440              -0.000275544               0.999999985               0.000882223              -0.000268093               0.999999985               0.000882218              -0.000256595               0.999999985               0.000880093              -0.000240769               0.999999985               0.000875585              -0.000219677               0.999999985               0.000868341              -0.000192243               0.999999985               0.000858438              -0.000157987               0.999999985               0.000846273              -0.000116166               0.999999985               0.000810678              -0.000514059               0.999999985               0.000800402              -0.000415264               0.999999985               0.000788383              -0.000378185               0.999999985               0.000781372              -0.000367695               0.999999985               0.000778787              -0.000368761               0.999999985               0.000778947              -0.000374104               0.999999985               0.000780031              -0.000379896               0.999999985               0.000780746              -0.000383648               0.999999985               0.000779997              -0.000383796               0.999999985               0.000777249              -0.000379349               0.999999985               0.000772067              -0.000370386               0.999999985               0.000764248              -0.000356708               0.999999985               0.000753609              -0.000338013               0.999999985               0.000739904              -0.000313490               0.999999985               0.000723276              -0.000282755               0.999999985               0.000704142              -0.000245976               0.999999985               0.000683133              -0.000203452               0.999999985               0.000768915              -0.000633756               0.999999985               0.000730958              -0.000517621               0.999999985               0.000707564              -0.000477991               0.999999985               0.000695611              -0.000469287               0.999999985               0.000690290              -0.000472966               0.999999985               0.000687853              -0.000480852               0.999999985               0.000685748              -0.000488290               0.999999985               0.000682152              -0.000492864               0.999999985               0.000675882              -0.000492879               0.999999985               0.000666379              -0.000487787               0.999999985               0.000653328              -0.000477523               0.999999985               0.000636760              -0.000462381               0.999999985               0.000616709              -0.000441805               0.999999985               0.000593121              -0.000415390               0.999999985               0.000566580              -0.000383698               0.999999985               0.000537804              -0.000347442               0.999999985               0.000507613              -0.000307606               0.999999985               0.000719691              -0.000747761               0.999999985               0.000653598              -0.000619415               0.999999985               0.000621492              -0.000579811               0.999999985               0.000607085              -0.000573798               0.999999985               0.000600673              -0.000580360               0.999999985               0.000596632              -0.000590474               0.999999985               0.000591588              -0.000599253               0.999999985               0.000583405              -0.000604205               0.999999985               0.000571018              -0.000603975               0.999999985               0.000554011              -0.000598176               0.999999985               0.000532355              -0.000586936               0.999999985               0.000506200              -0.000570541               0.999999985               0.000475877              -0.000548761               0.999999985               0.000441904              -0.000521673               0.999999985               0.000405198              -0.000490396               0.999999985               0.000366652              -0.000456065               0.999999985               0.000327089              -0.000419971               0.999999985               0.000663972              -0.000854870               0.999999985               0.000571928              -0.000720522               0.999999985               0.000535007              -0.000682731               0.999999985               0.000520998              -0.000679470               0.999999985               0.000514951              -0.000688616               0.999999985               0.000509799              -0.000700527               0.999999985               0.000501618              -0.000710240               0.999999985               0.000488359              -0.000715203               0.999999985               0.000468991              -0.000714404               0.999999985               0.000443529              -0.000707930               0.999999985               0.000412303              -0.000695667               0.999999985               0.000375708              -0.000678072               0.999999985               0.000334566              -0.000655468               0.999999985               0.000289886              -0.000628393               0.999999985               0.000242692              -0.000598367               0.999999985               0.000193940              -0.000566643               0.999999985               0.000144348              -0.000534114               0.999999985               0.000603361              -0.000953199               0.999999985               0.000488752              -0.000820941               0.999999985               0.000452540              -0.000785218               0.999999985               0.000441048              -0.000784158               0.999999985               0.000436241              -0.000795319               0.999999985               0.000429856              -0.000808587               0.999999985               0.000417983              -0.000818873               0.999999985               0.000398467              -0.000823685               0.999999985               0.000370947              -0.000822312               0.999999985               0.000335915              -0.000814891               0.999999985               0.000294070              -0.000801561               0.999999985               0.000246134              -0.000782960               0.999999985               0.000193450              -0.000759771               0.999999985               0.000137231              -0.000733465               0.999999985               0.000078564              -0.000705765               0.999999985               0.000018796              -0.000677771               0.999999985              -0.000041133              -0.000649810               0.999999985               0.000540655              -0.001046408               0.999999985               0.000418999              -0.000933599               0.999999985               0.000380071              -0.000894010               0.999999985               0.000368093              -0.000887981               0.999999985               0.000364038              -0.000896243               0.999999985               0.000359753              -0.000909232               0.999999985               0.000351050              -0.000921995               0.999999985               0.000335542              -0.000931537               0.999999985               0.000312545              -0.000936623               0.999999985               0.000282242              -0.000936848               0.999999985               0.000245177              -0.000932223               0.999999985               0.000201847              -0.000922915               0.999999985               0.000152804              -0.000909438               0.999999985               0.000098776              -0.000892767               0.999999985               0.000040971              -0.000874176               0.999999985              -0.000018964              -0.000854631               0.999999985              -0.000079432              -0.000835306               0.999999985               0.000472494              -0.001131403               0.999999985               0.000352019              -0.001042740               0.999999985               0.000310566              -0.001005813               0.999999985               0.000297133              -0.000997224               0.999999985               0.000293037              -0.001003464               0.999999985               0.000289946              -0.001016446               0.999999985               0.000283669              -0.001031285               0.999999985               0.000271737              -0.001045105               0.999999985               0.000253102              -0.001056101               0.999999985               0.000227660              -0.001063340               0.999999985               0.000195490              -0.001066634               0.999999985               0.000156822              -0.001066007               0.999999985               0.000112015              -0.001061606               0.999999985               0.000061290              -0.001053950               0.999999985               0.000005235              -0.001043956               0.999999985              -0.000054526              -0.001032749               0.999999985              -0.000116233              -0.001021470               0.999999985               0.000400111              -0.001206197               0.999999985               0.000287829              -0.001145108               0.999999985               0.000245788              -0.001115435               0.999999985               0.000230729              -0.001107688               0.999999985               0.000225795              -0.001113521               0.999999985               0.000223144              -0.001126992               0.999999985               0.000218474              -0.001144026               0.999999985               0.000209574              -0.001161788               0.999999985               0.000195070              -0.001178273               0.999999985               0.000174334              -0.001192267               0.999999985               0.000147109              -0.001203208               0.999999985               0.000113490              -0.001210943               0.999999985               0.000073548              -0.001215400               0.999999985               0.000027139              -0.001216706               0.999999985              -0.000025912              -0.001215324               0.999999985              -0.000084983              -0.001212251               0.999999985              -0.000148325              -0.001208747               0.999999985               0.000324250              -0.001269318               0.999999985               0.000226581              -0.001236329               0.999999985               0.000186666              -0.001217304               0.999999985               0.000170899              -0.001213297               0.999999985               0.000165016              -0.001220623               0.999999985               0.000162158              -0.001235589               0.999999985               0.000158633              -0.001255106               0.999999985               0.000152024              -0.001276692               0.999999985               0.000141000              -0.001298494               0.999999985               0.000124709              -0.001319163               0.999999985               0.000102708              -0.001337726               0.999999985               0.000074629              -0.001353751               0.999999985               0.000040359              -0.001367145               0.999999985              -0.000000543              -0.001377646               0.999999985              -0.000048947              -0.001385543               0.999999985              -0.000105307              -0.001391226               0.999999985              -0.000169239              -0.001395706               0.999999985               0.000245607              -0.001319737               0.999999985               0.000167783              -0.001312376               0.999999985               0.000133464              -0.001305324               0.999999985               0.000118652              -0.001306959               0.999999985               0.000112383              -0.001317323               0.999999985               0.000109441              -0.001334646               0.999999985               0.000106590              -0.001356965               0.999999985               0.000101667              -0.001382289               0.999999985               0.000093586              -0.001409025               0.999999985               0.000081657              -0.001435869               0.999999985               0.000065152              -0.001461672               0.999999985               0.000043411              -0.001485737               0.999999985               0.000016117              -0.001507785               0.999999985              -0.000017554              -0.001527602               0.999999985              -0.000058617              -0.001545118               0.999999985              -0.000108522              -0.001560254               0.999999985              -0.000168332              -0.001573335               0.999999985               0.000164920              -0.001356469               0.999999985               0.000110873              -0.001369552               0.999999985               0.000085605              -0.001373529               0.999999985               0.000073902              -0.001381131               0.999999985               0.000068537              -0.001394970               0.999999985               0.000065918              -0.001414970               0.999999985               0.000063751              -0.001439902               0.999999985               0.000060395              -0.001468374               0.999999985               0.000055085              -0.001499064               0.999999985               0.000047371              -0.001530821               0.999999985               0.000036520              -0.001562778               0.999999985               0.000021737              -0.001594118               0.999999985               0.000002614              -0.001624211               0.999999985              -0.000021656              -0.001652785               0.999999985              -0.000052030              -0.001679408               0.999999985              -0.000090045              -0.001703659               0.999999985              -0.000137982              -0.001725221               0.999999985               0.000082835              -0.001378776               0.999999985               0.000055166              -0.001405082               0.999999985               0.000041724              -0.001416823               0.999999985               0.000035230              -0.001428915               0.999999985               0.000032126              -0.001445500               0.999999985               0.000030548              -0.001467485               0.999999985               0.000029400              -0.001494301               0.999999985               0.000027665              -0.001524882               0.999999985               0.000025107              -0.001558129               0.999999985               0.000021198              -0.001593072               0.999999985               0.000015843              -0.001629108               0.999999985               0.000008453              -0.001665557               0.999999985              -0.000001437              -0.001701679               0.999999985              -0.000014123              -0.001736907               0.999999985              -0.000030385              -0.001770489               0.999999985              -0.000051287              -0.001801721               0.999999985              -0.000078348              -0.001829808               0.999999985              -0.000000000              -0.001386223               0.999999985              -0.000000000              -0.001417127               0.999999985              -0.000000000              -0.001431658               0.999999985              -0.000000000              -0.001445367               0.999999985              -0.000000000              -0.001463014               0.999999985               0.000000000              -0.001485713               0.999999985              -0.000000000              -0.001513256               0.999999985               0.000000000              -0.001544747               0.999999985               0.000000000              -0.001578925               0.999999985              -0.000000000              -0.001614980               0.999999985               0.000000000              -0.001652371               0.999999985              -0.000000000              -0.001690566               0.999999985              -0.000000000              -0.001728932               0.999999985               0.000000000              -0.001766618               0.999999985               0.000000000              -0.001802765               0.999999985               0.000000000              -0.001836719               0.999999985               0.000000000              -0.001867419               0.999999985               0.000888669              -0.000000000               0.999999985               0.000939033               0.000000000               0.999999985               0.000960486               0.000000000               0.999999985               0.000972683               0.000000000               0.999999985               0.000982891               0.000000000               0.999999985               0.000993556               0.000000000               0.999999985               0.001005470              -0.000000000               0.999999985               0.001018471              -0.000000000               0.999999985               0.001032196               0.000000000               0.999999985               0.001046121              -0.000000000               0.999999985               0.001059772               0.000000000               0.999999985               0.001072802               0.000000000               0.999999985               0.001084949               0.000000000               0.999999985               0.001095930               0.000000000               0.999999985               0.001105270               0.000000000               0.999999985               0.001112320               0.000000000               0.999999985               0.001116216               0.000000000               0.999999985               0.000883694               0.000131456               0.999999985               0.000929763               0.000104540               0.999999985               0.000948508               0.000092287               0.999999985               0.000958942               0.000087475               0.999999985               0.000967833               0.000086357               0.999999985               0.000977488               0.000086933               0.999999985               0.000988419               0.000087914               0.999999985               0.001000347               0.000088633               0.999999985               0.001012781               0.000088381               0.999999985               0.001025223               0.000086954               0.999999985               0.001037227               0.000084115               0.999999985               0.001048450               0.000079648               0.999999985               0.001058575               0.000073473               0.999999985               0.001067280               0.000065004               0.999999985               0.001074180               0.000053468               0.999999985               0.001078718               0.000037882               0.999999985               0.001080327               0.000016979               0.999999985               0.000868791               0.000261758               0.999999985               0.000902515               0.000208662               0.999999985               0.000913651               0.000185610               0.999999985               0.000919329               0.000177005               0.999999985               0.000924964               0.000175499               0.999999985               0.000931904               0.000177018               0.999999985               0.000940052               0.000179410               0.999999985               0.000948976               0.000180870               0.999999985               0.000958065               0.000180690               0.999999985               0.000966780               0.000178059               0.999999985               0.000974565               0.000172648               0.999999985               0.000981116               0.000164180               0.999999985               0.000986144               0.000152529               0.999999985               0.000989253               0.000136891               0.999999985               0.000990167               0.000115776               0.999999985               0.000988621               0.000088296               0.999999985               0.000984434               0.000053097               0.999999985               0.000844187               0.000389718               0.999999985               0.000858607               0.000312259               0.999999985               0.000858849               0.000280723               0.999999985               0.000858198               0.000270155               0.999999985               0.000859604               0.000269364               0.999999985               0.000862992               0.000272550               0.999999985               0.000867628               0.000276466               0.999999985               0.000872597               0.000279148               0.999999985               0.000877134               0.000279115               0.999999985               0.000880440               0.000275544               0.999999985               0.000882223               0.000268093               0.999999985               0.000882218               0.000256595               0.999999985               0.000880093               0.000240769               0.999999985               0.000875585               0.000219677               0.999999985               0.000868341               0.000192243               0.999999985               0.000858438               0.000157987               0.999999985               0.000846273               0.000116166               0.999999985               0.000810678               0.000514059               0.999999985               0.000800402               0.000415264               0.999999985               0.000788383               0.000378185               0.999999985               0.000781372               0.000367695               0.999999985               0.000778787               0.000368761               0.999999985               0.000778947               0.000374104               0.999999985               0.000780031               0.000379896               0.999999985               0.000780746               0.000383648               0.999999985               0.000779997               0.000383796               0.999999985               0.000777249               0.000379349               0.999999985               0.000772067               0.000370386               0.999999985               0.000764248               0.000356708               0.999999985               0.000753609               0.000338013               0.999999985               0.000739904               0.000313490               0.999999985               0.000723276               0.000282755               0.999999985               0.000704142               0.000245976               0.999999985               0.000683133               0.000203452               0.999999985               0.000768915               0.000633756               0.999999985               0.000730958               0.000517621               0.999999985               0.000707564               0.000477991               0.999999985               0.000695611               0.000469287               0.999999985               0.000690290               0.000472966               0.999999985               0.000687853               0.000480852               0.999999985               0.000685748               0.000488290               0.999999985               0.000682152               0.000492864               0.999999985               0.000675882               0.000492879               0.999999985               0.000666379               0.000487787               0.999999985               0.000653328               0.000477523               0.999999985               0.000636760               0.000462381               0.999999985               0.000616709               0.000441805               0.999999985               0.000593121               0.000415390               0.999999985               0.000566580               0.000383698               0.999999985               0.000537804               0.000347442               0.999999985               0.000507613               0.000307606               0.999999985               0.000719691               0.000747761               0.999999985               0.000653598               0.000619415               0.999999985               0.000621492               0.000579811               0.999999985               0.000607085               0.000573798               0.999999985               0.000600673               0.000580360               0.999999985               0.000596632               0.000590474               0.999999985               0.000591588               0.000599253               0.999999985               0.000583405               0.000604205               0.999999985               0.000571018               0.000603975               0.999999985               0.000554011               0.000598176               0.999999985               0.000532355               0.000586936               0.999999985               0.000506200               0.000570541               0.999999985               0.000475877               0.000548761               0.999999985               0.000441904               0.000521673               0.999999985               0.000405198               0.000490396               0.999999985               0.000366652               0.000456065               0.999999985               0.000327089               0.000419971               0.999999985               0.000663972               0.000854870               0.999999985               0.000571928               0.000720522               0.999999985               0.000535007               0.000682731               0.999999985               0.000520998               0.000679470               0.999999985               0.000514951               0.000688616               0.999999985               0.000509799               0.000700527               0.999999985               0.000501618               0.000710240               0.999999985               0.000488359               0.000715203               0.999999985               0.000468991               0.000714404               0.999999985               0.000443529               0.000707930               0.999999985               0.000412303               0.000695667               0.999999985               0.000375708               0.000678072               0.999999985               0.000334566               0.000655468               0.999999985               0.000289886               0.000628393               0.999999985               0.000242692               0.000598367               0.999999985               0.000193940               0.000566643               0.999999985               0.000144348               0.000534114               0.999999985               0.000603361               0.000953199               0.999999985               0.000488752               0.000820941               0.999999985               0.000452540               0.000785218               0.999999985               0.000441048               0.000784158               0.999999985               0.000436241               0.000795319               0.999999985               0.000429856               0.000808587               0.999999985               0.000417983               0.000818873               0.999999985               0.000398467               0.000823685               0.999999985               0.000370947               0.000822312               0.999999985               0.000335915               0.000814891               0.999999985               0.000294070               0.000801561               0.999999985               0.000246134               0.000782960               0.999999985               0.000193450               0.000759771               0.999999985               0.000137231               0.000733465               0.999999985               0.000078564               0.000705765               0.999999985               0.000018796               0.000677771               0.999999985              -0.000041133               0.000649810               0.999999985               0.000540655               0.001046408               0.999999985               0.000418999               0.000933599               0.999999985               0.000380071               0.000894010               0.999999985               0.000368093               0.000887981               0.999999985               0.000364038               0.000896243               0.999999985               0.000359753               0.000909232               0.999999985               0.000351050               0.000921995               0.999999985               0.000335542               0.000931537               0.999999985               0.000312545               0.000936623               0.999999985               0.000282242               0.000936848               0.999999985               0.000245177               0.000932223               0.999999985               0.000201847               0.000922915               0.999999985               0.000152804               0.000909438               0.999999985               0.000098776               0.000892767               0.999999985               0.000040971               0.000874176               0.999999985              -0.000018964               0.000854631               0.999999985              -0.000079432               0.000835306               0.999999985               0.000472494               0.001131403               0.999999985               0.000352019               0.001042740               0.999999985               0.000310566               0.001005813               0.999999985               0.000297133               0.000997224               0.999999985               0.000293037               0.001003464               0.999999985               0.000289946               0.001016446               0.999999985               0.000283669               0.001031285               0.999999985               0.000271737               0.001045105               0.999999985               0.000253102               0.001056101               0.999999985               0.000227660               0.001063340               0.999999985               0.000195490               0.001066634               0.999999985               0.000156822               0.001066007               0.999999985               0.000112015               0.001061606               0.999999985               0.000061290               0.001053950               0.999999985               0.000005235               0.001043956               0.999999985              -0.000054526               0.001032749               0.999999985              -0.000116233               0.001021470               0.999999985               0.000400111               0.001206197               0.999999985               0.000287829               0.001145108               0.999999985               0.000245788               0.001115435               0.999999985               0.000230729               0.001107688               0.999999985               0.000225795               0.001113521               0.999999985               0.000223144               0.001126992               0.999999985               0.000218474               0.001144026               0.999999985               0.000209574               0.001161788               0.999999985               0.000195070               0.001178273               0.999999985               0.000174334               0.001192267               0.999999985               0.000147109               0.001203208               0.999999985               0.000113490               0.001210943               0.999999985               0.000073548               0.001215400               0.999999985               0.000027139               0.001216706               0.999999985              -0.000025912               0.001215324               0.999999985              -0.000084983               0.001212251               0.999999985              -0.000148325               0.001208747               0.999999985               0.000324250               0.001269318               0.999999985               0.000226581               0.001236329               0.999999985               0.000186666               0.001217304               0.999999985               0.000170899               0.001213297               0.999999985               0.000165016               0.001220623               0.999999985               0.000162158               0.001235589               0.999999985               0.000158633               0.001255106               0.999999985               0.000152024               0.001276692               0.999999985               0.000141000               0.001298494               0.999999985               0.000124709               0.001319163               0.999999985               0.000102708               0.001337726               0.999999985               0.000074629               0.001353751               0.999999985               0.000040359               0.001367145               0.999999985              -0.000000543               0.001377646               0.999999985              -0.000048947               0.001385543               0.999999985              -0.000105307               0.001391226               0.999999985              -0.000169239               0.001395706               0.999999985               0.000245607               0.001319737               0.999999985               0.000167783               0.001312376               0.999999985               0.000133464               0.001305324               0.999999985               0.000118652               0.001306959               0.999999985               0.000112383               0.001317323               0.999999985               0.000109441               0.001334646               0.999999985               0.000106590               0.001356965               0.999999985               0.000101667               0.001382289               0.999999985               0.000093586               0.001409025               0.999999985               0.000081657               0.001435869               0.999999985               0.000065152               0.001461672               0.999999985               0.000043411               0.001485737               0.999999985               0.000016117               0.001507785               0.999999985              -0.000017554               0.001527602               0.999999985              -0.000058617               0.001545118               0.999999985              -0.000108522               0.001560254               0.999999985              -0.000168332               0.001573335               0.999999985               0.000164920               0.001356469               0.999999985               0.000110873               0.001369552               0.999999985               0.000085605               0.001373529               0.999999985               0.000073902               0.001381131               0.999999985               0.000068537               0.001394970               0.999999985               0.000065918               0.001414970               0.999999985               0.000063751               0.001439902               0.999999985               0.000060395               0.001468374               0.999999985               0.000055085               0.001499064               0.999999985               0.000047371               0.001530821               0.999999985               0.000036520               0.001562778               0.999999985               0.000021737               0.001594118               0.999999985               0.000002614               0.001624211               0.999999985              -0.000021656               0.001652785               0.999999985              -0.000052030               0.001679408               0.999999985              -0.000090045               0.001703659               0.999999985              -0.000137982               0.001725221               0.999999985               0.000082835               0.001378776               0.999999985               0.000055166               0.001405082               0.999999985               0.000041724               0.001416823               0.999999985               0.000035230               0.001428915               0.999999985               0.000032126               0.001445500               0.999999985               0.000030548               0.001467485               0.999999985               0.000029400               0.001494301               0.999999985               0.000027665               0.001524882               0.999999985               0.000025107               0.001558129               0.999999985               0.000021198               0.001593072               0.999999985               0.000015843               0.001629108               0.999999985               0.000008453               0.001665557               0.999999985              -0.000001437               0.001701679               0.999999985              -0.000014123               0.001736907               0.999999985              -0.000030385               0.001770489               0.999999985              -0.000051287               0.001801721               0.999999985              -0.000078348               0.001829808               0.999999985              -0.000000000               0.001386223               0.999999985               0.000000000               0.001417127               0.999999985              -0.000000000               0.001431658               0.999999985               0.000000000               0.001445367               0.999999985               0.000000000               0.001463014               0.999999985               0.000000000               0.001485713               0.999999985              -0.000000000               0.001513256               0.999999985              -0.000000000               0.001544747               0.999999985              -0.000000000               0.001578925               0.999999985              -0.000000000               0.001614980               0.999999985              -0.000000000               0.001652371               0.999999985               0.000000000               0.001690566               0.999999985              -0.000000000               0.001728932               0.999999985               0.000000000               0.001766618               0.999999985               0.000000000               0.001802765               0.999999985               0.000000000               0.001836719               0.999999985               0.000000000               0.001867419               0.999999985 </DataArray>
<DataArray type="Float64"                                    Name="defo"                                                      NumberOfComponents=" 3" format="ascii">
             -0.000888669               0.000000000               0.999999985              -0.000939033               0.000000000               0.999999985              -0.000960486               0.000000000               0.999999985              -0.000972683               0.000000000               0.999999985              -0.000982891               0.000000000               0.999999985              -0.000993556               0.000000000               0.999999985              -0.001005470              -0.000000000               0.999999985              -0.001018471              -0.000000000               0.999999985              -0.001032196              -0.000000000               0.999999985              -0.001046121              -0.000000000               0.999999985              -0.001059772              -0.000000000               0.999999985              -0.001072802               0.000000000               0.999999985              -0.001084949              -0.000000000               0.999999985              -0.001095930               0.000000000               0.999999985              -0.001105270              -0.000000000               0.999999985              -0.001112320              -0.000000000               0.999999985              -0.001116216              -0.000000000               0.999999985              -0.000883694               0.000131456               0.999999985              -0.000929763               0.000104540               0.999999985              -0.000948508               0.000092287               0.999999985              -0.000958942               0.000087475               0.999999985              -0.000967833               0.000086357               0.999999985              -0.000977488               0.000086933               0.999999985              -0.000988419               0.000087914               0.999999985              -0.001000347               0.000088633               0.999999985              -0.001012781               0.000088381               0.999999985              -0.001025223               0.000086954               0.999999985              -0.001037227               0.000084115               0.999999985              -0.001048450               0.000079648               0.999999985              -0.001058575               0.000073473               0.999999985              -0.001067280               0.000065004               0.999999985              -0.001074180               0.000053468               0.999999985              -0.001078718               0.000037882               0.999999985              -0.001080327               0.000016979               0.999999985              -0.000868791               0.000261758               0.999999985              -0.000902515               0.000208662               0.999999985              -0.000913651               0.000185610               0.999999985              -0.000919329               0.000177005               0.999999985              -0.000924964               0.000175499               0.999999985              -0.000931904               0.000177018               0.999999985              -0.000940052               0.000179410               0.999999985              -0.000948976               0.000180870               0.999999985              -0.000958065               0.000180690               0.999999985              -0.000966780               0.000178059               0.999999985              -0.000974565               0.000172648               0.999999985              -0.000981116               0.000164180               0.999999985              -0.000986144               0.000152529               0.999999985              -0.000989253               0.000136891               0.999999985              -0.000990167               0.000115776               0.999999985              -0.000988621               0.000088296               0.999999985              -0.000984434               0.000053097               0.999999985              -0.000844187               0.000389718               0.999999985              -0.000858607               0.000312259               0.999999985              -0.000858849               0.000280723               0.999999985              -0.000858198               0.000270155               0.999999985              -0.000859604               0.000269364               0.999999985              -0.000862992               0.000272550               0.999999985              -0.000867628               0.000276466               0.999999985              -0.000872597               0.000279148               0.999999985              -0.000877134               0.000279115               0.999999985              -0.000880440               0.000275544               0.999999985              -0.000882223               0.000268093               0.999999985              -0.000882218               0.000256595               0.999999985              -0.000880093               0.000240769               0.999999985              -0.000875585               0.000219677               0.999999985              -0.000868341               0.000192243               0.999999985              -0.000858438               0.000157987               0.999999985              -0.000846273               0.000116166               0.999999985              -0.000810678               0.000514059               0.999999985              -0.000800402               0.000415264               0.999999985              -0.000788383               0.000378185               0.999999985              -0.000781372               0.000367695               0.999999985              -0.000778787               0.000368761               0.999999985              -0.000778947               0.000374104               0.999999985              -0.000780031               0.000379896               0.999999985              -0.000780746               0.000383648               0.999999985              -0.000779997               0.000383796               0.999999985              -0.000777249               0.000379349               0.999999985              -0.000772067               0.000370386               0.999999985              -0.000764248               0.000356708               0.999999985              -0.000753609               0.000338013               0.999999985              -0.000739904               0.000313490               0.999999985              -0.000723276               0.000282755               0.999999985              -0.000704142               0.000245976               0.999999985              -0.000683133               0.000203452               0.999999985              -0.000768915               0.000633756               0.999999985              -0.000730958               0.000517621               0.999999985              -0.000707564               0.000477991               0.999999985              -0.000695611               0.000469287               0.999999985              -0.000690290               0.000472966               0.999999985              -0.000687853               0.000480852               0.999999985              -0.000685748               0.000488290               0.999999985              -0.000682152               0.000492864               0.999999985              -0.000675882               0.000492879               0.999999985              -0.000666379               0.000487787               0.999999985              -0.000653328               0.000477523               0.999999985              -0.000636760               0.000462381               0.999999985              -0.000616709               0.000441805               0.999999985              -0.000593121               0.000415390               0.999999985              -0.000566580               0.000383698               0.999999985              -0.000537804               0.000347442               0.999999985              -0.000507613               0.000307606               0.999999985              -0.000719691               0.000747761               0.999999985              -0.000653598               0.000619415               0.999999985              -0.000621492               0.000579811               0.999999985              -0.000607085               0.000573798               0.999999985              -0.000600673               0.000580360               0.999999985              -0.000596632               0.000590474               0.999999985              -0.000591588               0.000599253               0.999999985              -0.000583405               0.000604205               0.999999985              -0.000571018               0.000603975               0.999999985              -0.000554011               0.000598176               0.999999985              -0.000532355               0.000586936               0.999999985              -0.000506200               0.000570541               0.999999985              -0.000475877               0.000548761               0.999999985              -0.000441904               0.000521673               0.999999985              -0.000405198               0.000490396               0.999999985              -0.000366652               0.000456065               0.999999985              -0.000327089               0.000419971               0.999999985              -0.000663972               0.000854870               0.999999985              -0.000571928               0.000720522               0.999999985              -0.000535007               0.000682731               0.999999985              -0.000520998               0.000679470               0.999999985              -0.000514951               0.000688616               0.999999985              -0.000509799               0.000700527               0.999999985              -0.000501618               0.000710240               0.999999985              -0.000488359               0.000715203               0.999999985              -0.000468991               0.000714404               0.999999985              -0.000443529               0.000707930               0.999999985              -0.000412303               0.000695667               0.999999985              -0.000375708               0.000678072               0.999999985              -0.000334566               0.000655468               0.999999985              -0.000289886               0.000628393               0.999999985              -0.000242692               0.000598367               0.999999985              -0.000193940               0.000566643               0.999999985              -0.000144348               0.000534114               0.999999985              -0.000603361               0.000953199               0.999999985              -0.000488752               0.000820941               0.999999985              -0.000452540               0.000785218               0.999999985              -0.000441048               0.000784158               0.999999985              -0.000436241               0.000795319               0.999999985              -0.000429856               0.000808587               0.999999985              -0.000417983               0.000818873               0.999999985              -0.000398467               0.000823685               0.999999985              -0.000370947               0.000822312               0.999999985              -0.000335915               0.000814891               0.999999985              -0.000294070               0.000801561               0.999999985              -0.000246134               0.000782960               0.999999985              -0.000193450               0.000759771               0.999999985              -0.000137231               0.000733465               0.999999985              -0.000078564               0.000705765               0.999999985              -0.000018796               0.000677771               0.999999985               0.000041133               0.000649810               0.999999985              -0.000540655               0.001046408               0.999999985              -0.000418999               0.000933599               0.999999985              -0.000380071               0.000894010               0.999999985              -0.000368093               0.000887981               0.999999985              -0.000364038               0.000896243               0.999999985              -0.000359753               0.000909232               0.999999985              -0.000351050               0.000921995               0.999999985              -0.000335542               0.000931537               0.999999985              -0.000312545               0.000936623               0.999999985              -0.000282242               0.000936848               0.999999985              -0.000245177               0.000932223               0.999999985              -0.000201847               0.000922915               0.999999985              -0.000152804               0.000909438               0.999999985              -0.000098776               0.000892767               0.999999985              -0.000040971               0.000874176               0.999999985               0.000018964               0.000854631               0.999999985               0.000079432               0.000835306               0.999999985              -0.000472494               0.001131403               0.999999985              -0.000352019               0.001042740               0.999999985              -0.000310566               0.001005813               0.999999985              -0.000297133               0.000997224               0.999999985              -0.000293037               0.001003464               0.999999985              -0.000289946               0.001016446               0.999999985              -0.000283669               0.001031285               0.999999985              -0.000271737               0.001045105               0.999999985              -0.000253102               0.001056101               0.999999985              -0.000227660               0.001063340               0.999999985              -0.000195490               0.001066634               0.999999985              -0.000156822               0.001066007               0.999999985              -0.000112015               0.001061606               0.999999985              -0.000061290               0.001053950               0.999999985              -0.000005235               0.001043956               0.999999985               0.000054526               0.001032749               0.999999985               0.000116233               0.001021470               0.999999985              -0.000400111               0.001206197               0.999999985              -0.000287829               0.001145108               0.999999985              -0.000245788               0.001115435               0.999999985              -0.000230729               0.001107688               0.999999985              -0.000225795               0.001113521               0.999999985              -0.000223144               0.001126992               0.999999985              -0.000218474               0.001144026               0.999999985              -0.000209574               0.001161788               0.999999985              -0.000195070               0.001178273               0.999999985              -0.000174334               0.001192267               0.999999985              -0.000147109               0.001203208               0.999999985              -0.000113490               0.001210943               0.999999985              -0.000073548               0.001215400               0.999999985              -0.000027139               0.001216706               0.999999985               0.000025912               0.001215324               0.999999985               0.000084983               0.001212251               0.999999985               0.000148325               0.001208747               0.999999985              -0.000324250               0.001269318               0.999999985              -0.000226581               0.001236329               0.999999985              -0.000186666               0.001217304               0.999999985              -0.000170899               0.001213297               0.999999985              -0.000165016               0.001220623               0.999999985              -0.000162158               0.001235589               0.999999985              -0.000158633               0.001255106               0.999999985              -0.000152024               0.001276692               0.999999985              -0.000141000               0.001298494               0.999999985              -0.000124709               0.001319163               0.999999985              -0.000102708               0.001337726               0.999999985              -0.000074629               0.001353751               0.999999985              -0.000040359               0.001367145               0.999999985               0.000000543               0.001377646               0.999999985               0.000048947               0.001385543               0.999999985               0.000105307               0.001391226               0.999999985               0.000169239               0.001395706               0.999999985              -0.000245607               0.001319737               0.999999985              -0.000167783               0.001312376               0.999999985              -0.000133464               0.001305324               0.999999985              -0.000118652               0.001306959               0.999999985              -0.000112383               0.001317323               0.999999985              -0.000109441               0.001334646               0.999999985              -0.000106590               0.001356965               0.999999985              -0.000101667               0.001382289               0.999999985              -0.000093586               0.001409025               0.999999985              -0.000081657               0.001435869               0.999999985              -0.000065152               0.001461672               0.999999985              -0.000043411               0.001485737               0.999999985              -0.000016117               0.001507785               0.999999985               0.000017554               0.001527602               0.999999985               0.000058617               0.001545118               0.999999985               0.000108522               0.001560254               0.999999985               0.000168332               0.001573335               0.999999985              -0.000164920               0.001356469               0.999999985              -0.000110873               0.001369552               0.999999985              -0.000085605               0.001373529               0.999999985              -0.000073902               0.001381131               0.999999985              -0.000068537               0.001394970               0.999999985              -0.000065918               0.001414970               0.999999985              -0.000063751               0.001439902               0.999999985              -0.000060395               0.001468374               0.999999985              -0.000055085               0.001499064               0.999999985              -0.000047371               0.001530821               0.999999985              -0.000036520               0.001562778               0.999999985              -0.000021737               0.001594118               0.999999985              -0.000002614               0.001624211               0.999999985               0.000021656               0.001652785               0.999999985               0.000052030               0.001679408               0.999999985               0.000090045               0.001703659               0.999999985               0.000137982               0.001725221               0.999999985              -0.000082835               0.001378776               0.999999985              -0.000055166               0.001405082               0.999999985              -0.000041724               0.001416823               0.999999985              -0.000035230               0.001428915               0.999999985              -0.000032126               0.001445500               0.999999985              -0.000030548               0.001467485               0.999999985              -0.000029400               0.001494301               0.999999985              -0.000027665               0.001524882               0.999999985              -0.000025107               0.001558129               0.999999985              -0.000021198               0.001593072               0.999999985              -0.000015843               0.001629108               0.999999985              -0.000008453               0.001665557               0.999999985               0.000001437               0.001701679               0.999999985               0.000014123               0.001736907               0.999999985               0.000030385               0.001770489               0.999999985               0.000051287               0.001801721               0.999999985               0.000078348               0.001829808               0.999999985              -0.000000000               0.001386223               0.999999985               0.000000000               0.001417127               0.999999985              -0.000000000               0.001431658               0.999999985               0.000000000               0.001445367               0.999999985               0.000000000               0.001463014               0.999999985               0.000000000               0.001485713               0.999999985              -0.000000000               0.001513256               0.999999985              -0.000000000               0.001544747               0.999999985              -0.000000000               0.001578925               0.999999985              -0.000000000               0.001614980               0.999999985              -0.000000000               0.001652371               0.999999985               0.000000000               0.001690566               0.999999985              -0.000000000               0.001728932               0.999999985               0.000000000               0.001766618               0.999999985               0.000000000               0.001802765               0.999999985               0.000000000               0.001836719               0.999999985               0.000000000               0.001867419               0.999999985              -0.000888669               0.000000000               0.999999985              -0.000939033               0.000000000               0.999999985              -0.000960486               0.000000000               0.999999985              -0.000972683               0.000000000               0.999999985              -0.000982891               0.000000000               0.999999985              -0.000993556               0.000000000               0.999999985              -0.001005470              -0.000000000               0.999999985              -0.001018471              -0.000000000               0.999999985              -0.001032196              -0.000000000               0.999999985              -0.001046121              -0.000000000               0.999999985              -0.001059772              -0.000000000               0.999999985              -0.001072802               0.000000000               0.999999985              -0.001084949              -0.000000000               0.999999985              -0.001095930               0.000000000               0.999999985              -0.001105270              -0.000000000               0.999999985              -0.001112320              -0.000000000               0.999999985              -0.001116216              -0.000000000               0.999999985              -0.000883694              -0.000131456               0.999999985              -0.000929763              -0.000104540               0.999999985              -0.000948508              -0.000092287               0.999999985              -0.000958942              -0.000087475               0.999999985              -0.000967833              -0.000086357               0.999999985              -0.000977488              -0.000086933               0.999999985              -0.000988419              -0.000087914               0.999999985              -0.001000347              -0.000088633               0.999999985              -0.001012781              -0.000088381               0.999999985              -0.001025223              -0.000086954               0.999999985              -0.001037227              -0.000084115               0.999999985              -0.001048450              -0.000079648               0.999999985              -0.001058575              -0.000073473               0.999999985              -0.001067280              -0.000065004               0.999999985              -0.001074180              -0.000053468               0.999999985              -0.001078718              -0.000037882               0.999999985              -0.001080327              -0.000016979               0.999999985              -0.000868791              -0.000261758               0.999999985              -0.000902515              -0.000208662               0.999999985              -0.000913651              -0.000185610               0.999999985              -0.000919329              -0.000177005               0.999999985              -0.000924964              -0.000175499               0.999999985              -0.000931904              -0.000177018               0.999999985              -0.000940052              -0.000179410               0.999999985              -0.000948976              -0.000180870               0.999999985              -0.000958065              -0.000180690               0.999999985              -0.000966780              -0.000178059               0.999999985              -0.000974565              -0.000172648               0.999999985              -0.000981116              -0.000164180               0.999999985              -0.000986144              -0.000152529               0.999999985              -0.000989253              -0.000136891               0.999999985              -0.000990167              -0.000115776               0.999999985              -0.000988621              -0.000088296               0.999999985              -0.000984434              -0.000053097               0.999999985              -0.000844187              -0.000389718               0.999999985              -0.000858607              -0.000312259               0.999999985              -0.000858849              -0.000280723               0.999999985              -0.000858198              -0.000270155               0.999999985              -0.000859604              -0.000269364               0.999999985              -0.000862992              -0.000272550               0.999999985              -0.000867628              -0.000276466               0.999999985              -0.000872597              -0.000279148               0.999999985              -0.000877134              -0.000279115               0.999999985              -0.000880440              -0.000275544               0.999999985              -0.000882223              -0.000268093               0.999999985              -0.000882218              -0.000256595               0.999999985              -0.000880093              -0.000240769               0.999999985              -0.000875585              -0.000219677               0.999999985              -0.000868341              -0.000192243               0.999999985              -0.000858438              -0.000157987               0.999999985              -0.000846273              -0.000116166               0.999999985              -0.000810678              -0.000514059               0.999999985              -0.000800402              -0.000415264               0.999999985              -0.000788383              -0.000378185               0.999999985              -0.000781372              -0.000367695               0.999999985              -0.000778787              -0.000368761               0.999999985              -0.000778947              -0.000374104               0.999999985              -0.000780031              -0.000379896               0.999999985              -0.000780746              -0.000383648               0.999999985              -0.000779997              -0.000383796               0.999999985              -0.000777249              -0.000379349               0.999999985              -0.000772067              -0.000370386               0.999999985              -0.000764248              -0.000356708               0.999999985              -0.000753609              -0.000338013               0.999999985              -0.000739904              -0.000313490               0.999999985              -0.000723276              -0.000282755               0.999999985              -0.000704142              -0.000245976               0.999999985              -0.000683133              -0.000203452               0.999999985              -0.000768915              -0.000633756               0.999999985              -0.000730958              -0.000517621               0.999999985              -0.000707564              -0.000477991               0.999999985              -0.000695611              -0.000469287               0.999999985              -0.000690290              -0.000472966               0.999999985              -0.000687853              -0.000480852               0.999999985              -0.000685748              -0.000488290               0.999999985              -0.000682152              -0.000492864               0.999999985              -0.000675882              -0.000492879               0.999999985              -0.000666379              -0.000487787               0.999999985              -0.000653328              -0.000477523               0.999999985              -0.000636760              -0.000462381               0.999999985              -0.000616709              -0.000441805               0.999999985              -0.000593121              -0.000415390               0.999999985              -0.000566580              -0.000383698               0.999999985              -0.000537804              -0.000347442               0.999999985              -0.000507613              -0.000307606               0.999999985              -0.000719691              -0.000747761               0.999999985              -0.000653598              -0.000619415               0.999999985              -0.000621492              -0.000579811               0.999999985              -0.000607085              -0.000573798               0.999999985              -0.000600673              -0.000580360               0.999999985              -0.000596632              -0.000590474               0.999999985              -0.000591588              -0.000599253               0.999999985              -0.000583405              -0.000604205               0.999999985              -0.000571018              -0.000603975               0.999999985              -0.000554011              -0.000598176               0.999999985              -0.000532355              -0.000586936               0.999999985              -0.000506200              -0.000570541               0.999999985              -0.000475877              -0.000548761               0.999999985              -0.000441904              -0.000521673               0.999999985              -0.000405198              -0.000490396               0.999999985              -0.000366652              -0.000456065               0.999999985              -0.000327089              -0.000419971               0.999999985              -0.000663972              -0.000854870               0.999999985              -0.000571928              -0.000720522               0.999999985              -0.000535007              -0.000682731               0.999999985              -0.000520998              -0.000679470               0.999999985              -0.000514951              -0.000688616               0.999999985              -0.000509799              -0.000700527               0.999999985              -0.000501618              -0.000710240               0.999999985              -0.000488359              -0.000715203               0.999999985              -0.000468991              -0.000714404               0.999999985              -0.000443529              -0.000707930               0.999999985              -0.000412303              -0.000695667               0.999999985              -0.000375708              -0.000678072               0.999999985              -0.000334566              -0.000655468               0.999999985              -0.000289886              -0.000628393               0.999999985              -0.000242692              -0.000598367               0.999999985              -0.000193940              -0.000566643               0.999999985              -0.000144348              -0.000534114               0.999999985              -0.000603361              -0.000953199               0.999999985              -0.000488752              -0.000820941               0.999999985              -0.000452540              -0.000785218               0.999999985              -0.000441048              -0.000784158               0.999999985              -0.000436241              -0.000795319               0.999999985              -0.000429856              -0.000808587               0.999999985              -0.000417983              -0.000818873               0.999999985              -0.000398467              -0.000823685               0.999999985              -0.000370947              -0.000822312               0.999999985              -0.000335915              -0.000814891               0.999999985              -0.000294070              -0.000801561               0.999999985              -0.000246134              -0.000782960               0.999999985              -0.000193450              -0.000759771               0.999999985              -0.000137231              -0.000733465               0.999999985              -0.000078564              -0.000705765               0.999999985              -0.000018796              -0.000677771               0.999999985               0.000041133              -0.000649810               0.999999985              -0.000540655              -0.001046408               0.999999985              -0.000418999              -0.000933599               0.999999985              -0.000380071              -0.000894010               0.999999985              -0.000368093              -0.000887981               0.999999985              -0.000364038              -0.000896243               0.999999985              -0.000359753              -0.000909232               0.999999985              -0.000351050              -0.000921995               0.999999985              -0.000335542              -0.000931537               0.999999985              -0.000312545              -0.000936623               0.999999985              -0.000282242              -0.000936848               0.999999985              -0.000245177              -0.000932223               0.999999985              -0.000201847              -0.000922915               0.999999985              -0.000152804              -0.000909438               0.999999985              -0.000098776              -0.000892767               0.999999985              -0.000040971              -0.000874176               0.999999985               0.000018964              -0.000854631               0.999999985               0.000079432              -0.000835306               0.999999985              -0.000472494              -0.001131403               0.999999985              -0.000352019              -0.001042740               0.999999985              -0.000310566              -0.001005813               0.999999985              -0.000297133              -0.000997224               0.999999985              -0.000293037              -0.001003464               0.999999985              -0.000289946              -0.001016446               0.999999985              -0.000283669              -0.001031285               0.999999985              -0.000271737              -0.001045105               0.999999985              -0.000253102              -0.001056101               0.999999985              -0.000227660              -0.001063340               0.999999985              -0.000195490              -0.001066634               0.999999985              -0.000156822              -0.001066007               0.999999985              -0.000112015              -0.001061606               0.999999985              -0.000061290              -0.001053950               0.999999985              -0.000005235              -0.001043956               0.999999985               0.000054526              -0.001032749               0.999999985               0.000116233              -0.001021470               0.999999985              -0.000400111              -0.001206197               0.999999985              -0.000287829              -0.001145108               0.999999985              -0.000245788              -0.001115435               0.999999985              -0.000230729              -0.001107688               0.999999985              -0.000225795              -0.001113521               0.999999985              -0.000223144              -0.001126992               0.999999985              -0.000218474              -0.001144026               0.999999985              -0.000209574              -0.001161788               0.999999985              -0.000195070              -0.001178273               0.999999985              -0.000174334              -0.001192267               0.999999985              -0.000147109              -0.001203208               0.999999985              -0.000113490              -0.001210943               0.999999985              -0.000073548              -0.001215400               0.999999985              -0.000027139              -0.001216706               0.999999985               0.000025912              -0.001215324               0.999999985               0.000084983              -0.001212251               0.999999985               0.000148325              -0.001208747               0.999999985              -0.000324250              -0.001269318               0.999999985              -0.000226581              -0.001236329               0.999999985              -0.000186666              -0.001217304               0.999999985              -0.000170899              -0.001213297               0.999999985              -0.000165016              -0.001220623               0.999999985              -0.000162158              -0.001235589               0.999999985              -0.000158633              -0.001255106               0.999999985              -0.000152024              -0.001276692               0.999999985              -0.000141000              -0.001298494               0.999999985              -0.000124709              -0.001319163               0.999999985              -0.000102708              -0.001337726               0.999999985              -0.000074629              -0.001353751               0.999999985              -0.000040359              -0.001367145               0.999999985               0.000000543              -0.001377646               0.999999985               0.000048947              -0.001385543               0.999999985               0.000105307              -0.001391226               0.999999985               0.000169239              -0.001395706               0.999999985              -0.000245607              -0.001319737               0.999999985              -0.000167783              -0.001312376               0.999999985              -0.000133464              -0.001305324               0.999999985              -0.000118652              -0.001306959               0.999999985              -0.000112383              -0.001317323               0.999999985              -0.000109441              -0.001334646               0.999999985              -0.000106590              -0.001356965               0.999999985              -0.000101667              -0.001382289               0.999999985              -0.000093586              -0.001409025               0.999999985              -0.000081657              -0.001435869               0.999999985              -0.000065152              -0.001461672               0.999999985              -0.000043411              -0.001485737               0.999999985              -0.000016117              -0.001507785               0.999999985               0.000017554              -0.001527602               0.999999985               0.000058617              -0.001545118               0.999999985               0.000108522              -0.001560254               0.999999985               0.000168332              -0.001573335               0.999999985              -0.000164920              -0.001356469               0.999999985              -0.000110873              -0.001369552               0.999999985              -0.000085605              -0.001373529               0.999999985              -0.000073902              -0.001381131               0.999999985              -0.000068537              -0.001394970               0.999999985              -0.000065918              -0.001414970               0.999999985              -0.000063751              -0.001439902               0.999999985              -0.000060395              -0.001468374               0.999999985              -0.000055085              -0.001499064               0.999999985              -0.000047371              -0.001530821               0.999999985              -0.000036520              -0.001562778               0.999999985              -0.000021737              -0.001594118               0.999999985              -0.000002614              -0.001624211               0.999999985               0.000021656              -0.001652785               0.999999985               0.000052030              -0.001679408               0.999999985               0.000090045              -0.001703659               0.999999985               0.000137982              -0.001725221               0.999999985              -0.000082835              -0.001378776               0.999999985              -0.000055166              -0.001405082               0.999999985              -0.000041724              -0.001416823               0.999999985              -0.000035230              -0.001428915               0.999999985              -0.000032126              -0.001445500               0.999999985              -0.000030548              -0.001467485               0.999999985              -0.000029400              -0.001494301               0.999999985              -0.000027665              -0.001524882               0.999999985              -0.000025107              -0.001558129               0.999999985              -0.000021198              -0.001593072               0.999999985              -0.000015843              -0.001629108               0.999999985              -0.000008453              -0.001665557               0.999999985               0.000001437              -0.001701679               0.999999985               0.000014123              -0.001736907               0.999999985               0.000030385              -0.001770489               0.999999985               0.000051287              -0.001801721               0.999999985               0.000078348              -0.001829808               0.999999985              -0.000000000              -0.001386223               0.999999985              -0.000000000              -0.001417127               0.999999985              -0.000000000              -0.001431658               0.999999985              -0.000000000              -0.001445367               0.999999985              -0.000000000              -0.001463014               0.999999985               0.000000000              -0.001485713               0.999999985              -0.000000000              -0.001513256               0.999999985               0.000000000              -0.001544747               0.999999985               0.000000000              -0.001578925               0.999999985              -0.000000000              -0.001614980               0.999999985               0.000000000              -0.001652371               0.999999985              -0.000000000              -0.001690566               0.999999985              -0.000000000              -0.001728932               0.999999985               0.000000000              -0.001766618               0.999999985               0.000000000              -0.001802765               0.999999985               0.000000000              -0.001836719               0.999999985               0.000000000              -0.001867419               0.999999985               0.000888669              -0.000000000               0.999999985               0.000939033               0.000000000               0.999999985               0.000960486               0.000000000               0.999999985               0.000972683               0.000000000               0.999999985               0.000982891               0.000000000               0.999999985               0.000993556               0.000000000               0.999999985               0.001005470              -0.000000000               0.999999985               0.001018471              -0.000000000               0.999999985               0.001032196               0.000000000               0.999999985               0.001046121              -0.000000000               0.999999985               0.001059772               0.000000000               0.999999985               0.001072802               0.000000000               0.999999985               0.001084949               0.000000000               0.999999985               0.001095930               0.000000000               0.999999985               0.001105270               0.000000000               0.999999985               0.001112320               0.000000000               0.999999985               0.001116216               0.000000000               0.999999985               0.000883694              -0.000131456               0.999999985               0.000929763              -0.000104540               0.999999985               0.000948508              -0.000092287               0.999999985               0.000958942              -0.000087475               0.999999985               0.000967833              -0.000086357               0.999999985               0.000977488              -0.000086933               0.999999985               0.000988419              -0.000087914               0.999999985               0.001000347              -0.000088633               0.999999985               0.001012781              -0.000088381               0.999999985               0.001025223              -0.000086954               0.999999985               0.001037227              -0.000084115               0.999999985               0.001048450              -0.000079648               0.999999985               0.001058575              -0.000073473               0.999999985               0.001067280              -0.000065004               0.999999985               0.001074180              -0.000053468               0.999999985               0.001078718              -0.000037882               0.999999985               0.001080327              -0.000016979               0.999999985               0.000868791              -0.000261758               0.999999985               0.000902515              -0.000208662               0.999999985               0.000913651              -0.000185610               0.999999985               0.000919329              -0.000177005               0.999999985               0.000924964              -0.000175499               0.999999985               0.000931904              -0.000177018               0.999999985               0.000940052              -0.000179410               0.999999985               0.000948976              -0.000180870               0.999999985               0.000958065              -0.000180690               0.999999985               0.000966780              -0.000178059               0.999999985               0.000974565              -0.000172648               0.999999985               0.000981116              -0.000164180               0.999999985               0.000986144              -0.000152529               0.999999985               0.000989253              -0.000136891               0.999999985               0.000990167              -0.000115776               0.999999985               0.000988621              -0.000088296               0.999999985               0.000984434              -0.000053097               0.999999985               0.000844187              -0.000389718               0.999999985               0.000858607              -0.000312259               0.999999985               0.000858849              -0.000280723               0.999999985               0.000858198              -0.000270155               0.999999985               0.000859604              -0.000269364               0.999999985               0.000862992              -0.000272550               0.999999985               0.000867628              -0.000276466               0.999999985               0.000872597              -0.000279148               0.999999985               0.000877134              -0.000279115               0.999999985               0.000880440              -0.000275544               0.999999985               0.000882223              -0.000268093               0.999999985               0.000882218              -0.000256595               0.999999985               0.000880093              -0.000240769               0.999999985               0.000875585              -0.000219677               0.999999985               0.000868341              -0.000192243               0.999999985               0.000858438              -0.000157987               0.999999985               0.000846273              -0.000116166               0.999999985               0.000810678              -0.000514059               0.999999985               0.000800402              -0.000415264               0.999999985               0.000788383              -0.000378185               0.999999985               0.000781372              -0.000367695               0.999999985               0.000778787              -0.000368761               0.999999985               0.000778947              -0.000374104               0.999999985               0.000780031              -0.000379896               0.999999985               0.000780746              -0.000383648               0.999999985               0.000779997              -0.000383796               0.999999985               0.000777249              -0.000379349               0.999999985               0.000772067              -0.000370386               0.999999985               0.000764248              -0.000356708               0.999999985               0.000753609              -0.000338013               0.999999985               0.000739904              -0.000313490               0.999999985               0.000723276              -0.000282755               0.999999985               0.000704142              -0.000245976               0.999999985               0.000683133              -0.000203452               0.999999985               0.000768915              -0.000633756               0.999999985               0.000730958              -0.000517621               0.999999985               0.000707564              -0.000477991               0.999999985               0.000695611              -0.000469287               0.999999985               0.000690290              -0.000472966               0.999999985               0.000687853              -0.000480852               0.999999985               0.000685748              -0.000488290               0.999999985               0.000682152              -0.000492864               0.999999985               0.000675882              -0.000492879               0.999999985               0.000666379              -0.000487787               0.999999985               0.000653328              -0.000477523               0.999999985               0.000636760              -0.000462381               0.999999985               0.000616709              -0.000441805               0.999999985               0.000593121              -0.000415390               0.999999985               0.000566580              -0.000383698               0.999999985               0.000537804              -0.000347442               0.999999985               0.000507613              -0.000307606               0.999999985               0.000719691              -0.000747761               0.999999985               0.000653598              -0.000619415               0.999999985               0.000621492              -0.000579811               0.999999985               0.000607085              -0.000573798               0.999999985               0.000600673              -0.000580360               0.999999985               0.000596632              -0.000590474               0.999999985               0.000591588              -0.000599253               0.999999985               0.000583405              -0.000604205               0.999999985               0.000571018              -0.000603975               0.999999985               0.000554011              -0.000598176               0.999999985               0.000532355              -0.000586936               0.999999985               0.000506200              -0.000570541               0.999999985               0.000475877              -0.000548761               0.999999985               0.000441904              -0.000521673               0.999999985               0.000405198              -0.000490396               0.999999985               0.000366652              -0.000456065               0.999999985               0.000327089              -0.000419971               0.999999985               0.000663972              -0.000854870               0.999999985               0.000571928              -0.000720522               0.999999985               0.000535007              -0.000682731               0.999999985               0.000520998              -0.000679470               0.999999985               0.000514951              -0.000688616               0.999999985               0.000509799              -0.000700527               0.999999985               0.000501618              -0.000710240               0.999999985               0.000488359              -0.000715203               0.999999985               0.000468991              -0.000714404               0.999999985               0.000443529              -0.000707930               0.999999985               0.000412303              -0.000695667               0.999999985               0.000375708              -0.000678072               0.999999985               0.000334566              -0.000655468               0.999999985               0.000289886              -0.000628393               0.999999985               0.000242692              -0.000598367               0.999999985               0.000193940              -0.000566643               0.999999985               0.000144348              -0.000534114               0.999999985               0.000603361              -0.000953199               0.999999985               0.000488752              -0.000820941               0.999999985               0.000452540              -0.000785218               0.999999985               0.000441048              -0.000784158               0.999999985               0.000436241              -0.000795319               0.999999985               0.000429856              -0.000808587               0.999999985               0.000417983              -0.000818873               0.999999985               0.000398467              -0.000823685               0.999999985               0.000370947              -0.000822312               0.999999985               0.000335915              -0.000814891               0.999999985               0.000294070              -0.000801561               0.999999985               0.000246134              -0.000782960               0.999999985               0.000193450              -0.000759771               0.999999985               0.000137231              -0.000733465               0.999999985               0.000078564              -0.000705765               0.999999985               0.000018796              -0.000677771               0.999999985              -0.000041133              -0.000649810               0.999999985               0.000540655              -0.001046408               0.999999985               0.000418999              -0.000933599               0.999999985               0.000380071              -0.000894010               0.999999985               0.000368093              -0.000887981               0.999999985               0.000364038              -0.000896243               0.999999985               0.000359753              -0.000909232               0.999999985               0.000351050              -0.000921995               0.999999985               0.000335542              -0.000931537               0.999999985               0.000312545              -0.000936623               0.999999985               0.000282242              -0.000936848               0.999999985               0.000245177              -0.000932223               0.999999985               0.000201847              -0.000922915               0.999999985               0.000152804              -0.000909438               0.999999985               0.000098776              -0.000892767               0.999999985               0.000040971              -0.000874176               0.999999985              -0.000018964              -0.000854631               0.999999985              -0.000079432              -0.000835306               0.999999985               0.000472494              -0.001131403               0.999999985               0.000352019              -0.001042740               0.999999985               0.000310566              -0.001005813               0.999999985               0.000297133              -0.000997224               0.999999985               0.000293037              -0.001003464               0.999999985               0.000289946              -0.001016446               0.999999985               0.000283669              -0.001031285               0.999999985               0.000271737              -0.001045105               0.999999985               0.000253102              -0.001056101               0.999999985               0.000227660              -0.001063340               0.999999985               0.000195490              -0.001066634               0.999999985               0.000156822              -0.001066007               0.999999985               0.000112015              -0.001061606               0.999999985               0.000061290              -0.001053950               0.999999985               0.000005235              -0.001043956               0.999999985              -0.000054526              -0.001032749               0.999999985              -0.000116233              -0.001021470               0.999999985               0.000400111              -0.001206197               0.999999985               0.000287829              -0.001145108               0.999999985               0.000245788              -0.001115435               0.999999985               0.000230729              -0.001107688               0.999999985               0.000225795              -0.001113521               0.999999985               0.000223144              -0.001126992               0.999999985               0.000218474              -0.001144026               0.999999985               0.000209574              -0.001161788               0.999999985               0.000195070              -0.001178273               0.999999985               0.000174334              -0.001192267               0.999999985               0.000147109              -0.001203208               0.999999985               0.000113490              -0.001210943               0.999999985               0.000073548              -0.001215400               0.999999985               0.000027139              -0.001216706               0.999999985              -0.000025912              -0.001215324               0.999999985              -0.000084983              -0.001212251               0.999999985              -0.000148325              -0.001208747               0.999999985               0.000324250              -0.001269318               0.999999985               0.000226581              -0.001236329               0.999999985               0.000186666              -0.001217304               0.999999985               0.000170899              -0.001213297               0.999999985               0.000165016              -0.001220623               0.999999985               0.000162158              -0.001235589               0.999999985               0.000158633              -0.001255106               0.999999985               0.000152024              -0.001276692               0.999999985               0.000141000              -0.001298494               0.999999985               0.000124709              -0.001319163               0.999999985               0.000102708              -0.001337726               0.999999985               0.000074629              -0.001353751               0.999999985               0.000040359              -0.001367145               0.999999985              -0.000000543              -0.001377646               0.999999985              -0.000048947              -0.001385543               0.999999985              -0.000105307              -0.001391226               0.999999985              -0.000169239              -0.001395706               0.999999985               0.000245607              -0.001319737               0.999999985               0.000167783              -0.001312376               0.999999985               0.000133464              -0.001305324               0.999999985               0.000118652              -0.001306959               0.999999985               0.000112383              -0.001317323               0.999999985               0.000109441              -0.001334646               0.999999985               0.000106590              -0.001356965               0.999999985               0.000101667              -0.001382289               0.999999985               0.000093586              -0.001409025               0.999999985               0.000081657              -0.001435869               0.999999985               0.000065152              -0.001461672               0.999999985               0.000043411              -0.001485737               0.999999985               0.000016117              -0.001507785               0.999999985              -0.000017554              -0.001527602               0.999999985              -0.000058617              -0.001545118               0.999999985              -0.000108522              -0.001560254               0.999999985              -0.000168332              -0.001573335               0.999999985               0.000164920              -0.001356469               0.999999985               0.000110873              -0.001369552               0.999999985               0.000085605              -0.001373529               0.999999985               0.000073902              -0.001381131               0.999999985               0.000068537              -0.001394970               0.999999985               0.000065918              -0.001414970               0.999999985               0.000063751              -0.001439902               0.999999985               0.000060395              -0.001468374               0.999999985               0.000055085              -0.001499064               0.999999985               0.000047371              -0.001530821               0.999999985               0.000036520              -0.001562778               0.999999985               0.000021737              -0.001594118               0.999999985               0.000002614              -0.001624211               0.999999985              -0.000021656              -0.001652785               0.999999985              -0.000052030              -0.001679408               0.999999985              -0.000090045              -0.001703659               0.999999985              -0.000137982              -0.001725221               0.999999985               0.000082835              -0.001378776               0.999999985               0.000055166              -0.001405082               0.999999985               0.000041724              -0.001416823               0.999999985               0.000035230              -0.001428915               0.999999985               0.000032126              -0.001445500               0.999999985               0.000030548              -0.001467485               0.999999985               0.000029400              -0.001494301               0.999999985               0.000027665              -0.001524882               0.999999985               0.000025107              -0.001558129               0.999999985               0.000021198              -0.001593072               0.999999985               0.000015843              -0.001629108               0.999999985               0.000008453              -0.001665557               0.999999985              -0.000001437              -0.001701679               0.999999985              -0.000014123              -0.001736907               0.999999985              -0.000030385              -0.001770489               0.999999985              -0.000051287              -0.001801721               0.999999985              -0.000078348              -0.001829808               0.999999985              -0.000000000              -0.001386223               0.999999985              -0.000000000              -0.001417127               0.999999985              -0.000000000              -0.001431658               0.999999985              -0.000000000              -0.001445367               0.999999985              -0.000000000              -0.001463014               0.999999985               0.000000000              -0.001485713               0.999999985              -0.000000000              -0.001513256               0.999999985               0.000000000              -0.001544747               0.999999985               0.000000000              -0.001578925               0.999999985              -0.000000000              -0.001614980               0.999999985               0.000000000              -0.001652371               0.999999985              -0.000000000              -0.001690566               0.999999985              -0.000000000              -0.001728932               0.999999985               0.000000000              -0.001766618               0.999999985               0.000000000              -0.001802765               0.999999985               0.000000000              -0.001836719               0.999999985               0.000000000              -0.001867419               0.999999985               0.000888669              -0.000000000               0.999999985               0.000939033               0.000000000               0.999999985               0.000960486               0.000000000               0.999999985               0.000972683               0.000000000               0.999999985               0.000982891               0.000000000               0.999999985               0.000993556               0.000000000               0.999999985               0.001005470              -0.000000000               0.999999985               0.001018471              -0.000000000               0.999999985               0.001032196               0.000000000               0.999999985               0.001046121              -0.000000000               0.999999985               0.001059772               0.000000000               0.999999985               0.001072802               0.000000000               0.999999985               0.001084949               0.000000000               0.999999985               0.001095930               0.000000000               0.999999985               0.001105270               0.000000000               0.999999985               0.001112320               0.000000000               0.999999985               0.001116216               0.000000000               0.999999985               0.000883694               0.000131456               0.999999985               0.000929763               0.000104540               0.999999985               0.000948508               0.000092287               0.999999985               0.000958942               0.000087475               0.999999985               0.000967833               0.000086357               0.999999985               0.000977488               0.000086933               0.999999985               0.000988419               0.000087914               0.999999985               0.001000347               0.000088633               0.999999985               0.001012781               0.000088381               0.999999985               0.001025223               0.000086954               0.999999985               0.001037227               0.000084115               0.999999985               0.001048450               0.000079648               0.999999985               0.001058575               0.000073473               0.999999985               0.001067280               0.000065004               0.999999985               0.001074180               0.000053468               0.999999985               0.001078718               0.000037882               0.999999985               0.001080327               0.000016979               0.999999985               0.000868791               0.000261758               0.999999985               0.000902515               0.000208662               0.999999985               0.000913651               0.000185610               0.999999985               0.000919329               0.000177005               0.999999985               0.000924964               0.000175499               0.999999985               0.000931904               0.000177018               0.999999985               0.000940052               0.000179410               0.999999985               0.000948976               0.000180870               0.999999985               0.000958065               0.000180690               0.999999985               0.000966780               0.000178059               0.999999985               0.000974565               0.000172648               0.999999985               0.000981116               0.000164180               0.999999985               0.000986144               0.000152529               0.999999985               0.000989253               0.000136891               0.999999985               0.000990167               0.000115776               0.999999985               0.000988621               0.000088296               0.999999985               0.000984434               0.000053097               0.999999985               0.000844187               0.000389718               0.999999985               0.000858607               0.000312259               0.999999985               0.000858849               0.000280723               0.999999985               0.000858198               0.000270155               0.999999985               0.000859604               0.000269364               0.999999985               0.000862992               0.000272550               0.999999985               0.000867628               0.000276466               0.999999985               0.000872597               0.000279148               0.999999985               0.000877134               0.000279115               0.999999985               0.000880440               0.000275544               0.999999985               0.000882223               0.000268093               0.999999985               0.000882218               0.000256595               0.999999985               0.000880093               0.000240769               0.999999985               0.000875585               0.000219677               0.999999985               0.000868341               0.000192243               0.999999985               0.000858438               0.000157987               0.999999985               0.000846273               0.000116166               0.999999985               0.000810678               0.000514059               0.999999985               0.000800402               0.000415264               0.999999985               0.000788383               0.000378185               0.999999985               0.000781372               0.000367695               0.999999985               0.000778787               0.000368761               0.999999985               0.000778947               0.000374104               0.999999985               0.000780031               0.000379896               0.999999985               0.000780746               0.000383648               0.999999985               0.000779997               0.000383796               0.999999985               0.000777249               0.000379349               0.999999985               0.000772067               0.000370386               0.999999985               0.000764248               0.000356708               0.999999985               0.000753609               0.000338013               0.999999985               0.000739904               0.000313490               0.999999985               0.000723276               0.000282755               0.999999985               0.000704142               0.000245976               0.999999985               0.000683133               0.000203452               0.999999985               0.000768915               0.000633756               0.999999985               0.000730958               0.000517621               0.999999985               0.000707564               0.000477991               0.999999985               0.000695611               0.000469287               0.999999985               0.000690290               0.000472966               0.999999985               0.000687853               0.000480852               0.999999985               0.000685748               0.000488290               0.999999985               0.000682152               0.000492864               0.999999985               0.000675882               0.000492879               0.999999985               0.000666379               0.000487787               0.999999985               0.000653328               0.000477523               0.999999985               0.000636760               0.000462381               0.999999985               0.000616709               0.000441805               0.999999985               0.000593121               0.000415390               0.999999985               0.000566580               0.000383698               0.999999985               0.000537804               0.000347442               0.999999985               0.000507613               0.000307606               0.999999985               0.000719691               0.000747761               0.999999985               0.000653598               0.000619415               0.999999985               0.000621492               0.000579811               0.999999985               0.000607085               0.000573798               0.999999985               0.000600673               0.000580360               0.999999985               0.000596632               0.000590474               0.999999985               0.000591588               0.000599253               0.999999985               0.000583405               0.000604205               0.999999985               0.000571018               0.000603975               0.999999985               0.000554011               0.000598176               0.999999985               0.000532355               0.000586936               0.999999985               0.000506200               0.000570541               0.999999985               0.000475877               0.000548761               0.999999985               0.000441904               0.000521673               0.999999985               0.000405198               0.000490396               0.999999985               0.000366652               0.000456065               0.999999985               0.000327089               0.000419971               0.999999985               0.000663972               0.000854870               0.999999985               0.000571928               0.000720522               0.999999985               0.000535007               0.000682731               0.999999985               0.000520998               0.000679470               0.999999985               0.000514951               0.000688616               0.999999985               0.000509799               0.000700527               0.999999985               0.000501618               0.000710240               0.999999985               0.000488359               0.000715203               0.999999985               0.000468991               0.000714404               0.999999985               0.000443529               0.000707930               0.999999985               0.000412303               0.000695667               0.999999985               0.000375708               0.000678072               0.999999985               0.000334566               0.000655468               0.999999985               0.000289886               0.000628393               0.999999985               0.000242692               0.000598367               0.999999985               0.000193940               0.000566643               0.999999985               0.000144348               0.000534114               0.999999985               0.000603361               0.000953199               0.999999985               0.000488752               0.000820941               0.999999985               0.000452540               0.000785218               0.999999985               0.000441048               0.000784158               0.999999985               0.000436241               0.000795319               0.999999985               0.000429856               0.000808587               0.999999985               0.000417983               0.000818873               0.999999985               0.000398467               0.000823685               0.999999985               0.000370947               0.000822312               0.999999985               0.000335915               0.000814891               0.999999985               0.000294070               0.000801561               0.999999985               0.000246134               0.000782960               0.999999985               0.000193450               0.000759771               0.999999985               0.000137231               0.000733465               0.999999985               0.000078564               0.000705765               0.999999985               0.000018796               0.000677771               0.999999985              -0.000041133               0.000649810               0.999999985               0.000540655               0.001046408               0.999999985               0.000418999               0.000933599               0.999999985               0.000380071               0.000894010               0.999999985               0.000368093               0.000887981               0.999999985               0.000364038               0.000896243               0.999999985               0.000359753               0.000909232               0.999999985               0.000351050               0.000921995               0.999999985               0.000335542               0.000931537               0.999999985               0.000312545               0.000936623               0.999999985               0.000282242               0.000936848               0.999999985               0.000245177               0.000932223               0.999999985               0.000201847               0.000922915               0.999999985               0.000152804               0.000909438               0.999999985               0.000098776               0.000892767               0.999999985               0.000040971               0.000874176               0.999999985              -0.000018964               0.000854631               0.999999985              -0.000079432               0.000835306               0.999999985               0.000472494               0.001131403               0.999999985               0.000352019               0.001042740               0.999999985               0.000310566               0.001005813               0.999999985               0.000297133               0.000997224               0.999999985               0.000293037               0.001003464               0.999999985               0.000289946               0.001016446               0.999999985               0.000283669               0.001031285               0.999999985               0.000271737               0.001045105               0.999999985               0.000253102               0.001056101               0.999999985               0.000227660               0.001063340               0.999999985               0.000195490               0.001066634               0.999999985               0.000156822               0.001066007               0.999999985               0.000112015               0.001061606               0.999999985               0.000061290               0.001053950               0.999999985               0.000005235               0.001043956               0.999999985              -0.000054526               0.001032749               0.999999985              -0.000116233               0.001021470               0.999999985               0.000400111               0.001206197               0.999999985               0.000287829               0.001145108               0.999999985               0.000245788               0.001115435               0.999999985               0.000230729               0.001107688               0.999999985               0.000225795               0.001113521               0.999999985               0.000223144               0.001126992               0.999999985               0.000218474               0.001144026               0.999999985               0.000209574               0.001161788               0.999999985               0.000195070               0.001178273               0.999999985               0.000174334               0.001192267               0.999999985               0.000147109               0.001203208               0.999999985               0.000113490               0.001210943               0.999999985               0.000073548               0.001215400               0.999999985               0.000027139               0.001216706               0.999999985              -0.000025912               0.001215324               0.999999985              -0.000084983               0.001212251               0.999999985              -0.000148325               0.001208747               0.999999985               0.000324250               0.001269318               0.999999985               0.000226581               0.001236329               0.999999985               0.000186666               0.001217304               0.999999985               0.000170899               0.001213297               0.999999985               0.000165016               0.001220623               0.999999985               0.000162158               0.001235589               0.999999985               0.000158633               0.001255106               0.999999985               0.000152024               0.001276692               0.999999985               0.000141000               0.001298494               0.999999985               0.000124709               0.001319163               0.999999985               0.000102708               0.001337726               0.999999985               0.000074629               0.001353751               0.999999985               0.000040359               0.001367145               0.999999985              -0.000000543               0.001377646               0.999999985              -0.000048947               0.001385543               0.999999985              -0.000105307               0.001391226               0.999999985              -0.000169239               0.001395706               0.999999985               0.000245607               0.001319737               0.999999985               0.000167783               0.001312376               0.999999985               0.000133464               0.001305324               0.999999985               0.000118652               0.001306959               0.999999985               0.000112383               0.001317323               0.999999985               0.000109441               0.001334646               0.999999985               0.000106590               0.001356965               0.999999985               0.000101667               0.001382289               0.999999985               0.000093586               0.001409025               0.999999985               0.000081657               0.001435869               0.999999985               0.000065152               0.001461672               0.999999985               0.000043411               0.001485737               0.999999985               0.000016117               0.001507785               0.999999985              -0.000017554               0.001527602               0.999999985              -0.000058617               0.001545118               0.999999985              -0.000108522               0.001560254               0.999999985              -0.000168332               0.001573335               0.999999985               0.000164920               0.001356469               0.999999985               0.000110873               0.001369552               0.999999985               0.000085605               0.001373529               0.999999985               0.000073902               0.001381131               0.999999985               0.000068537               0.001394970               0.999999985               0.000065918               0.001414970               0.999999985               0.000063751               0.001439902               0.999999985               0.000060395               0.001468374               0.999999985               0.000055085               0.001499064               0.999999985               0.000047371               0.001530821               0.999999985               0.000036520               0.001562778               0.999999985               0.000021737               0.001594118               0.999999985               0.000002614               0.001624211               0.999999985              -0.000021656               0.001652785               0.999999985              -0.000052030               0.001679408               0.999999985              -0.000090045               0.001703659               0.999999985              -0.000137982               0.001725221               0.999999985               0.000082835               0.001378776               0.999999985               0.000055166               0.001405082               0.999999985               0.000041724               0.001416823               0.999999985               0.000035230               0.001428915               0.999999985               0.000032126               0.001445500               0.999999985               0.000030548               0.001467485               0.999999985               0.000029400               0.001494301               0.999999985               0.000027665               0.001524882               0.999999985               0.000025107               0.001558129               0.999999985               0.000021198               0.001593072               0.999999985               0.000015843               0.001629108               0.999999985               0.000008453               0.001665557               0.999999985              -0.000001437               0.001701679               0.999999985              -0.000014123               0.001736907               0.999999985              -0.000030385               0.001770489               0.999999985              -0.000051287               0.001801721               0.999999985              -0.000078348               0.001829808               0.999999985              -0.000000000               0.001386223               0.999999985               0.000000000               0.001417127               0.999999985              -0.000000000               0.001431658               0.999999985               0.000000000               0.001445367               0.999999985               0.000000000               0.001463014               0.999999985               0.000000000               0.001485713               0.999999985              -0.000000000               0.001513256               0.999999985              -0.000000000               0.001544747               0.999999985              -0.000000000               0.001578925               0.999999985              -0.000000000               0.001614980               0.999999985              -0.000000000               0.001652371               0.999999985               0.000000000               0.001690566               0.999999985              -0.000000000               0.001728932               0.999999985               0.000000000               0.001766618               0.999999985               0.000000000               0.001802765               0.999999985               0.000000000               0.001836719               0.999999985               0.000000000               0.001867419               0.999999985 </DataArray>
<DataArray type="Float64"                                    Name="stress"                                                      NumberOfComponents="10" format="ascii">
              0.002227962               0.023869623               0.000000000              -0.002148212               0.008672532               0.006524320               0.000000000               0.000000000               0.000000000               0.000000000               0.002121459               0.018338760              -0.000000000              -0.001496794               0.006611790               0.005114996               0.000000000               0.000000000               0.000000000               0.000000000               0.002705765               0.013852202               0.000000000              -0.000716862               0.004856308               0.004139447               0.000000000               0.000000000               0.000000000               0.000000000               0.002470606               0.011338878              -0.000000000              -0.000490881               0.003943215               0.003452334               0.000000000               0.000000000               0.000000000               0.000000000               0.002014393               0.009758847              -0.000000000              -0.000464457               0.003407736               0.002943278               0.000000000               0.000000000               0.000000000               0.000000000               0.001541273               0.008650846              -0.000000000              -0.000503377               0.003051379               0.002548002               0.000000000               0.000000000               0.000000000               0.000000000               0.001122935               0.007789284               0.000000000              -0.000552559               0.002780588               0.002228030               0.000000000               0.000000000               0.000000000               0.000000000               0.000783959               0.007061816              -0.000000000              -0.000588741               0.002550162               0.001961421               0.000000000               0.000000000               0.000000000               0.000000000               0.000518367               0.006396627              -0.000000000              -0.000605189               0.002333917               0.001728728               0.000000000               0.000000000               0.000000000               0.000000000               0.000319505               0.005763875               0.000000000              -0.000600669               0.002121495               0.001520827               0.000000000               0.000000000               0.000000000               0.000000000               0.000170631               0.005141984               0.000000000              -0.000578760               0.001906898               0.001328138               0.000000000               0.000000000               0.000000000               0.000000000               0.000056188               0.004515833               0.000000000              -0.000543407               0.001686398               0.001142991               0.000000000               0.000000000               0.000000000               0.000000000              -0.000029673               0.003876427               0.000000000              -0.000495680               0.001457356               0.000961676               0.000000000               0.000000000               0.000000000               0.000000000              -0.000084400               0.003201883               0.000000000              -0.000431884               0.001211245               0.000779361               0.000000000               0.000000000               0.000000000               0.000000000              -0.000097761               0.002466348              -0.000000000              -0.000344953               0.000937092               0.000592139               0.000000000               0.000000000               0.000000000               0.000000000              -0.000060931               0.001639823              -0.000000000              -0.000227827               0.000622545               0.000394718               0.000000000               0.000000000               0.000000000               0.000000000              -0.000097132               0.001006289              -0.000000000              -0.000162210               0.000389496               0.000227286               0.000000000               0.000000000               0.000000000               0.000000000               0.002294831               0.023360036              -0.001572553              -0.002059438               0.008473080               0.006413642               0.000000000               0.000000000               0.000000000               0.000000000               0.002055556               0.018015280              -0.000702764              -0.001481073               0.006498724               0.005017651               0.000000000               0.000000000               0.000000000               0.000000000               0.002501782               0.013731264               0.000156629              -0.000778238               0.004836455               0.004058217               0.000000000               0.000000000               0.000000000               0.000000000               0.002217898               0.011317631               0.000510927              -0.000582991               0.003966836               0.003383845               0.000000000               0.000000000               0.000000000               0.000000000               0.001753813               0.009784790               0.000646485              -0.000565418               0.003450037               0.002884619               0.000000000               0.000000000               0.000000000               0.000000000               0.001293452               0.008697715               0.000683638              -0.000602169               0.003099932               0.002497763               0.000000000               0.000000000               0.000000000               0.000000000               0.000900199               0.007849888               0.000677363              -0.000643660               0.002831157               0.002187496               0.000000000               0.000000000               0.000000000               0.000000000               0.000587948               0.007125560               0.000650278              -0.000670213               0.002598567               0.001928354               0.000000000               0.000000000               0.000000000               0.000000000               0.000350945               0.006468389               0.000614914              -0.000676943               0.002381756               0.001704813               0.000000000               0.000000000               0.000000000               0.000000000               0.000176526               0.005842060               0.000578819              -0.000664059               0.002168687               0.001504628               0.000000000               0.000000000               0.000000000               0.000000000               0.000048852               0.005227291               0.000542683              -0.000635091               0.001954110               0.001319019               0.000000000               0.000000000               0.000000000               0.000000000              -0.000044130               0.004613687               0.000507915              -0.000593258               0.001735633               0.001142375               0.000000000               0.000000000               0.000000000               0.000000000              -0.000104335               0.003995501               0.000466205              -0.000538562               0.001511341               0.000972779               0.000000000               0.000000000               0.000000000               0.000000000              -0.000132868               0.003354857               0.000402868              -0.000469182               0.001274668               0.000805487               0.000000000               0.000000000               0.000000000               0.000000000              -0.000124969               0.002668875               0.000310635              -0.000380472               0.001016440               0.000635968               0.000000000               0.000000000               0.000000000               0.000000000              -0.000073302               0.001925464               0.000179338              -0.000268171               0.000731205               0.000463034               0.000000000               0.000000000               0.000000000               0.000000000              -0.000094759               0.001373869               0.000112159              -0.000207268               0.000527041               0.000319773               0.000000000               0.000000000               0.000000000               0.000000000               0.002435395               0.021899701              -0.002904790              -0.001824186               0.007907889               0.006083703               0.000000000               0.000000000               0.000000000               0.000000000               0.001841065               0.017103249              -0.001292858              -0.001447504               0.006183527               0.004736024               0.000000000               0.000000000               0.000000000               0.000000000               0.001911166               0.013384112               0.000281808              -0.000956324               0.004780101               0.003823777               0.000000000               0.000000000               0.000000000               0.000000000               0.001501432               0.011245747               0.000904101              -0.000842679               0.004029438               0.003186758               0.000000000               0.000000000               0.000000000               0.000000000               0.001032716               0.009843496               0.001130971              -0.000843167               0.003562188               0.002719021               0.000000000               0.000000000               0.000000000               0.000000000               0.000626815               0.008817612               0.001188372              -0.000867144               0.003228223               0.002361078               0.000000000               0.000000000               0.000000000               0.000000000               0.000307818               0.007996350               0.001167691              -0.000884110               0.002960127               0.002076016               0.000000000               0.000000000               0.000000000               0.000000000               0.000070849               0.007287976               0.001111149              -0.000884427               0.002724110               0.001839683               0.000000000               0.000000000               0.000000000               0.000000000              -0.000094279               0.006642886               0.001041117              -0.000865714               0.002502844               0.001637131               0.000000000               0.000000000               0.000000000               0.000000000              -0.000202315               0.006031140               0.000968246              -0.000829759               0.002286946               0.001457187               0.000000000               0.000000000               0.000000000               0.000000000              -0.000268801               0.005440902               0.000897519              -0.000780911               0.002073920               0.001293008               0.000000000               0.000000000               0.000000000               0.000000000              -0.000303039               0.004867565               0.000828815              -0.000722084               0.001863200               0.001141116               0.000000000               0.000000000               0.000000000               0.000000000              -0.000301563               0.004306104               0.000748447              -0.000651348               0.001652470               0.001001122               0.000000000               0.000000000               0.000000000               0.000000000              -0.000265432               0.003748109               0.000630106              -0.000568050               0.001438707               0.000870657               0.000000000               0.000000000               0.000000000               0.000000000              -0.000200193               0.003189887               0.000470675              -0.000473807               0.001221221               0.000747413               0.000000000               0.000000000               0.000000000               0.000000000              -0.000107339               0.002641907               0.000264218              -0.000370490               0.001004123               0.000633634               0.000000000               0.000000000               0.000000000               0.000000000              -0.000092670               0.002269230               0.000159482              -0.000318404               0.000862537               0.000544133               0.000000000               0.000000000               0.000000000               0.000000000               0.002534960               0.019678040              -0.003821261              -0.001509144               0.007062328               0.005553185               0.000000000               0.000000000               0.000000000               0.000000000               0.001449142               0.015741055              -0.001698829              -0.001424201               0.005721699               0.004297498               0.000000000               0.000000000               0.000000000               0.000000000               0.000997321               0.012860197               0.000342880              -0.001233526               0.004697865               0.003464339               0.000000000               0.000000000               0.000000000               0.000000000               0.000452414               0.011114906               0.001100875              -0.001219705               0.004111500               0.002891795               0.000000000               0.000000000               0.000000000               0.000000000               0.000016344               0.009893778               0.001357542              -0.001230591               0.003708090               0.002477499               0.000000000               0.000000000               0.000000000               0.000000000              -0.000289879               0.008949050               0.001405796              -0.001227333               0.003392098               0.002164764               0.000000000               0.000000000               0.000000000               0.000000000              -0.000488598               0.008161919               0.001364720              -0.001203462               0.003121766               0.001918305               0.000000000               0.000000000               0.000000000               0.000000000              -0.000603436               0.007472294               0.001282536              -0.001160323               0.002877514               0.001717191               0.000000000               0.000000000               0.000000000               0.000000000              -0.000653366               0.006839460               0.001184531              -0.001099943               0.002646445               0.001546502               0.000000000               0.000000000               0.000000000               0.000000000              -0.000659488               0.006247126               0.001087142              -0.001028197               0.002425087               0.001396890               0.000000000               0.000000000               0.000000000               0.000000000              -0.000639617               0.005694055               0.000995818              -0.000951611               0.002215203               0.001263592               0.000000000               0.000000000               0.000000000               0.000000000              -0.000592094               0.005177898               0.000905895              -0.000869271               0.002015706               0.001146435               0.000000000               0.000000000               0.000000000               0.000000000              -0.000513578               0.004691595               0.000799169              -0.000779039               0.001823529               0.001044490               0.000000000               0.000000000               0.000000000               0.000000000              -0.000401825               0.004236622               0.000655308              -0.000680261               0.001638947               0.000958686               0.000000000               0.000000000               0.000000000               0.000000000              -0.000266209               0.003829737               0.000476203              -0.000578544               0.001469414               0.000890870               0.000000000               0.000000000               0.000000000               0.000000000              -0.000130004               0.003484259               0.000259982              -0.000484282               0.001322835               0.000838553               0.000000000               0.000000000               0.000000000               0.000000000              -0.000083712               0.003280948               0.000150421              -0.000441509               0.001240808               0.000799299               0.000000000               0.000000000               0.000000000               0.000000000               0.002466214               0.016973391              -0.004237907              -0.001196844               0.006056688               0.004859844               0.000000000               0.000000000               0.000000000               0.000000000               0.000871990               0.014105073              -0.001903968              -0.001436135               0.005180355               0.003744220               0.000000000               0.000000000               0.000000000               0.000000000              -0.000117918               0.012221347               0.000303439              -0.001571884               0.004597703               0.003025819               0.000000000               0.000000000               0.000000000               0.000000000              -0.000741642               0.010909034               0.001062229              -0.001641741               0.004183555               0.002541814               0.000000000               0.000000000               0.000000000               0.000000000              -0.001088133               0.009878907               0.001293492              -0.001642909               0.003840572               0.002197663               0.000000000               0.000000000               0.000000000               0.000000000              -0.001247110               0.009021102               0.001319893              -0.001595300               0.003538771               0.001943470               0.000000000               0.000000000               0.000000000               0.000000000              -0.001285022               0.008270086               0.001263368              -0.001515641               0.003261881               0.001746241               0.000000000               0.000000000               0.000000000               0.000000000              -0.001245185               0.007593207               0.001170542              -0.001416092               0.003003074               0.001586982               0.000000000               0.000000000               0.000000000               0.000000000              -0.001160176               0.006973460               0.001063726              -0.001306746               0.002760045               0.001453299               0.000000000               0.000000000               0.000000000               0.000000000              -0.001049811               0.006409192               0.000962254              -0.001194826               0.002534651               0.001339826               0.000000000               0.000000000               0.000000000               0.000000000              -0.000925339               0.005899422               0.000873294              -0.001084427               0.002327930               0.001243503               0.000000000               0.000000000               0.000000000               0.000000000              -0.000788135               0.005442450               0.000782217              -0.000975855               0.002139417               0.001163562               0.000000000               0.000000000               0.000000000               0.000000000              -0.000628708               0.005031973               0.000670570              -0.000864760               0.001965561               0.001100801               0.000000000               0.000000000               0.000000000               0.000000000              -0.000454879               0.004674394               0.000531476              -0.000754877               0.001809741               0.001054864               0.000000000               0.000000000               0.000000000               0.000000000              -0.000284107               0.004390382               0.000371243              -0.000655336               0.001681892               0.001026555               0.000000000               0.000000000               0.000000000               0.000000000              -0.000132330               0.004194119               0.000193167              -0.000573887               0.001589322               0.001015434               0.000000000               0.000000000               0.000000000               0.000000000              -0.000070242               0.004105958               0.000104189              -0.000539584               0.001548500               0.001008916               0.000000000               0.000000000               0.000000000               0.000000000               0.002092890               0.014074016              -0.004167828              -0.000974419               0.005016097               0.004041678               0.000000000               0.000000000               0.000000000               0.000000000               0.000107277               0.012377425              -0.001937494              -0.001506947               0.004628082               0.003121136               0.000000000               0.000000000               0.000000000               0.000000000              -0.001304209               0.011521320               0.000139447              -0.001929238               0.004483481               0.002554243               0.000000000               0.000000000               0.000000000               0.000000000              -0.001897656               0.010611796               0.000796352              -0.002038091               0.004216593               0.002178503               0.000000000               0.000000000               0.000000000               0.000000000              -0.002080208               0.009755400               0.000977949              -0.001999498               0.003918267               0.001918769               0.000000000               0.000000000               0.000000000               0.000000000              -0.002052410               0.008973068               0.000988072              -0.001891283               0.003621420               0.001730137               0.000000000               0.000000000               0.000000000               0.000000000              -0.001913040               0.008253021               0.000932854              -0.001749013               0.003333984               0.001584971               0.000000000               0.000000000               0.000000000               0.000000000              -0.001713013               0.007595386               0.000852959              -0.001591799               0.003062370               0.001470570               0.000000000               0.000000000               0.000000000               0.000000000              -0.001489115               0.007001394               0.000765075              -0.001433589               0.002811638               0.001378049               0.000000000               0.000000000               0.000000000               0.000000000              -0.001260832               0.006476183               0.000684875              -0.001282332               0.002586150               0.001303818               0.000000000               0.000000000               0.000000000               0.000000000              -0.001039663               0.006012306               0.000617724              -0.001141409               0.002384552               0.001243143               0.000000000               0.000000000               0.000000000               0.000000000              -0.000829897               0.005604978               0.000545768              -0.001011831               0.002205584               0.001193753               0.000000000               0.000000000               0.000000000               0.000000000              -0.000617198               0.005255040               0.000449716              -0.000888327               0.002047771               0.001159444               0.000000000               0.000000000               0.000000000               0.000000000              -0.000413282               0.004972608               0.000338215              -0.000776555               0.001916371               0.001139816               0.000000000               0.000000000               0.000000000               0.000000000              -0.000240736               0.004770784               0.000222480              -0.000686622               0.001819119               0.001132497               0.000000000               0.000000000               0.000000000               0.000000000              -0.000105420               0.004656683               0.000106713              -0.000621616               0.001759418               0.001137801               0.000000000               0.000000000               0.000000000               0.000000000              -0.000050040               0.004621194               0.000051235              -0.000596413               0.001739187               0.001142774               0.000000000               0.000000000               0.000000000               0.000000000               0.001347183               0.011220567              -0.003699542              -0.000897378               0.004039277               0.003141898               0.000000000               0.000000000               0.000000000               0.000000000              -0.000804826               0.010706441              -0.001858950              -0.001640112               0.004115482               0.002475370               0.000000000               0.000000000               0.000000000               0.000000000              -0.002435889               0.010793887              -0.000155555              -0.002262689               0.004352156               0.002089467               0.000000000               0.000000000               0.000000000               0.000000000              -0.002872536               0.010215555               0.000352503              -0.002354140               0.004189864               0.001835724               0.000000000               0.000000000               0.000000000               0.000000000              -0.002834071               0.009500356               0.000493921              -0.002250315               0.003916859               0.001666543               0.000000000               0.000000000               0.000000000               0.000000000              -0.002599064               0.008783024               0.000510893              -0.002072522               0.003618486               0.001545964               0.000000000               0.000000000               0.000000000               0.000000000              -0.002279191               0.008103887               0.000482340              -0.001867678               0.003323828               0.001456150               0.000000000               0.000000000               0.000000000               0.000000000              -0.001929717               0.007477838               0.000439866              -0.001658370               0.003045378               0.001387008               0.000000000               0.000000000               0.000000000               0.000000000              -0.001588104               0.006919241               0.000395358              -0.001460441               0.002793204               0.001332763               0.000000000               0.000000000               0.000000000               0.000000000              -0.001269455               0.006434281               0.000354610              -0.001280328               0.002571515               0.001291187               0.000000000               0.000000000               0.000000000               0.000000000              -0.000978342               0.006011407               0.000320243              -0.001118301               0.002376549               0.001258248               0.000000000               0.000000000               0.000000000               0.000000000              -0.000720458               0.005641774               0.000280086              -0.000975391               0.002205703               0.001230312               0.000000000               0.000000000               0.000000000               0.000000000              -0.000491520               0.005335306               0.000217714              -0.000851231               0.002062161               0.001210930               0.000000000               0.000000000               0.000000000               0.000000000              -0.000299038               0.005102732               0.000147470              -0.000749979               0.001950886               0.001200908               0.000000000               0.000000000               0.000000000               0.000000000              -0.000156359               0.004946814               0.000084858              -0.000676985               0.001874583               0.001197598               0.000000000               0.000000000               0.000000000               0.000000000              -0.000061843               0.004863083               0.000033589              -0.000631075               0.001831370               0.001200295               0.000000000               0.000000000               0.000000000               0.000000000              -0.000030709               0.004835097               0.000013986              -0.000615901               0.001816983               0.001201082               0.000000000               0.000000000               0.000000000               0.000000000               0.000258903               0.008594671              -0.002945668              -0.000977245               0.003190609               0.002213364               0.000000000               0.000000000               0.000000000               0.000000000              -0.001809092               0.009190524              -0.001728406              -0.001827221               0.003672551               0.001845329               0.000000000               0.000000000               0.000000000               0.000000000              -0.003397848               0.010039812              -0.000571793              -0.002529163               0.004189625               0.001660462               0.000000000               0.000000000               0.000000000               0.000000000              -0.003568615               0.009714610              -0.000198531              -0.002552551               0.004089021               0.001536471               0.000000000               0.000000000               0.000000000               0.000000000              -0.003283904               0.009118564              -0.000059249              -0.002371279               0.003829917               0.001458638               0.000000000               0.000000000               0.000000000               0.000000000              -0.002851455               0.008470916              -0.000003702              -0.002128155               0.003532995               0.001404840               0.000000000               0.000000000               0.000000000               0.000000000              -0.002375414               0.007842805               0.000017347              -0.001871126               0.003237951               0.001366825               0.000000000               0.000000000               0.000000000               0.000000000              -0.001907868               0.007262071               0.000028375              -0.001623205               0.002961734               0.001338529               0.000000000               0.000000000               0.000000000               0.000000000              -0.001481621               0.006746039               0.000040006              -0.001398859               0.002714944               0.001316084               0.000000000               0.000000000               0.000000000               0.000000000              -0.001110855               0.006295358               0.000047954              -0.001203487               0.002499594               0.001296107               0.000000000               0.000000000               0.000000000               0.000000000              -0.000787792               0.005903127               0.000051538              -0.001033310               0.002312126               0.001278816               0.000000000               0.000000000               0.000000000               0.000000000              -0.000519437               0.005565107               0.000048611              -0.000890425               0.002151825               0.001261400               0.000000000               0.000000000               0.000000000               0.000000000              -0.000311408               0.005289908               0.000030241              -0.000778015               0.002022623               0.001244609               0.000000000               0.000000000               0.000000000               0.000000000              -0.000157962               0.005096002               0.000010877              -0.000696234               0.001930728               0.001234494               0.000000000               0.000000000               0.000000000               0.000000000              -0.000062822               0.004979760               0.000002812              -0.000646027               0.001875245               0.001229219               0.000000000               0.000000000               0.000000000               0.000000000              -0.000016994               0.004924483              -0.000000229              -0.000621932               0.001848789               0.001226857               0.000000000               0.000000000               0.000000000               0.000000000              -0.000009149               0.004906747               0.000001010              -0.000616773               0.001841157               0.001224384               0.000000000               0.000000000               0.000000000               0.000000000              -0.001028936               0.006379413              -0.002035043              -0.001183276               0.002520874               0.001337599               0.000000000               0.000000000               0.000000000               0.000000000              -0.002789061               0.007831567              -0.001591495              -0.002024839               0.003285442               0.001260603               0.000000000               0.000000000               0.000000000               0.000000000              -0.004150308               0.009272977              -0.001073164              -0.002715481               0.003996122               0.001280641               0.000000000               0.000000000               0.000000000               0.000000000              -0.004039981               0.009213848              -0.000783739              -0.002666717               0.003960157               0.001293440               0.000000000               0.000000000               0.000000000               0.000000000              -0.003549567               0.008765621              -0.000612513              -0.002426784               0.003730772               0.001303988               0.000000000               0.000000000               0.000000000               0.000000000              -0.002959009               0.008212415              -0.000499509              -0.002136175               0.003449503               0.001313328               0.000000000               0.000000000               0.000000000               0.000000000              -0.002362550               0.007652089              -0.000415952              -0.001842463               0.003164825               0.001322362               0.000000000               0.000000000               0.000000000               0.000000000              -0.001810611               0.007124040              -0.000344001              -0.001569480               0.002897816               0.001328336               0.000000000               0.000000000               0.000000000               0.000000000              -0.001329113               0.006649966              -0.000280894              -0.001329660               0.002659853               0.001330193               0.000000000               0.000000000               0.000000000               0.000000000              -0.000926512               0.006222381              -0.000227020              -0.001125237               0.002449185               0.001323948               0.000000000               0.000000000               0.000000000               0.000000000              -0.000590861               0.005845039              -0.000181602              -0.000952200               0.002265727               0.001313527               0.000000000               0.000000000               0.000000000               0.000000000              -0.000328138               0.005516529              -0.000142981              -0.000812616               0.002109697               0.001297081               0.000000000               0.000000000               0.000000000               0.000000000              -0.000145479               0.005253314              -0.000108509              -0.000711217               0.001988159               0.001276942               0.000000000               0.000000000               0.000000000               0.000000000              -0.000029037               0.005086187              -0.000068487              -0.000646660               0.001910932               0.001264272               0.000000000               0.000000000               0.000000000               0.000000000               0.000024285               0.005000307              -0.000027341              -0.000615930               0.001872062               0.001256132               0.000000000               0.000000000               0.000000000               0.000000000               0.000028416               0.004965897              -0.000000205              -0.000610080               0.001858642               0.001248563               0.000000000               0.000000000               0.000000000               0.000000000               0.000020840               0.004961019               0.000008224              -0.000612311               0.001857760               0.001245449               0.000000000               0.000000000               0.000000000               0.000000000              -0.002504254               0.004321592              -0.001085866              -0.001479291               0.001933613               0.000454322               0.000000000               0.000000000               0.000000000               0.000000000              -0.003605956               0.006239453              -0.001441524              -0.002132160               0.002790517               0.000658356               0.000000000               0.000000000               0.000000000               0.000000000              -0.004598613               0.008112043              -0.001597018              -0.002738479               0.003616813               0.000878335               0.000000000               0.000000000               0.000000000               0.000000000              -0.004337651               0.008460617              -0.001397824              -0.002684190               0.003714907               0.001030717               0.000000000               0.000000000               0.000000000               0.000000000              -0.003764839               0.008296304              -0.001192974              -0.002448847               0.003581689               0.001132842               0.000000000               0.000000000               0.000000000               0.000000000              -0.003122296               0.007951907              -0.001020915              -0.002164844               0.003372224               0.001207380               0.000000000               0.000000000               0.000000000               0.000000000              -0.002491211               0.007542030              -0.000872224              -0.001876953               0.003139636               0.001262683               0.000000000               0.000000000               0.000000000               0.000000000              -0.001907150               0.007120529              -0.000742572              -0.001605243               0.002908567               0.001303323               0.000000000               0.000000000               0.000000000               0.000000000              -0.001392638               0.006715622              -0.000631538              -0.001361689               0.002692415               0.001330726               0.000000000               0.000000000               0.000000000               0.000000000              -0.000957297               0.006330745              -0.000534088              -0.001150327               0.002493669               0.001343343               0.000000000               0.000000000               0.000000000               0.000000000              -0.000600724               0.005971099              -0.000443928              -0.000971656               0.002314232               0.001342575               0.000000000               0.000000000               0.000000000               0.000000000              -0.000321203               0.005641680              -0.000355377              -0.000825659               0.002155761               0.001330102               0.000000000               0.000000000               0.000000000               0.000000000              -0.000118801               0.005365835              -0.000262905              -0.000715278               0.002027020               0.001311742               0.000000000               0.000000000               0.000000000               0.000000000               0.000009140               0.005169583              -0.000165754              -0.000642769               0.001937433               0.001294665               0.000000000               0.000000000               0.000000000               0.000000000               0.000066819               0.005046550              -0.000079973              -0.000605760               0.001884086               0.001278326               0.000000000               0.000000000               0.000000000               0.000000000               0.000076799               0.004997599              -0.000024560              -0.000595899               0.001864483               0.001268584               0.000000000               0.000000000               0.000000000               0.000000000               0.000067822               0.004990817              -0.000003542              -0.000598417               0.001863062               0.001264644               0.000000000               0.000000000               0.000000000               0.000000000              -0.004369505               0.002470678              -0.000168716              -0.001947396               0.001472681              -0.000474714               0.000000000               0.000000000               0.000000000               0.000000000              -0.004523878               0.004634750              -0.001226334              -0.002275793               0.002303498               0.000027705               0.000000000               0.000000000               0.000000000               0.000000000              -0.004954846               0.006732118              -0.002017016              -0.002699576               0.003143875               0.000444299               0.000000000               0.000000000               0.000000000               0.000000000              -0.004563227               0.007464333              -0.001980525              -0.002644246               0.003369501               0.000725255               0.000000000               0.000000000               0.000000000               0.000000000              -0.003948775               0.007628336              -0.001778095              -0.002434327               0.003354195               0.000919868               0.000000000               0.000000000               0.000000000               0.000000000              -0.003291134               0.007536546              -0.001563044              -0.002176239               0.003237570               0.001061331               0.000000000               0.000000000               0.000000000               0.000000000              -0.002649605               0.007321034              -0.001363803              -0.001908727               0.003076562               0.001167836               0.000000000               0.000000000               0.000000000               0.000000000              -0.002042311               0.007045837              -0.001188346              -0.001646593               0.002897453               0.001250860               0.000000000               0.000000000               0.000000000               0.000000000              -0.001495255               0.006735058              -0.001036544              -0.001402599               0.002712530               0.001309931               0.000000000               0.000000000               0.000000000               0.000000000              -0.001021818               0.006414027              -0.000899557              -0.001184932               0.002532965               0.001348033               0.000000000               0.000000000               0.000000000               0.000000000              -0.000625961               0.006099840              -0.000767606              -0.000997213               0.002365664               0.001368451               0.000000000               0.000000000               0.000000000               0.000000000              -0.000305256               0.005796979              -0.000637415              -0.000839092               0.002212004               0.001372913               0.000000000               0.000000000               0.000000000               0.000000000              -0.000055204               0.005518245              -0.000500748              -0.000710480               0.002076223               0.001365743               0.000000000               0.000000000               0.000000000               0.000000000               0.000122890               0.005286332              -0.000351577              -0.000614706               0.001966995               0.001352289               0.000000000               0.000000000               0.000000000               0.000000000               0.000218888               0.005117674              -0.000205767              -0.000557625               0.001891749               0.001334124               0.000000000               0.000000000               0.000000000               0.000000000               0.000236089               0.005030709              -0.000087753              -0.000540304               0.001856988               0.001316684               0.000000000               0.000000000               0.000000000               0.000000000               0.000210272               0.004998644              -0.000031741              -0.000545977               0.001848190               0.001302213               0.000000000               0.000000000               0.000000000               0.000000000              -0.006504033               0.000968382               0.000627945              -0.002560057               0.001176138              -0.001383919               0.000000000               0.000000000               0.000000000               0.000000000              -0.005584331               0.003119455              -0.000936256              -0.002484052               0.001867822              -0.000616229               0.000000000               0.000000000               0.000000000               0.000000000              -0.005243267               0.005153846              -0.002222801              -0.002610450               0.002588080              -0.000022370               0.000000000               0.000000000               0.000000000               0.000000000              -0.004632462               0.006152665              -0.002386894              -0.002506251               0.002886284               0.000380033               0.000000000               0.000000000               0.000000000               0.000000000              -0.003965778               0.006615404              -0.002240728              -0.002314087               0.002976474               0.000662387               0.000000000               0.000000000               0.000000000               0.000000000              -0.003300890               0.006791327              -0.002021534              -0.002086745               0.002959334               0.000872589               0.000000000               0.000000000               0.000000000               0.000000000              -0.002657788               0.006801852              -0.001801592              -0.001846898               0.002882894               0.001035995               0.000000000               0.000000000               0.000000000               0.000000000              -0.002050817               0.006701631              -0.001600336              -0.001606757               0.002769440               0.001162683               0.000000000               0.000000000               0.000000000               0.000000000              -0.001491947               0.006527207              -0.001420141              -0.001375378               0.002634173               0.001258795               0.000000000               0.000000000               0.000000000               0.000000000              -0.000992210               0.006311781              -0.001255298              -0.001161049               0.002490922               0.001329873               0.000000000               0.000000000               0.000000000               0.000000000              -0.000554609               0.006079279              -0.001097960              -0.000967886               0.002349034               0.001381148               0.000000000               0.000000000               0.000000000               0.000000000              -0.000182119               0.005839615              -0.000942776              -0.000798245               0.002212600               0.001414355               0.000000000               0.000000000               0.000000000               0.000000000               0.000124424               0.005597741              -0.000778971              -0.000653057               0.002083580               0.001430523               0.000000000               0.000000000               0.000000000               0.000000000               0.000362447               0.005369884              -0.000591633              -0.000535317               0.001968382               0.001433065               0.000000000               0.000000000               0.000000000               0.000000000               0.000518615               0.005185115              -0.000384916              -0.000453658               0.001879574               0.001425916               0.000000000               0.000000000               0.000000000               0.000000000               0.000574037               0.005068951              -0.000183603              -0.000418354               0.001829085               0.001410731               0.000000000               0.000000000               0.000000000               0.000000000               0.000553411               0.005018210              -0.000082019              -0.000419746               0.001812635               0.001392889               0.000000000               0.000000000               0.000000000               0.000000000              -0.008752686              -0.000107706               0.001180004              -0.003268791               0.001053688              -0.002215104               0.000000000               0.000000000               0.000000000               0.000000000              -0.006725009               0.001778975              -0.000620391              -0.002744247               0.001507730              -0.001236517               0.000000000               0.000000000               0.000000000               0.000000000              -0.005489711               0.003516225              -0.002183548              -0.002498165               0.002004782              -0.000493383               0.000000000               0.000000000               0.000000000               0.000000000              -0.004577610               0.004636621              -0.002521422              -0.002296177               0.002310916               0.000014739               0.000000000               0.000000000               0.000000000               0.000000000              -0.003820007               0.005333794              -0.002460736              -0.002099223               0.002477653               0.000378431               0.000000000               0.000000000               0.000000000               0.000000000              -0.003138784               0.005759309              -0.002279200              -0.001896954               0.002552068               0.000655114               0.000000000               0.000000000               0.000000000               0.000000000              -0.002504570               0.005995865              -0.002069919              -0.001688693               0.002561499               0.000872806               0.000000000               0.000000000               0.000000000               0.000000000              -0.001916046               0.006090443              -0.001864984              -0.001479820               0.002523400               0.001043580               0.000000000               0.000000000               0.000000000               0.000000000              -0.001363760               0.006085285              -0.001678434              -0.001272068               0.002452430               0.001180362               0.000000000               0.000000000               0.000000000               0.000000000              -0.000845776               0.006006851              -0.001509211              -0.001068020               0.002358270               0.001290250               0.000000000               0.000000000               0.000000000               0.000000000              -0.000368008               0.005879719              -0.001347355              -0.000872966               0.002250875               0.001377909               0.000000000               0.000000000               0.000000000               0.000000000               0.000063454               0.005730861              -0.001185329              -0.000692561               0.002141122               0.001448560               0.000000000               0.000000000               0.000000000               0.000000000               0.000442861               0.005562697              -0.001012930              -0.000529263               0.002030635               0.001501371               0.000000000               0.000000000               0.000000000               0.000000000               0.000765778               0.005387859              -0.000809080              -0.000386315               0.001924707               0.001538392               0.000000000               0.000000000               0.000000000               0.000000000               0.001022920               0.005228232              -0.000564684              -0.000269934               0.001832704               0.001562771               0.000000000               0.000000000               0.000000000               0.000000000               0.001185079               0.005101864              -0.000289426              -0.000193328               0.001765047               0.001571719               0.000000000               0.000000000               0.000000000               0.000000000               0.001233308               0.005047246              -0.000145478              -0.000168415               0.001738537               0.001570122               0.000000000               0.000000000               0.000000000               0.000000000              -0.010896963              -0.000773324               0.001385138              -0.003989693               0.001072115              -0.002917578               0.000000000               0.000000000               0.000000000               0.000000000              -0.007848372               0.000692174              -0.000341126              -0.003029658               0.001240602              -0.001789056               0.000000000               0.000000000               0.000000000               0.000000000              -0.005705192               0.001985206              -0.001897994              -0.002387595               0.001457590              -0.000930005               0.000000000               0.000000000               0.000000000               0.000000000              -0.004441567               0.003098572              -0.002324044              -0.002052905               0.001717146              -0.000335759               0.000000000               0.000000000               0.000000000               0.000000000              -0.003555405               0.003943293              -0.002343127              -0.001826185               0.001923145               0.000096960               0.000000000               0.000000000               0.000000000               0.000000000              -0.002841532               0.004565113              -0.002219353              -0.001636211               0.002067092               0.000430881               0.000000000               0.000000000               0.000000000               0.000000000              -0.002218211               0.004999269              -0.002043977              -0.001456735               0.002151984               0.000695249               0.000000000               0.000000000               0.000000000               0.000000000              -0.001648430               0.005279646              -0.001861952              -0.001278115               0.002185902               0.000907787               0.000000000               0.000000000               0.000000000               0.000000000              -0.001106978               0.005443211              -0.001696143              -0.001095516               0.002179557               0.001084041               0.000000000               0.000000000               0.000000000               0.000000000              -0.000581323               0.005512291              -0.001545311              -0.000907031               0.002139755               0.001232724               0.000000000               0.000000000               0.000000000               0.000000000              -0.000074137               0.005510541              -0.001399339              -0.000716618               0.002075701               0.001359083               0.000000000               0.000000000               0.000000000               0.000000000               0.000411545               0.005469058              -0.001253832              -0.000529302               0.001999435               0.001470133               0.000000000               0.000000000               0.000000000               0.000000000               0.000872755               0.005402685              -0.001095951              -0.000348052               0.001916894               0.001568842               0.000000000               0.000000000               0.000000000               0.000000000               0.001307008               0.005319525              -0.000905837              -0.000174813               0.001831428               0.001656615               0.000000000               0.000000000               0.000000000               0.000000000               0.001709913               0.005220382              -0.000664091              -0.000011331               0.001743887               0.001732556               0.000000000               0.000000000               0.000000000               0.000000000               0.002060090               0.005113232              -0.000358491               0.000133378               0.001659934               0.001793312               0.000000000               0.000000000               0.000000000               0.000000000               0.002261091               0.005076752              -0.000198247               0.000213313               0.001621129               0.001834442               0.000000000               0.000000000               0.000000000               0.000000000              -0.012686121              -0.001119210               0.001209683              -0.004617391               0.001166052              -0.003451339               0.000000000               0.000000000               0.000000000               0.000000000              -0.008811445              -0.000093238              -0.000144306              -0.003292634               0.001066458              -0.002226176               0.000000000               0.000000000               0.000000000               0.000000000              -0.005885530               0.000734686              -0.001397270              -0.002298907               0.001011190              -0.001287717               0.000000000               0.000000000               0.000000000               0.000000000              -0.004279769               0.001755023              -0.001788960              -0.001824289               0.001193095              -0.000631194               0.000000000               0.000000000               0.000000000               0.000000000              -0.003249483               0.002668369              -0.001847398              -0.001552099               0.001406812              -0.000145287               0.000000000               0.000000000               0.000000000               0.000000000              -0.002493085               0.003419471              -0.001777430              -0.001362338               0.001593924               0.000231586               0.000000000               0.000000000               0.000000000               0.000000000              -0.001870267               0.003999611              -0.001654083              -0.001201299               0.001733623               0.000532324               0.000000000               0.000000000               0.000000000               0.000000000              -0.001312891               0.004428811              -0.001519008              -0.001045933               0.001824900               0.000778966               0.000000000               0.000000000               0.000000000               0.000000000              -0.000785180               0.004733021              -0.001394993              -0.000886069               0.001873014               0.000986945               0.000000000               0.000000000               0.000000000               0.000000000              -0.000269674               0.004941290              -0.001280701              -0.000718788               0.001886676               0.001167888               0.000000000               0.000000000               0.000000000               0.000000000               0.000251291               0.005078485              -0.001169172              -0.000540576               0.001873003               0.001332427               0.000000000               0.000000000               0.000000000               0.000000000               0.000778528               0.005156452              -0.001059033              -0.000352608               0.001836336               0.001483728               0.000000000               0.000000000               0.000000000               0.000000000               0.001313713               0.005196337              -0.000941383              -0.000156900               0.001784395               0.001627495               0.000000000               0.000000000               0.000000000               0.000000000               0.001864367               0.005204934              -0.000798327               0.000048520               0.001718787               0.001767307               0.000000000               0.000000000               0.000000000               0.000000000               0.002429286               0.005171147              -0.000607429               0.000264586               0.001635503               0.001900089               0.000000000               0.000000000               0.000000000               0.000000000               0.003009170               0.005098471              -0.000340158               0.000491125               0.001535765               0.002026890               0.000000000               0.000000000               0.000000000               0.000000000               0.003416832               0.005095725              -0.000199172               0.000644340               0.001483778               0.002128118               0.000000000               0.000000000               0.000000000               0.000000000              -0.013884698              -0.001256561               0.000703387              -0.005049689               0.001264367              -0.003785321               0.000000000               0.000000000               0.000000000               0.000000000              -0.009470328              -0.000560313              -0.000040794              -0.003481332               0.000973666              -0.002507665               0.000000000               0.000000000               0.000000000               0.000000000              -0.006010809              -0.000087235              -0.000739129              -0.002243147               0.000718632              -0.001524515               0.000000000               0.000000000               0.000000000               0.000000000              -0.004152024               0.000829899              -0.000973177              -0.001660744               0.000830208              -0.000830536               0.000000000               0.000000000               0.000000000               0.000000000              -0.003009259               0.001759649              -0.001019925              -0.001348426               0.001036018              -0.000312408               0.000000000               0.000000000               0.000000000               0.000000000              -0.002212221               0.002581516              -0.000990490              -0.001152270               0.001244586               0.000092316               0.000000000               0.000000000               0.000000000               0.000000000              -0.001586271               0.003254078              -0.000928403              -0.001001609               0.001418551               0.000416942               0.000000000               0.000000000               0.000000000               0.000000000              -0.001039361               0.003778303              -0.000858908              -0.000862046               0.001546770               0.000684724               0.000000000               0.000000000               0.000000000               0.000000000              -0.000528227               0.004174929              -0.000791682              -0.000719950               0.001631612               0.000911662               0.000000000               0.000000000               0.000000000               0.000000000              -0.000023555               0.004483880              -0.000728981              -0.000569317               0.001684384               0.001115067               0.000000000               0.000000000               0.000000000               0.000000000               0.000498913               0.004729488              -0.000669131              -0.000404093               0.001711178               0.001307085               0.000000000               0.000000000               0.000000000               0.000000000               0.001051737               0.004911637              -0.000607932              -0.000219553               0.001710380               0.001490827               0.000000000               0.000000000               0.000000000               0.000000000               0.001641888               0.005037811              -0.000546040              -0.000014019               0.001683926               0.001669907               0.000000000               0.000000000               0.000000000               0.000000000               0.002278425               0.005107299              -0.000470673               0.000215995               0.001630418               0.001846413               0.000000000               0.000000000               0.000000000               0.000000000               0.002974039               0.005117805              -0.000363888               0.000475534               0.001547407               0.002022941               0.000000000               0.000000000               0.000000000               0.000000000               0.003752446               0.005073092              -0.000207888               0.000773023               0.001433340               0.002206362               0.000000000               0.000000000               0.000000000               0.000000000               0.004347747               0.005101162              -0.000127237               0.000992750               0.001369454               0.002362204               0.000000000               0.000000000               0.000000000               0.000000000              -0.014308326              -0.001287299               0.000000000              -0.005204707               0.001305794              -0.003898913               0.000000000               0.000000000               0.000000000               0.000000000              -0.009705960              -0.000714393              -0.000000000              -0.003550433               0.000945340              -0.002605093               0.000000000               0.000000000               0.000000000               0.000000000              -0.006055936              -0.000375623               0.000000000              -0.002224022               0.000616129              -0.001607893               0.000000000               0.000000000               0.000000000               0.000000000              -0.004103206               0.000498932               0.000000000              -0.001601067               0.000699995              -0.000901072               0.000000000               0.000000000               0.000000000               0.000000000              -0.002918178               0.001429227              -0.000000000              -0.001272968               0.000900726              -0.000372242               0.000000000               0.000000000               0.000000000               0.000000000              -0.002104838               0.002274036              -0.000000000              -0.001073566               0.001115860               0.000042293               0.000000000               0.000000000               0.000000000               0.000000000              -0.001477577               0.002982736              -0.000000000              -0.000926931               0.001303212               0.000376281               0.000000000               0.000000000               0.000000000               0.000000000              -0.000935394               0.003539055              -0.000000000              -0.000793153               0.001444057               0.000650905               0.000000000               0.000000000               0.000000000               0.000000000              -0.000433948               0.003963386              -0.000000000              -0.000658152               0.001540499               0.000882347               0.000000000               0.000000000               0.000000000               0.000000000               0.000069660               0.004307227               0.000000000              -0.000512280               0.001606488               0.001094208               0.000000000               0.000000000               0.000000000               0.000000000               0.000591459               0.004591684               0.000000000              -0.000352163               0.001647933               0.001295771               0.000000000               0.000000000               0.000000000               0.000000000               0.001151784               0.004817531              -0.000000000              -0.000170272               0.001662585               0.001492313               0.000000000               0.000000000               0.000000000               0.000000000               0.001761974               0.004978215              -0.000000000               0.000038463               0.001646567               0.001685030               0.000000000               0.000000000               0.000000000               0.000000000               0.002427222               0.005065864               0.000000000               0.000276972               0.001596280               0.001873253               0.000000000               0.000000000               0.000000000               0.000000000               0.003174407               0.005094363               0.000000000               0.000553602               0.001513570               0.002067172               0.000000000               0.000000000               0.000000000               0.000000000               0.004037307               0.005065708              -0.000000000               0.000880768               0.001394963               0.002275731               0.000000000               0.000000000               0.000000000               0.000000000               0.004710283               0.005107485               0.000000000               0.001127909               0.001326508               0.002454418               0.000000000               0.000000000               0.000000000               0.000000000               0.000000000               0.000000000               0.000000000               0.000000000               0.000000000               0.000000000               0.000000000               0.000000000               0.000000000               0.000000000               0.000000000               0.000000000               0.000000000               0.000000000               0.000000000               0.000000000               0.000000000               0.000000000               0.000000000               0.000000000               0.000000000               0.000000000               0.000000000               0.000000000               0.000000000               0.000000000               0.000000000               0.000000000               0.000000000               0.000000000               0.000000000               0.000000000               0.000000000               0.000000000               0.000000000               0.000000000               0.000000000               0.000000000               0.000000000               0.000000000               0.000000000               0.000000000               0.000000000               0.000000000               0.000000000               0.000000000               0.000000000               0.000000000               0.000000000               0.000000000               0.000000000               0.000000000               0.000000000               0.000000000               0.000000000               0.000000000               0.000000000               0.000000000               0.000000000               0.000000000               0.000000000               0.000000000               0.000000000               0.000000000               0.000000000               0.000000000               0.000000000               0.000000000               0.000000000               0.000000000               0.000000000               0.000000000               0.000000000               0.000000000               0.000000000               0.000000000               0.000000000               0.000000000               0.000000000               0.000000000               0.000000000               0.000000000               0.000000000               0.000000000               0.000000000               0.000000000               0.000000000               0.000000000               0.000000000               0.000000000               0.000000000               0.000000000               0.000000000               0.000000000               0.000000000               0.000000000               0.000000000               0.000000000               0.000000000               0.000000000               0.000000000               0.000000000               0.000000000               0.000000000               0.000000000               0.000000000               0.000000000               0.000000000               0.000000000               0.000000000               0.000000000               0.000000000               0.000000000               0.000000000               0.000000000               0.000000000               0.000000000               0.000000000               0.000000000               0.000000000               0.000000000               0.000000000               0.000000000               0.000000000               0.000000000               0.000000000               0.000000000               0.000000000               0.000000000               0.000000000               0.000000000               0.000000000               0.000000000               0.000000000               0.000000000               0.000000000               0.000000000               0.000000000               0.000000000               0.000000000               0.000000000               0.000000000               0.000000000               0.000000000               0.000000000               0.000000000               0.000000000               0.000000000               0.000000000               0.000000000               0.000000000               0.000000000               0.000000000               0.000000000               0.000000000               0.000000000               0.000000000               0.000000000               0.000000000               0.000000000               0.000000000               0.000000000               0.000000000               0.000000000               0.000000000               0.000000000               0.000000000               0.000000000               0.000000000               0.000000000               0.002294831               0.023360036               0.001572553              -0.002059438               0.008473080               0.006413642               0.000000000               0.000000000               0.000000000               0.000000000               0.002055556               0.018015280               0.000702764              -0.001481073               0.006498724               0.005017651               0.000000000               0.000000000               0.000000000               0.000000000               0.002501782               0.013731264              -0.000156629              -0.000778238               0.004836455               0.004058217               0.000000000               0.000000000               0.000000000               0.000000000               0.002217898               0.011317631              -0.000510927              -0.000582991               0.003966836               0.003383845               0.000000000               0.000000000               0.000000000               0.000000000               0.001753813               0.009784790              -0.000646485              -0.000565418               0.003450037               0.002884619               0.000000000               0.000000000               0.000000000               0.000000000               0.001293452               0.008697715              -0.000683638              -0.000602169               0.003099932               0.002497763               0.000000000               0.000000000               0.000000000               0.000000000               0.000900199               0.007849888              -0.000677363              -0.000643660               0.002831157               0.002187496               0.000000000               0.000000000               0.000000000               0.000000000               0.000587948               0.007125560              -0.000650278              -0.000670213               0.002598567               0.001928354               0.000000000               0.000000000               0.000000000               0.000000000               0.000350945               0.006468389              -0.000614914              -0.000676943               0.002381756               0.001704813               0.000000000               0.000000000               0.000000000               0.000000000               0.000176526               0.005842060              -0.000578819              -0.000664059               0.002168687               0.001504628               0.000000000               0.000000000               0.000000000               0.000000000               0.000048852               0.005227291              -0.000542683              -0.000635091               0.001954110               0.001319019               0.000000000               0.000000000               0.000000000               0.000000000              -0.000044130               0.004613687              -0.000507915              -0.000593258               0.001735633               0.001142375               0.000000000               0.000000000               0.000000000               0.000000000              -0.000104335               0.003995501              -0.000466205              -0.000538562               0.001511341               0.000972779               0.000000000               0.000000000               0.000000000               0.000000000              -0.000132868               0.003354857              -0.000402868              -0.000469182               0.001274668               0.000805487               0.000000000               0.000000000               0.000000000               0.000000000              -0.000124969               0.002668875              -0.000310635              -0.000380472               0.001016440               0.000635968               0.000000000               0.000000000               0.000000000               0.000000000              -0.000073302               0.001925464              -0.000179338              -0.000268171               0.000731205               0.000463034               0.000000000               0.000000000               0.000000000               0.000000000              -0.000094759               0.001373869              -0.000112159              -0.000207268               0.000527041               0.000319773               0.000000000               0.000000000               0.000000000               0.000000000               0.002435395               0.021899701               0.002904790              -0.001824186               0.007907889               0.006083703               0.000000000               0.000000000               0.000000000               0.000000000               0.001841065               0.017103249               0.001292858              -0.001447504               0.006183527               0.004736024               0.000000000               0.000000000               0.000000000               0.000000000               0.001911166               0.013384112              -0.000281808              -0.000956324               0.004780101               0.003823777               0.000000000               0.000000000               0.000000000               0.000000000               0.001501432               0.011245747              -0.000904101              -0.000842679               0.004029438               0.003186758               0.000000000               0.000000000               0.000000000               0.000000000               0.001032716               0.009843496              -0.001130971              -0.000843167               0.003562188               0.002719021               0.000000000               0.000000000               0.000000000               0.000000000               0.000626815               0.008817612              -0.001188372              -0.000867144               0.003228223               0.002361078               0.000000000               0.000000000               0.000000000               0.000000000               0.000307818               0.007996350              -0.001167691              -0.000884110               0.002960127               0.002076016               0.000000000               0.000000000               0.000000000               0.000000000               0.000070849               0.007287976              -0.001111149              -0.000884427               0.002724110               0.001839683               0.000000000               0.000000000               0.000000000               0.000000000              -0.000094279               0.006642886              -0.001041117              -0.000865714               0.002502844               0.001637131               0.000000000               0.000000000               0.000000000               0.000000000              -0.000202315               0.006031140              -0.000968246              -0.000829759               0.002286946               0.001457187               0.000000000               0.000000000               0.000000000               0.000000000              -0.000268801               0.005440902              -0.000897519              -0.000780911               0.002073920               0.001293008               0.000000000               0.000000000               0.000000000               0.000000000              -0.000303039               0.004867565              -0.000828815              -0.000722084               0.001863200               0.001141116               0.000000000               0.000000000               0.000000000               0.000000000              -0.000301563               0.004306104              -0.000748447              -0.000651348               0.001652470               0.001001122               0.000000000               0.000000000               0.000000000               0.000000000              -0.000265432               0.003748109              -0.000630106              -0.000568050               0.001438707               0.000870657               0.000000000               0.000000000               0.000000000               0.000000000              -0.000200193               0.003189887              -0.000470675              -0.000473807               0.001221221               0.000747413               0.000000000               0.000000000               0.000000000               0.000000000              -0.000107339               0.002641907              -0.000264218              -0.000370490               0.001004123               0.000633634               0.000000000               0.000000000               0.000000000               0.000000000              -0.000092670               0.002269230              -0.000159482              -0.000318404               0.000862537               0.000544133               0.000000000               0.000000000               0.000000000               0.000000000               0.002534960               0.019678040               0.003821261              -0.001509144               0.007062328               0.005553185               0.000000000               0.000000000               0.000000000               0.000000000               0.001449142               0.015741055               0.001698829              -0.001424201               0.005721699               0.004297498               0.000000000               0.000000000               0.000000000               0.000000000               0.000997321               0.012860197              -0.000342880              -0.001233526               0.004697865               0.003464339               0.000000000               0.000000000               0.000000000               0.000000000               0.000452414               0.011114906              -0.001100875              -0.001219705               0.004111500               0.002891795               0.000000000               0.000000000               0.000000000               0.000000000               0.000016344               0.009893778              -0.001357542              -0.001230591               0.003708090               0.002477499               0.000000000               0.000000000               0.000000000               0.000000000              -0.000289879               0.008949050              -0.001405796              -0.001227333               0.003392098               0.002164764               0.000000000               0.000000000               0.000000000               0.000000000              -0.000488598               0.008161919              -0.001364720              -0.001203462               0.003121766               0.001918305               0.000000000               0.000000000               0.000000000               0.000000000              -0.000603436               0.007472294              -0.001282536              -0.001160323               0.002877514               0.001717191               0.000000000               0.000000000               0.000000000               0.000000000              -0.000653366               0.006839460              -0.001184531              -0.001099943               0.002646445               0.001546502               0.000000000               0.000000000               0.000000000               0.000000000              -0.000659488               0.006247126              -0.001087142              -0.001028197               0.002425087               0.001396890               0.000000000               0.000000000               0.000000000               0.000000000              -0.000639617               0.005694055              -0.000995818              -0.000951611               0.002215203               0.001263592               0.000000000               0.000000000               0.000000000               0.000000000              -0.000592094               0.005177898              -0.000905895              -0.000869271               0.002015706               0.001146435               0.000000000               0.000000000               0.000000000               0.000000000              -0.000513578               0.004691595              -0.000799169              -0.000779039               0.001823529               0.001044490               0.000000000               0.000000000               0.000000000               0.000000000              -0.000401825               0.004236622              -0.000655308              -0.000680261               0.001638947               0.000958686               0.000000000               0.000000000               0.000000000               0.000000000              -0.000266209               0.003829737              -0.000476203              -0.000578544               0.001469414               0.000890870               0.000000000               0.000000000               0.000000000               0.000000000              -0.000130004               0.003484259              -0.000259982              -0.000484282               0.001322835               0.000838553               0.000000000               0.000000000               0.000000000               0.000000000              -0.000083712               0.003280948              -0.000150421              -0.000441509               0.001240808               0.000799299               0.000000000               0.000000000               0.000000000               0.000000000               0.002466214               0.016973391               0.004237907              -0.001196844               0.006056688               0.004859844               0.000000000               0.000000000               0.000000000               0.000000000               0.000871990               0.014105073               0.001903968              -0.001436135               0.005180355               0.003744220               0.000000000               0.000000000               0.000000000               0.000000000              -0.000117918               0.012221347              -0.000303439              -0.001571884               0.004597703               0.003025819               0.000000000               0.000000000               0.000000000               0.000000000              -0.000741642               0.010909034              -0.001062229              -0.001641741               0.004183555               0.002541814               0.000000000               0.000000000               0.000000000               0.000000000              -0.001088133               0.009878907              -0.001293492              -0.001642909               0.003840572               0.002197663               0.000000000               0.000000000               0.000000000               0.000000000              -0.001247110               0.009021102              -0.001319893              -0.001595300               0.003538771               0.001943470               0.000000000               0.000000000               0.000000000               0.000000000              -0.001285022               0.008270086              -0.001263368              -0.001515641               0.003261881               0.001746241               0.000000000               0.000000000               0.000000000               0.000000000              -0.001245185               0.007593207              -0.001170542              -0.001416092               0.003003074               0.001586982               0.000000000               0.000000000               0.000000000               0.000000000              -0.001160176               0.006973460              -0.001063726              -0.001306746               0.002760045               0.001453299               0.000000000               0.000000000               0.000000000               0.000000000              -0.001049811               0.006409192              -0.000962254              -0.001194826               0.002534651               0.001339826               0.000000000               0.000000000               0.000000000               0.000000000              -0.000925339               0.005899422              -0.000873294              -0.001084427               0.002327930               0.001243503               0.000000000               0.000000000               0.000000000               0.000000000              -0.000788135               0.005442450              -0.000782217              -0.000975855               0.002139417               0.001163562               0.000000000               0.000000000               0.000000000               0.000000000              -0.000628708               0.005031973              -0.000670570              -0.000864760               0.001965561               0.001100801               0.000000000               0.000000000               0.000000000               0.000000000              -0.000454879               0.004674394              -0.000531476              -0.000754877               0.001809741               0.001054864               0.000000000               0.000000000               0.000000000               0.000000000              -0.000284107               0.004390382              -0.000371243              -0.000655336               0.001681892               0.001026555               0.000000000               0.000000000               0.000000000               0.000000000              -0.000132330               0.004194119              -0.000193167              -0.000573887               0.001589322               0.001015434               0.000000000               0.000000000               0.000000000               0.000000000              -0.000070242               0.004105958              -0.000104189              -0.000539584               0.001548500               0.001008916               0.000000000               0.000000000               0.000000000               0.000000000               0.002092890               0.014074016               0.004167828              -0.000974419               0.005016097               0.004041678               0.000000000               0.000000000               0.000000000               0.000000000               0.000107277               0.012377425               0.001937494              -0.001506947               0.004628082               0.003121136               0.000000000               0.000000000               0.000000000               0.000000000              -0.001304209               0.011521320              -0.000139447              -0.001929238               0.004483481               0.002554243               0.000000000               0.000000000               0.000000000               0.000000000              -0.001897656               0.010611796              -0.000796352              -0.002038091               0.004216593               0.002178503               0.000000000               0.000000000               0.000000000               0.000000000              -0.002080208               0.009755400              -0.000977949              -0.001999498               0.003918267               0.001918769               0.000000000               0.000000000               0.000000000               0.000000000              -0.002052410               0.008973068              -0.000988072              -0.001891283               0.003621420               0.001730137               0.000000000               0.000000000               0.000000000               0.000000000              -0.001913040               0.008253021              -0.000932854              -0.001749013               0.003333984               0.001584971               0.000000000               0.000000000               0.000000000               0.000000000              -0.001713013               0.007595386              -0.000852959              -0.001591799               0.003062370               0.001470570               0.000000000               0.000000000               0.000000000               0.000000000              -0.001489115               0.007001394              -0.000765075              -0.001433589               0.002811638               0.001378049               0.000000000               0.000000000               0.000000000               0.000000000              -0.001260832               0.006476183              -0.000684875              -0.001282332               0.002586150               0.001303818               0.000000000               0.000000000               0.000000000               0.000000000              -0.001039663               0.006012306              -0.000617724              -0.001141409               0.002384552               0.001243143               0.000000000               0.000000000               0.000000000               0.000000000              -0.000829897               0.005604978              -0.000545768              -0.001011831               0.002205584               0.001193753               0.000000000               0.000000000               0.000000000               0.000000000              -0.000617198               0.005255040              -0.000449716              -0.000888327               0.002047771               0.001159444               0.000000000               0.000000000               0.000000000               0.000000000              -0.000413282               0.004972608              -0.000338215              -0.000776555               0.001916371               0.001139816               0.000000000               0.000000000               0.000000000               0.000000000              -0.000240736               0.004770784              -0.000222480              -0.000686622               0.001819119               0.001132497               0.000000000               0.000000000               0.000000000               0.000000000              -0.000105420               0.004656683              -0.000106713              -0.000621616               0.001759418               0.001137801               0.000000000               0.000000000               0.000000000               0.000000000              -0.000050040               0.004621194              -0.000051235              -0.000596413               0.001739187               0.001142774               0.000000000               0.000000000               0.000000000               0.000000000               0.001347183               0.011220567               0.003699542              -0.000897378               0.004039277               0.003141898               0.000000000               0.000000000               0.000000000               0.000000000              -0.000804826               0.010706441               0.001858950              -0.001640112               0.004115482               0.002475370               0.000000000               0.000000000               0.000000000               0.000000000              -0.002435889               0.010793887               0.000155555              -0.002262689               0.004352156               0.002089467               0.000000000               0.000000000               0.000000000               0.000000000              -0.002872536               0.010215555              -0.000352503              -0.002354140               0.004189864               0.001835724               0.000000000               0.000000000               0.000000000               0.000000000              -0.002834071               0.009500356              -0.000493921              -0.002250315               0.003916859               0.001666543               0.000000000               0.000000000               0.000000000               0.000000000              -0.002599064               0.008783024              -0.000510893              -0.002072522               0.003618486               0.001545964               0.000000000               0.000000000               0.000000000               0.000000000              -0.002279191               0.008103887              -0.000482340              -0.001867678               0.003323828               0.001456150               0.000000000               0.000000000               0.000000000               0.000000000              -0.001929717               0.007477838              -0.000439866              -0.001658370               0.003045378               0.001387008               0.000000000               0.000000000               0.000000000               0.000000000              -0.001588104               0.006919241              -0.000395358              -0.001460441               0.002793204               0.001332763               0.000000000               0.000000000               0.000000000               0.000000000              -0.001269455               0.006434281              -0.000354610              -0.001280328               0.002571515               0.001291187               0.000000000               0.000000000               0.000000000               0.000000000              -0.000978342               0.006011407              -0.000320243              -0.001118301               0.002376549               0.001258248               0.000000000               0.000000000               0.000000000               0.000000000              -0.000720458               0.005641774              -0.000280086              -0.000975391               0.002205703               0.001230312               0.000000000               0.000000000               0.000000000               0.000000000              -0.000491520               0.005335306              -0.000217714              -0.000851231               0.002062161               0.001210930               0.000000000               0.000000000               0.000000000               0.000000000              -0.000299038               0.005102732              -0.000147470              -0.000749979               0.001950886               0.001200908               0.000000000               0.000000000               0.000000000               0.000000000              -0.000156359               0.004946814              -0.000084858              -0.000676985               0.001874583               0.001197598               0.000000000               0.000000000               0.000000000               0.000000000              -0.000061843               0.004863083              -0.000033589              -0.000631075               0.001831370               0.001200295               0.000000000               0.000000000               0.000000000               0.000000000              -0.000030709               0.004835097              -0.000013986              -0.000615901               0.001816983               0.001201082               0.000000000               0.000000000               0.000000000               0.000000000               0.000258903               0.008594671               0.002945668              -0.000977245               0.003190609               0.002213364               0.000000000               0.000000000               0.000000000               0.000000000              -0.001809092               0.009190524               0.001728406              -0.001827221               0.003672551               0.001845329               0.000000000               0.000000000               0.000000000               0.000000000              -0.003397848               0.010039812               0.000571793              -0.002529163               0.004189625               0.001660462               0.000000000               0.000000000               0.000000000               0.000000000              -0.003568615               0.009714610               0.000198531              -0.002552551               0.004089021               0.001536471               0.000000000               0.000000000               0.000000000               0.000000000              -0.003283904               0.009118564               0.000059249              -0.002371279               0.003829917               0.001458638               0.000000000               0.000000000               0.000000000               0.000000000              -0.002851455               0.008470916               0.000003702              -0.002128155               0.003532995               0.001404840               0.000000000               0.000000000               0.000000000               0.000000000              -0.002375414               0.007842805              -0.000017347              -0.001871126               0.003237951               0.001366825               0.000000000               0.000000000               0.000000000               0.000000000              -0.001907868               0.007262071              -0.000028375              -0.001623205               0.002961734               0.001338529               0.000000000               0.000000000               0.000000000               0.000000000              -0.001481621               0.006746039              -0.000040006              -0.001398859               0.002714944               0.001316084               0.000000000               0.000000000               0.000000000               0.000000000              -0.001110855               0.006295358              -0.000047954              -0.001203487               0.002499594               0.001296107               0.000000000               0.000000000               0.000000000               0.000000000              -0.000787792               0.005903127              -0.000051538              -0.001033310               0.002312126               0.001278816               0.000000000               0.000000000               0.000000000               0.000000000              -0.000519437               0.005565107              -0.000048611              -0.000890425               0.002151825               0.001261400               0.000000000               0.000000000               0.000000000               0.000000000              -0.000311408               0.005289908              -0.000030241              -0.000778015               0.002022623               0.001244609               0.000000000               0.000000000               0.000000000               0.000000000              -0.000157962               0.005096002              -0.000010877              -0.000696234               0.001930728               0.001234494               0.000000000               0.000000000               0.000000000               0.000000000              -0.000062822               0.004979760              -0.000002812              -0.000646027               0.001875245               0.001229219               0.000000000               0.000000000               0.000000000               0.000000000              -0.000016994               0.004924483               0.000000229              -0.000621932               0.001848789               0.001226857               0.000000000               0.000000000               0.000000000               0.000000000              -0.000009149               0.004906747              -0.000001010              -0.000616773               0.001841157               0.001224384               0.000000000               0.000000000               0.000000000               0.000000000              -0.001028936               0.006379413               0.002035043              -0.001183276               0.002520874               0.001337599               0.000000000               0.000000000               0.000000000               0.000000000              -0.002789061               0.007831567               0.001591495              -0.002024839               0.003285442               0.001260603               0.000000000               0.000000000               0.000000000               0.000000000              -0.004150308               0.009272977               0.001073164              -0.002715481               0.003996122               0.001280641               0.000000000               0.000000000               0.000000000               0.000000000              -0.004039981               0.009213848               0.000783739              -0.002666717               0.003960157               0.001293440               0.000000000               0.000000000               0.000000000               0.000000000              -0.003549567               0.008765621               0.000612513              -0.002426784               0.003730772               0.001303988               0.000000000               0.000000000               0.000000000               0.000000000              -0.002959009               0.008212415               0.000499509              -0.002136175               0.003449503               0.001313328               0.000000000               0.000000000               0.000000000               0.000000000              -0.002362550               0.007652089               0.000415952              -0.001842463               0.003164825               0.001322362               0.000000000               0.000000000               0.000000000               0.000000000              -0.001810611               0.007124040               0.000344001              -0.001569480               0.002897816               0.001328336               0.000000000               0.000000000               0.000000000               0.000000000              -0.001329113               0.006649966               0.000280894              -0.001329660               0.002659853               0.001330193               0.000000000               0.000000000               0.000000000               0.000000000              -0.000926512               0.006222381               0.000227020              -0.001125237               0.002449185               0.001323948               0.000000000               0.000000000               0.000000000               0.000000000              -0.000590861               0.005845039               0.000181602              -0.000952200               0.002265727               0.001313527               0.000000000               0.000000000               0.000000000               0.000000000              -0.000328138               0.005516529               0.000142981              -0.000812616               0.002109697               0.001297081               0.000000000               0.000000000               0.000000000               0.000000000              -0.000145479               0.005253314               0.000108509              -0.000711217               0.001988159               0.001276942               0.000000000               0.000000000               0.000000000               0.000000000              -0.000029037               0.005086187               0.000068487              -0.000646660               0.001910932               0.001264272               0.000000000               0.000000000               0.000000000               0.000000000               0.000024285               0.005000307               0.000027341              -0.000615930               0.001872062               0.001256132               0.000000000               0.000000000               0.000000000               0.000000000               0.000028416               0.004965897               0.000000205              -0.000610080               0.001858642               0.001248563               0.000000000               0.000000000               0.000000000               0.000000000               0.000020840               0.004961019              -0.000008224              -0.000612311               0.001857760               0.001245449               0.000000000               0.000000000               0.000000000               0.000000000              -0.002504254               0.004321592               0.001085866              -0.001479291               0.001933613               0.000454322               0.000000000               0.000000000               0.000000000               0.000000000              -0.003605956               0.006239453               0.001441524              -0.002132160               0.002790517               0.000658356               0.000000000               0.000000000               0.000000000               0.000000000              -0.004598613               0.008112043               0.001597018              -0.002738479               0.003616813               0.000878335               0.000000000               0.000000000               0.000000000               0.000000000              -0.004337651               0.008460617               0.001397824              -0.002684190               0.003714907               0.001030717               0.000000000               0.000000000               0.000000000               0.000000000              -0.003764839               0.008296304               0.001192974              -0.002448847               0.003581689               0.001132842               0.000000000               0.000000000               0.000000000               0.000000000              -0.003122296               0.007951907               0.001020915              -0.002164844               0.003372224               0.001207380               0.000000000               0.000000000               0.000000000               0.000000000              -0.002491211               0.007542030               0.000872224              -0.001876953               0.003139636               0.001262683               0.000000000               0.000000000               0.000000000               0.000000000              -0.001907150               0.007120529               0.000742572              -0.001605243               0.002908567               0.001303323               0.000000000               0.000000000               0.000000000               0.000000000              -0.001392638               0.006715622               0.000631538              -0.001361689               0.002692415               0.001330726               0.000000000               0.000000000               0.000000000               0.000000000              -0.000957297               0.006330745               0.000534088              -0.001150327               0.002493669               0.001343343               0.000000000               0.000000000               0.000000000               0.000000000              -0.000600724               0.005971099               0.000443928              -0.000971656               0.002314232               0.001342575               0.000000000               0.000000000               0.000000000               0.000000000              -0.000321203               0.005641680               0.000355377              -0.000825659               0.002155761               0.001330102               0.000000000               0.000000000               0.000000000               0.000000000              -0.000118801               0.005365835               0.000262905              -0.000715278               0.002027020               0.001311742               0.000000000               0.000000000               0.000000000               0.000000000               0.000009140               0.005169583               0.000165754              -0.000642769               0.001937433               0.001294665               0.000000000               0.000000000               0.000000000               0.000000000               0.000066819               0.005046550               0.000079973              -0.000605760               0.001884086               0.001278326               0.000000000               0.000000000               0.000000000               0.000000000               0.000076799               0.004997599               0.000024560              -0.000595899               0.001864483               0.001268584               0.000000000               0.000000000               0.000000000               0.000000000               0.000067822               0.004990817               0.000003542              -0.000598417               0.001863062               0.001264644               0.000000000               0.000000000               0.000000000               0.000000000              -0.004369505               0.002470678               0.000168716              -0.001947396               0.001472681              -0.000474714               0.000000000               0.000000000               0.000000000               0.000000000              -0.004523878               0.004634750               0.001226334              -0.002275793               0.002303498               0.000027705               0.000000000               0.000000000               0.000000000               0.000000000              -0.004954846               0.006732118               0.002017016              -0.002699576               0.003143875               0.000444299               0.000000000               0.000000000               0.000000000               0.000000000              -0.004563227               0.007464333               0.001980525              -0.002644246               0.003369501               0.000725255               0.000000000               0.000000000               0.000000000               0.000000000              -0.003948775               0.007628336               0.001778095              -0.002434327               0.003354195               0.000919868               0.000000000               0.000000000               0.000000000               0.000000000              -0.003291134               0.007536546               0.001563044              -0.002176239               0.003237570               0.001061331               0.000000000               0.000000000               0.000000000               0.000000000              -0.002649605               0.007321034               0.001363803              -0.001908727               0.003076562               0.001167836               0.000000000               0.000000000               0.000000000               0.000000000              -0.002042311               0.007045837               0.001188346              -0.001646593               0.002897453               0.001250860               0.000000000               0.000000000               0.000000000               0.000000000              -0.001495255               0.006735058               0.001036544              -0.001402599               0.002712530               0.001309931               0.000000000               0.000000000               0.000000000               0.000000000              -0.001021818               0.006414027               0.000899557              -0.001184932               0.002532965               0.001348033               0.000000000               0.000000000               0.000000000               0.000000000              -0.000625961               0.006099840               0.000767606              -0.000997213               0.002365664               0.001368451               0.000000000               0.000000000               0.000000000               0.000000000              -0.000305256               0.005796979               0.000637415              -0.000839092               0.002212004               0.001372913               0.000000000               0.000000000               0.000000000               0.000000000              -0.000055204               0.005518245               0.000500748              -0.000710480               0.002076223               0.001365743               0.000000000               0.000000000               0.000000000               0.000000000               0.000122890               0.005286332               0.000351577              -0.000614706               0.001966995               0.001352289               0.000000000               0.000000000               0.000000000               0.000000000               0.000218888               0.005117674               0.000205767              -0.000557625               0.001891749               0.001334124               0.000000000               0.000000000               0.000000000               0.000000000               0.000236089               0.005030709               0.000087753              -0.000540304               0.001856988               0.001316684               0.000000000               0.000000000               0.000000000               0.000000000               0.000210272               0.004998644               0.000031741              -0.000545977               0.001848190               0.001302213               0.000000000               0.000000000               0.000000000               0.000000000              -0.006504033               0.000968382              -0.000627945              -0.002560057               0.001176138              -0.001383919               0.000000000               0.000000000               0.000000000               0.000000000              -0.005584331               0.003119455               0.000936256              -0.002484052               0.001867822              -0.000616229               0.000000000               0.000000000               0.000000000               0.000000000              -0.005243267               0.005153846               0.002222801              -0.002610450               0.002588080              -0.000022370               0.000000000               0.000000000               0.000000000               0.000000000              -0.004632462               0.006152665               0.002386894              -0.002506251               0.002886284               0.000380033               0.000000000               0.000000000               0.000000000               0.000000000              -0.003965778               0.006615404               0.002240728              -0.002314087               0.002976474               0.000662387               0.000000000               0.000000000               0.000000000               0.000000000              -0.003300890               0.006791327               0.002021534              -0.002086745               0.002959334               0.000872589               0.000000000               0.000000000               0.000000000               0.000000000              -0.002657788               0.006801852               0.001801592              -0.001846898               0.002882894               0.001035995               0.000000000               0.000000000               0.000000000               0.000000000              -0.002050817               0.006701631               0.001600336              -0.001606757               0.002769440               0.001162683               0.000000000               0.000000000               0.000000000               0.000000000              -0.001491947               0.006527207               0.001420141              -0.001375378               0.002634173               0.001258795               0.000000000               0.000000000               0.000000000               0.000000000              -0.000992210               0.006311781               0.001255298              -0.001161049               0.002490922               0.001329873               0.000000000               0.000000000               0.000000000               0.000000000              -0.000554609               0.006079279               0.001097960              -0.000967886               0.002349034               0.001381148               0.000000000               0.000000000               0.000000000               0.000000000              -0.000182119               0.005839615               0.000942776              -0.000798245               0.002212600               0.001414355               0.000000000               0.000000000               0.000000000               0.000000000               0.000124424               0.005597741               0.000778971              -0.000653057               0.002083580               0.001430523               0.000000000               0.000000000               0.000000000               0.000000000               0.000362447               0.005369884               0.000591633              -0.000535317               0.001968382               0.001433065               0.000000000               0.000000000               0.000000000               0.000000000               0.000518615               0.005185115               0.000384916              -0.000453658               0.001879574               0.001425916               0.000000000               0.000000000               0.000000000               0.000000000               0.000574037               0.005068951               0.000183603              -0.000418354               0.001829085               0.001410731               0.000000000               0.000000000               0.000000000               0.000000000               0.000553411               0.005018210               0.000082019              -0.000419746               0.001812635               0.001392889               0.000000000               0.000000000               0.000000000               0.000000000              -0.008752686              -0.000107706              -0.001180004              -0.003268791               0.001053688              -0.002215104               0.000000000               0.000000000               0.000000000               0.000000000              -0.006725009               0.001778975               0.000620391              -0.002744247               0.001507730              -0.001236517               0.000000000               0.000000000               0.000000000               0.000000000              -0.005489711               0.003516225               0.002183548              -0.002498165               0.002004782              -0.000493383               0.000000000               0.000000000               0.000000000               0.000000000              -0.004577610               0.004636621               0.002521422              -0.002296177               0.002310916               0.000014739               0.000000000               0.000000000               0.000000000               0.000000000              -0.003820007               0.005333794               0.002460736              -0.002099223               0.002477653               0.000378431               0.000000000               0.000000000               0.000000000               0.000000000              -0.003138784               0.005759309               0.002279200              -0.001896954               0.002552068               0.000655114               0.000000000               0.000000000               0.000000000               0.000000000              -0.002504570               0.005995865               0.002069919              -0.001688693               0.002561499               0.000872806               0.000000000               0.000000000               0.000000000               0.000000000              -0.001916046               0.006090443               0.001864984              -0.001479820               0.002523400               0.001043580               0.000000000               0.000000000               0.000000000               0.000000000              -0.001363760               0.006085285               0.001678434              -0.001272068               0.002452430               0.001180362               0.000000000               0.000000000               0.000000000               0.000000000              -0.000845776               0.006006851               0.001509211              -0.001068020               0.002358270               0.001290250               0.000000000               0.000000000               0.000000000               0.000000000              -0.000368008               0.005879719               0.001347355              -0.000872966               0.002250875               0.001377909               0.000000000               0.000000000               0.000000000               0.000000000               0.000063454               0.005730861               0.001185329              -0.000692561               0.002141122               0.001448560               0.000000000               0.000000000               0.000000000               0.000000000               0.000442861               0.005562697               0.001012930              -0.000529263               0.002030635               0.001501371               0.000000000               0.000000000               0.000000000               0.000000000               0.000765778               0.005387859               0.000809080              -0.000386315               0.001924707               0.001538392               0.000000000               0.000000000               0.000000000               0.000000000               0.001022920               0.005228232               0.000564684              -0.000269934               0.001832704               0.001562771               0.000000000               0.000000000               0.000000000               0.000000000               0.001185079               0.005101864               0.000289426              -0.000193328               0.001765047               0.001571719               0.000000000               0.000000000               0.000000000               0.000000000               0.001233308               0.005047246               0.000145478              -0.000168415               0.001738537               0.001570122               0.000000000               0.000000000               0.000000000               0.000000000              -0.010896963              -0.000773324              -0.001385138              -0.003989693               0.001072115              -0.002917578               0.000000000               0.000000000               0.000000000               0.000000000              -0.007848372               0.000692174               0.000341126              -0.003029658               0.001240602              -0.001789056               0.000000000               0.000000000               0.000000000               0.000000000              -0.005705192               0.001985206               0.001897994              -0.002387595               0.001457590              -0.000930005               0.000000000               0.000000000               0.000000000               0.000000000              -0.004441567               0.003098572               0.002324044              -0.002052905               0.001717146              -0.000335759               0.000000000               0.000000000               0.000000000               0.000000000              -0.003555405               0.003943293               0.002343127              -0.001826185               0.001923145               0.000096960               0.000000000               0.000000000               0.000000000               0.000000000              -0.002841532               0.004565113               0.002219353              -0.001636211               0.002067092               0.000430881               0.000000000               0.000000000               0.000000000               0.000000000              -0.002218211               0.004999269               0.002043977              -0.001456735               0.002151984               0.000695249               0.000000000               0.000000000               0.000000000               0.000000000              -0.001648430               0.005279646               0.001861952              -0.001278115               0.002185902               0.000907787               0.000000000               0.000000000               0.000000000               0.000000000              -0.001106978               0.005443211               0.001696143              -0.001095516               0.002179557               0.001084041               0.000000000               0.000000000               0.000000000               0.000000000              -0.000581323               0.005512291               0.001545311              -0.000907031               0.002139755               0.001232724               0.000000000               0.000000000               0.000000000               0.000000000              -0.000074137               0.005510541               0.001399339              -0.000716618               0.002075701               0.001359083               0.000000000               0.000000000               0.000000000               0.000000000               0.000411545               0.005469058               0.001253832              -0.000529302               0.001999435               0.001470133               0.000000000               0.000000000               0.000000000               0.000000000               0.000872755               0.005402685               0.001095951              -0.000348052               0.001916894               0.001568842               0.000000000               0.000000000               0.000000000               0.000000000               0.001307008               0.005319525               0.000905837              -0.000174813               0.001831428               0.001656615               0.000000000               0.000000000               0.000000000               0.000000000               0.001709913               0.005220382               0.000664091              -0.000011331               0.001743887               0.001732556               0.000000000               0.000000000               0.000000000               0.000000000               0.002060090               0.005113232               0.000358491               0.000133378               0.001659934               0.001793312               0.000000000               0.000000000               0.000000000               0.000000000               0.002261091               0.005076752               0.000198247               0.000213313               0.001621129               0.001834442               0.000000000               0.000000000               0.000000000               0.000000000              -0.012686121              -0.001119210              -0.001209683              -0.004617391               0.001166052              -0.003451339               0.000000000               0.000000000               0.000000000               0.000000000              -0.008811445              -0.000093238               0.000144306              -0.003292634               0.001066458              -0.002226176               0.000000000               0.000000000               0.000000000               0.000000000              -0.005885530               0.000734686               0.001397270              -0.002298907               0.001011190              -0.001287717               0.000000000               0.000000000               0.000000000               0.000000000              -0.004279769               0.001755023               0.001788960              -0.001824289               0.001193095              -0.000631194               0.000000000               0.000000000               0.000000000               0.000000000              -0.003249483               0.002668369               0.001847398              -0.001552099               0.001406812              -0.000145287               0.000000000               0.000000000               0.000000000               0.000000000              -0.002493085               0.003419471               0.001777430              -0.001362338               0.001593924               0.000231586               0.000000000               0.000000000               0.000000000               0.000000000              -0.001870267               0.003999611               0.001654083              -0.001201299               0.001733623               0.000532324               0.000000000               0.000000000               0.000000000               0.000000000              -0.001312891               0.004428811               0.001519008              -0.001045933               0.001824900               0.000778966               0.000000000               0.000000000               0.000000000               0.000000000              -0.000785180               0.004733021               0.001394993              -0.000886069               0.001873014               0.000986945               0.000000000               0.000000000               0.000000000               0.000000000              -0.000269674               0.004941290               0.001280701              -0.000718788               0.001886676               0.001167888               0.000000000               0.000000000               0.000000000               0.000000000               0.000251291               0.005078485               0.001169172              -0.000540576               0.001873003               0.001332427               0.000000000               0.000000000               0.000000000               0.000000000               0.000778528               0.005156452               0.001059033              -0.000352608               0.001836336               0.001483728               0.000000000               0.000000000               0.000000000               0.000000000               0.001313713               0.005196337               0.000941383              -0.000156900               0.001784395               0.001627495               0.000000000               0.000000000               0.000000000               0.000000000               0.001864367               0.005204934               0.000798327               0.000048520               0.001718787               0.001767307               0.000000000               0.000000000               0.000000000               0.000000000               0.002429286               0.005171147               0.000607429               0.000264586               0.001635503               0.001900089               0.000000000               0.000000000               0.000000000               0.000000000               0.003009170               0.005098471               0.000340158               0.000491125               0.001535765               0.002026890               0.000000000               0.000000000               0.000000000               0.000000000               0.003416832               0.005095725               0.000199172               0.000644340               0.001483778               0.002128118               0.000000000               0.000000000               0.000000000               0.000000000              -0.013884698              -0.001256561              -0.000703387              -0.005049689               0.001264367              -0.003785321               0.000000000               0.000000000               0.000000000               0.000000000              -0.009470328              -0.000560313               0.000040794              -0.003481332               0.000973666              -0.002507665               0.000000000               0.000000000               0.000000000               0.000000000              -0.006010809              -0.000087235               0.000739129              -0.002243147               0.000718632              -0.001524515               0.000000000               0.000000000               0.000000000               0.000000000              -0.004152024               0.000829899               0.000973177              -0.001660744               0.000830208              -0.000830536               0.000000000               0.000000000               0.000000000               0.000000000              -0.003009259               0.001759649               0.001019925              -0.001348426               0.001036018              -0.000312408               0.000000000               0.000000000               0.000000000               0.000000000              -0.002212221               0.002581516               0.000990490              -0.001152270               0.001244586               0.000092316               0.000000000               0.000000000               0.000000000               0.000000000              -0.001586271               0.003254078               0.000928403              -0.001001609               0.001418551               0.000416942               0.000000000               0.000000000               0.000000000               0.000000000              -0.001039361               0.003778303               0.000858908              -0.000862046               0.001546770               0.000684724               0.000000000               0.000000000               0.000000000               0.000000000              -0.000528227               0.004174929               0.000791682              -0.000719950               0.001631612               0.000911662               0.000000000               0.000000000               0.000000000               0.000000000              -0.000023555               0.004483880               0.000728981              -0.000569317               0.001684384               0.001115067               0.000000000               0.000000000               0.000000000               0.000000000               0.000498913               0.004729488               0.000669131              -0.000404093               0.001711178               0.001307085               0.000000000               0.000000000               0.000000000               0.000000000               0.001051737               0.004911637               0.000607932              -0.000219553               0.001710380               0.001490827               0.000000000               0.000000000               0.000000000               0.000000000               0.001641888               0.005037811               0.000546040              -0.000014019               0.001683926               0.001669907               0.000000000               0.000000000               0.000000000               0.000000000               0.002278425               0.005107299               0.000470673               0.000215995               0.001630418               0.001846413               0.000000000               0.000000000               0.000000000               0.000000000               0.002974039               0.005117805               0.000363888               0.000475534               0.001547407               0.002022941               0.000000000               0.000000000               0.000000000               0.000000000               0.003752446               0.005073092               0.000207888               0.000773023               0.001433340               0.002206362               0.000000000               0.000000000               0.000000000               0.000000000               0.004347747               0.005101162               0.000127237               0.000992750               0.001369454               0.002362204               0.000000000               0.000000000               0.000000000               0.000000000              -0.014308326              -0.001287299              -0.000000000              -0.005204707               0.001305794              -0.003898913               0.000000000               0.000000000               0.000000000               0.000000000              -0.009705960              -0.000714393              -0.000000000              -0.003550433               0.000945340              -0.002605093               0.000000000               0.000000000               0.000000000               0.000000000              -0.006055936              -0.000375623              -0.000000000              -0.002224022               0.000616129              -0.001607893               0.000000000               0.000000000               0.000000000               0.000000000              -0.004103206               0.000498932               0.000000000              -0.001601067               0.000699995              -0.000901072               0.000000000               0.000000000               0.000000000               0.000000000              -0.002918178               0.001429227               0.000000000              -0.001272968               0.000900726              -0.000372242               0.000000000               0.000000000               0.000000000               0.000000000              -0.002104838               0.002274036              -0.000000000              -0.001073566               0.001115860               0.000042293               0.000000000               0.000000000               0.000000000               0.000000000              -0.001477577               0.002982736               0.000000000              -0.000926931               0.001303212               0.000376281               0.000000000               0.000000000               0.000000000               0.000000000              -0.000935394               0.003539055              -0.000000000              -0.000793153               0.001444057               0.000650905               0.000000000               0.000000000               0.000000000               0.000000000              -0.000433948               0.003963386               0.000000000              -0.000658152               0.001540499               0.000882347               0.000000000               0.000000000               0.000000000               0.000000000               0.000069660               0.004307227               0.000000000              -0.000512280               0.001606488               0.001094208               0.000000000               0.000000000               0.000000000               0.000000000               0.000591459               0.004591684              -0.000000000              -0.000352163               0.001647933               0.001295771               0.000000000               0.000000000               0.000000000               0.000000000               0.001151784               0.004817531               0.000000000              -0.000170272               0.001662585               0.001492313               0.000000000               0.000000000               0.000000000               0.000000000               0.001761974               0.004978215               0.000000000               0.000038463               0.001646567               0.001685030               0.000000000               0.000000000               0.000000000               0.000000000               0.002427222               0.005065864              -0.000000000               0.000276972               0.001596280               0.001873253               0.000000000               0.000000000               0.000000000               0.000000000               0.003174407               0.005094363              -0.000000000               0.000553602               0.001513570               0.002067172               0.000000000               0.000000000               0.000000000               0.000000000               0.004037307               0.005065708              -0.000000000               0.000880768               0.001394963               0.002275731               0.000000000               0.000000000               0.000000000               0.000000000               0.004710283               0.005107485               0.000000000               0.001127909               0.001326508               0.002454418               0.000000000               0.000000000               0.000000000               0.000000000               0.002227962               0.023869623              -0.000000000              -0.002148212               0.008672532               0.006524320               0.000000000               0.000000000               0.000000000               0.000000000               0.002121459               0.018338760               0.000000000              -0.001496794               0.006611790               0.005114996               0.000000000               0.000000000               0.000000000               0.000000000               0.002705765               0.013852202               0.000000000              -0.000716862               0.004856308               0.004139447               0.000000000               0.000000000               0.000000000               0.000000000               0.002470606               0.011338878              -0.000000000              -0.000490881               0.003943215               0.003452334               0.000000000               0.000000000               0.000000000               0.000000000               0.002014393               0.009758847              -0.000000000              -0.000464457               0.003407736               0.002943278               0.000000000               0.000000000               0.000000000               0.000000000               0.001541273               0.008650846               0.000000000              -0.000503377               0.003051379               0.002548002               0.000000000               0.000000000               0.000000000               0.000000000               0.001122935               0.007789284               0.000000000              -0.000552559               0.002780588               0.002228030               0.000000000               0.000000000               0.000000000               0.000000000               0.000783959               0.007061816              -0.000000000              -0.000588741               0.002550162               0.001961421               0.000000000               0.000000000               0.000000000               0.000000000               0.000518367               0.006396627              -0.000000000              -0.000605189               0.002333917               0.001728728               0.000000000               0.000000000               0.000000000               0.000000000               0.000319505               0.005763875               0.000000000              -0.000600669               0.002121495               0.001520827               0.000000000               0.000000000               0.000000000               0.000000000               0.000170631               0.005141984              -0.000000000              -0.000578760               0.001906898               0.001328138               0.000000000               0.000000000               0.000000000               0.000000000               0.000056188               0.004515833              -0.000000000              -0.000543407               0.001686398               0.001142991               0.000000000               0.000000000               0.000000000               0.000000000              -0.000029673               0.003876427               0.000000000              -0.000495680               0.001457356               0.000961676               0.000000000               0.000000000               0.000000000               0.000000000              -0.000084400               0.003201883              -0.000000000              -0.000431884               0.001211245               0.000779361               0.000000000               0.000000000               0.000000000               0.000000000              -0.000097761               0.002466348              -0.000000000              -0.000344953               0.000937092               0.000592139               0.000000000               0.000000000               0.000000000               0.000000000              -0.000060931               0.001639823               0.000000000              -0.000227827               0.000622545               0.000394718               0.000000000               0.000000000               0.000000000               0.000000000              -0.000097132               0.001006289               0.000000000              -0.000162210               0.000389496               0.000227286               0.000000000               0.000000000               0.000000000               0.000000000               0.002294831               0.023360036              -0.001572553              -0.002059438               0.008473080               0.006413642               0.000000000               0.000000000               0.000000000               0.000000000               0.002055556               0.018015280              -0.000702764              -0.001481073               0.006498724               0.005017651               0.000000000               0.000000000               0.000000000               0.000000000               0.002501782               0.013731264               0.000156629              -0.000778238               0.004836455               0.004058217               0.000000000               0.000000000               0.000000000               0.000000000               0.002217898               0.011317631               0.000510927              -0.000582991               0.003966836               0.003383845               0.000000000               0.000000000               0.000000000               0.000000000               0.001753813               0.009784790               0.000646485              -0.000565418               0.003450037               0.002884619               0.000000000               0.000000000               0.000000000               0.000000000               0.001293452               0.008697715               0.000683638              -0.000602169               0.003099932               0.002497763               0.000000000               0.000000000               0.000000000               0.000000000               0.000900199               0.007849888               0.000677363              -0.000643660               0.002831157               0.002187496               0.000000000               0.000000000               0.000000000               0.000000000               0.000587948               0.007125560               0.000650278              -0.000670213               0.002598567               0.001928354               0.000000000               0.000000000               0.000000000               0.000000000               0.000350945               0.006468389               0.000614914              -0.000676943               0.002381756               0.001704813               0.000000000               0.000000000               0.000000000               0.000000000               0.000176526               0.005842060               0.000578819              -0.000664059               0.002168687               0.001504628               0.000000000               0.000000000               0.000000000               0.000000000               0.000048852               0.005227291               0.000542683              -0.000635091               0.001954110               0.001319019               0.000000000               0.000000000               0.000000000               0.000000000              -0.000044130               0.004613687               0.000507915              -0.000593258               0.001735633               0.001142375               0.000000000               0.000000000               0.000000000               0.000000000              -0.000104335               0.003995501               0.000466205              -0.000538562               0.001511341               0.000972779               0.000000000               0.000000000               0.000000000               0.000000000              -0.000132868               0.003354857               0.000402868              -0.000469182               0.001274668               0.000805487               0.000000000               0.000000000               0.000000000               0.000000000              -0.000124969               0.002668875               0.000310635              -0.000380472               0.001016440               0.000635968               0.000000000               0.000000000               0.000000000               0.000000000              -0.000073302               0.001925464               0.000179338              -0.000268171               0.000731205               0.000463034               0.000000000               0.000000000               0.000000000               0.000000000              -0.000094759               0.001373869               0.000112159              -0.000207268               0.000527041               0.000319773               0.000000000               0.000000000               0.000000000               0.000000000               0.002435395               0.021899701              -0.002904790              -0.001824186               0.007907889               0.006083703               0.000000000               0.000000000               0.000000000               0.000000000               0.001841065               0.017103249              -0.001292858              -0.001447504               0.006183527               0.004736024               0.000000000               0.000000000               0.000000000               0.000000000               0.001911166               0.013384112               0.000281808              -0.000956324               0.004780101               0.003823777               0.000000000               0.000000000               0.000000000               0.000000000               0.001501432               0.011245747               0.000904101              -0.000842679               0.004029438               0.003186758               0.000000000               0.000000000               0.000000000               0.000000000               0.001032716               0.009843496               0.001130971              -0.000843167               0.003562188               0.002719021               0.000000000               0.000000000               0.000000000               0.000000000               0.000626815               0.008817612               0.001188372              -0.000867144               0.003228223               0.002361078               0.000000000               0.000000000               0.000000000               0.000000000               0.000307818               0.007996350               0.001167691              -0.000884110               0.002960127               0.002076016               0.000000000               0.000000000               0.000000000               0.000000000               0.000070849               0.007287976               0.001111149              -0.000884427               0.002724110               0.001839683               0.000000000               0.000000000               0.000000000               0.000000000              -0.000094279               0.006642886               0.001041117              -0.000865714               0.002502844               0.001637131               0.000000000               0.000000000               0.000000000               0.000000000              -0.000202315               0.006031140               0.000968246              -0.000829759               0.002286946               0.001457187               0.000000000               0.000000000               0.000000000               0.000000000              -0.000268801               0.005440902               0.000897519              -0.000780911               0.002073920               0.001293008               0.000000000               0.000000000               0.000000000               0.000000000              -0.000303039               0.004867565               0.000828815              -0.000722084               0.001863200               0.001141116               0.000000000               0.000000000               0.000000000               0.000000000              -0.000301563               0.004306104               0.000748447              -0.000651348               0.001652470               0.001001122               0.000000000               0.000000000               0.000000000               0.000000000              -0.000265432               0.003748109               0.000630106              -0.000568050               0.001438707               0.000870657               0.000000000               0.000000000               0.000000000               0.000000000              -0.000200193               0.003189887               0.000470675              -0.000473807               0.001221221               0.000747413               0.000000000               0.000000000               0.000000000               0.000000000              -0.000107339               0.002641907               0.000264218              -0.000370490               0.001004123               0.000633634               0.000000000               0.000000000               0.000000000               0.000000000              -0.000092670               0.002269230               0.000159482              -0.000318404               0.000862537               0.000544133               0.000000000               0.000000000               0.000000000               0.000000000               0.002534960               0.019678040              -0.003821261              -0.001509144               0.007062328               0.005553185               0.000000000               0.000000000               0.000000000               0.000000000               0.001449142               0.015741055              -0.001698829              -0.001424201               0.005721699               0.004297498               0.000000000               0.000000000               0.000000000               0.000000000               0.000997321               0.012860197               0.000342880              -0.001233526               0.004697865               0.003464339               0.000000000               0.000000000               0.000000000               0.000000000               0.000452414               0.011114906               0.001100875              -0.001219705               0.004111500               0.002891795               0.000000000               0.000000000               0.000000000               0.000000000               0.000016344               0.009893778               0.001357542              -0.001230591               0.003708090               0.002477499               0.000000000               0.000000000               0.000000000               0.000000000              -0.000289879               0.008949050               0.001405796              -0.001227333               0.003392098               0.002164764               0.000000000               0.000000000               0.000000000               0.000000000              -0.000488598               0.008161919               0.001364720              -0.001203462               0.003121766               0.001918305               0.000000000               0.000000000               0.000000000               0.000000000              -0.000603436               0.007472294               0.001282536              -0.001160323               0.002877514               0.001717191               0.000000000               0.000000000               0.000000000               0.000000000              -0.000653366               0.006839460               0.001184531              -0.001099943               0.002646445               0.001546502               0.000000000               0.000000000               0.000000000               0.000000000              -0.000659488               0.006247126               0.001087142              -0.001028197               0.002425087               0.001396890               0.000000000               0.000000000               0.000000000               0.000000000              -0.000639617               0.005694055               0.000995818              -0.000951611               0.002215203               0.001263592               0.000000000               0.000000000               0.000000000               0.000000000              -0.000592094               0.005177898               0.000905895              -0.000869271               0.002015706               0.001146435               0.000000000               0.000000000               0.000000000               0.000000000              -0.000513578               0.004691595               0.000799169              -0.000779039               0.001823529               0.001044490               0.000000000               0.000000000               0.000000000               0.000000000              -0.000401825               0.004236622               0.000655308              -0.000680261               0.001638947               0.000958686               0.000000000               0.000000000               0.000000000               0.000000000              -0.000266209               0.003829737               0.000476203              -0.000578544               0.001469414               0.000890870               0.000000000               0.000000000               0.000000000               0.000000000              -0.000130004               0.003484259               0.000259982              -0.000484282               0.001322835               0.000838553               0.000000000               0.000000000               0.000000000               0.000000000              -0.000083712               0.003280948               0.000150421              -0.000441509               0.001240808               0.000799299               0.000000000               0.000000000               0.000000000               0.000000000               0.002466214               0.016973391              -0.004237907              -0.001196844               0.006056688               0.004859844               0.000000000               0.000000000               0.000000000               0.000000000               0.000871990               0.014105073              -0.001903968              -0.001436135               0.005180355               0.003744220               0.000000000               0.000000000               0.000000000               0.000000000              -0.000117918               0.012221347               0.000303439              -0.001571884               0.004597703               0.003025819               0.000000000               0.000000000               0.000000000               0.000000000              -0.000741642               0.010909034               0.001062229              -0.001641741               0.004183555               0.002541814               0.000000000               0.000000000               0.000000000               0.000000000              -0.001088133               0.009878907               0.001293492              -0.001642909               0.003840572               0.002197663               0.000000000               0.000000000               0.000000000               0.000000000              -0.001247110               0.009021102               0.001319893              -0.001595300               0.003538771               0.001943470               0.000000000               0.000000000               0.000000000               0.000000000              -0.001285022               0.008270086               0.001263368              -0.001515641               0.003261881               0.001746241               0.000000000               0.000000000               0.000000000               0.000000000              -0.001245185               0.007593207               0.001170542              -0.001416092               0.003003074               0.001586982               0.000000000               0.000000000               0.000000000               0.000000000              -0.001160176               0.006973460               0.001063726              -0.001306746               0.002760045               0.001453299               0.000000000               0.000000000               0.000000000               0.000000000              -0.001049811               0.006409192               0.000962254              -0.001194826               0.002534651               0.001339826               0.000000000               0.000000000               0.000000000               0.000000000              -0.000925339               0.005899422               0.000873294              -0.001084427               0.002327930               0.001243503               0.000000000               0.000000000               0.000000000               0.000000000              -0.000788135               0.005442450               0.000782217              -0.000975855               0.002139417               0.001163562               0.000000000               0.000000000               0.000000000               0.000000000              -0.000628708               0.005031973               0.000670570              -0.000864760               0.001965561               0.001100801               0.000000000               0.000000000               0.000000000               0.000000000              -0.000454879               0.004674394               0.000531476              -0.000754877               0.001809741               0.001054864               0.000000000               0.000000000               0.000000000               0.000000000              -0.000284107               0.004390382               0.000371243              -0.000655336               0.001681892               0.001026555               0.000000000               0.000000000               0.000000000               0.000000000              -0.000132330               0.004194119               0.000193167              -0.000573887               0.001589322               0.001015434               0.000000000               0.000000000               0.000000000               0.000000000              -0.000070242               0.004105958               0.000104189              -0.000539584               0.001548500               0.001008916               0.000000000               0.000000000               0.000000000               0.000000000               0.002092890               0.014074016              -0.004167828              -0.000974419               0.005016097               0.004041678               0.000000000               0.000000000               0.000000000               0.000000000               0.000107277               0.012377425              -0.001937494              -0.001506947               0.004628082               0.003121136               0.000000000               0.000000000               0.000000000               0.000000000              -0.001304209               0.011521320               0.000139447              -0.001929238               0.004483481               0.002554243               0.000000000               0.000000000               0.000000000               0.000000000              -0.001897656               0.010611796               0.000796352              -0.002038091               0.004216593               0.002178503               0.000000000               0.000000000               0.000000000               0.000000000              -0.002080208               0.009755400               0.000977949              -0.001999498               0.003918267               0.001918769               0.000000000               0.000000000               0.000000000               0.000000000              -0.002052410               0.008973068               0.000988072              -0.001891283               0.003621420               0.001730137               0.000000000               0.000000000               0.000000000               0.000000000              -0.001913040               0.008253021               0.000932854              -0.001749013               0.003333984               0.001584971               0.000000000               0.000000000               0.000000000               0.000000000              -0.001713013               0.007595386               0.000852959              -0.001591799               0.003062370               0.001470570               0.000000000               0.000000000               0.000000000               0.000000000              -0.001489115               0.007001394               0.000765075              -0.001433589               0.002811638               0.001378049               0.000000000               0.000000000               0.000000000               0.000000000              -0.001260832               0.006476183               0.000684875              -0.001282332               0.002586150               0.001303818               0.000000000               0.000000000               0.000000000               0.000000000              -0.001039663               0.006012306               0.000617724              -0.001141409               0.002384552               0.001243143               0.000000000               0.000000000               0.000000000               0.000000000              -0.000829897               0.005604978               0.000545768              -0.001011831               0.002205584               0.001193753               0.000000000               0.000000000               0.000000000               0.000000000              -0.000617198               0.005255040               0.000449716              -0.000888327               0.002047771               0.001159444               0.000000000               0.000000000               0.000000000               0.000000000              -0.000413282               0.004972608               0.000338215              -0.000776555               0.001916371               0.001139816               0.000000000               0.000000000               0.000000000               0.000000000              -0.000240736               0.004770784               0.000222480              -0.000686622               0.001819119               0.001132497               0.000000000               0.000000000               0.000000000               0.000000000              -0.000105420               0.004656683               0.000106713              -0.000621616               0.001759418               0.001137801               0.000000000               0.000000000               0.000000000               0.000000000              -0.000050040               0.004621194               0.000051235              -0.000596413               0.001739187               0.001142774               0.000000000               0.000000000               0.000000000               0.000000000               0.001347183               0.011220567              -0.003699542              -0.000897378               0.004039277               0.003141898               0.000000000               0.000000000               0.000000000               0.000000000              -0.000804826               0.010706441              -0.001858950              -0.001640112               0.004115482               0.002475370               0.000000000               0.000000000               0.000000000               0.000000000              -0.002435889               0.010793887              -0.000155555              -0.002262689               0.004352156               0.002089467               0.000000000               0.000000000               0.000000000               0.000000000              -0.002872536               0.010215555               0.000352503              -0.002354140               0.004189864               0.001835724               0.000000000               0.000000000               0.000000000               0.000000000              -0.002834071               0.009500356               0.000493921              -0.002250315               0.003916859               0.001666543               0.000000000               0.000000000               0.000000000               0.000000000              -0.002599064               0.008783024               0.000510893              -0.002072522               0.003618486               0.001545964               0.000000000               0.000000000               0.000000000               0.000000000              -0.002279191               0.008103887               0.000482340              -0.001867678               0.003323828               0.001456150               0.000000000               0.000000000               0.000000000               0.000000000              -0.001929717               0.007477838               0.000439866              -0.001658370               0.003045378               0.001387008               0.000000000               0.000000000               0.000000000               0.000000000              -0.001588104               0.006919241               0.000395358              -0.001460441               0.002793204               0.001332763               0.000000000               0.000000000               0.000000000               0.000000000              -0.001269455               0.006434281               0.000354610              -0.001280328               0.002571515               0.001291187               0.000000000               0.000000000               0.000000000               0.000000000              -0.000978342               0.006011407               0.000320243              -0.001118301               0.002376549               0.001258248               0.000000000               0.000000000               0.000000000               0.000000000              -0.000720458               0.005641774               0.000280086              -0.000975391               0.002205703               0.001230312               0.000000000               0.000000000               0.000000000               0.000000000              -0.000491520               0.005335306               0.000217714              -0.000851231               0.002062161               0.001210930               0.000000000               0.000000000               0.000000000               0.000000000              -0.000299038               0.005102732               0.000147470              -0.000749979               0.001950886               0.001200908               0.000000000               0.000000000               0.000000000               0.000000000              -0.000156359               0.004946814               0.000084858              -0.000676985               0.001874583               0.001197598               0.000000000               0.000000000               0.000000000               0.000000000              -0.000061843               0.004863083               0.000033589              -0.000631075               0.001831370               0.001200295               0.000000000               0.000000000               0.000000000               0.000000000              -0.000030709               0.004835097               0.000013986              -0.000615901               0.001816983               0.001201082               0.000000000               0.000000000               0.000000000               0.000000000               0.000258903               0.008594671              -0.002945668              -0.000977245               0.003190609               0.002213364               0.000000000               0.000000000               0.000000000               0.000000000              -0.001809092               0.009190524              -0.001728406              -0.001827221               0.003672551               0.001845329               0.000000000               0.000000000               0.000000000               0.000000000              -0.003397848               0.010039812              -0.000571793              -0.002529163               0.004189625               0.001660462               0.000000000               0.000000000               0.000000000               0.000000000              -0.003568615               0.009714610              -0.000198531              -0.002552551               0.004089021               0.001536471               0.000000000               0.000000000               0.000000000               0.000000000              -0.003283904               0.009118564              -0.000059249              -0.002371279               0.003829917               0.001458638               0.000000000               0.000000000               0.000000000               0.000000000              -0.002851455               0.008470916              -0.000003702              -0.002128155               0.003532995               0.001404840               0.000000000               0.000000000               0.000000000               0.000000000              -0.002375414               0.007842805               0.000017347              -0.001871126               0.003237951               0.001366825               0.000000000               0.000000000               0.000000000               0.000000000              -0.001907868               0.007262071               0.000028375              -0.001623205               0.002961734               0.001338529               0.000000000               0.000000000               0.000000000               0.000000000              -0.001481621               0.006746039               0.000040006              -0.001398859               0.002714944               0.001316084               0.000000000               0.000000000               0.000000000               0.000000000              -0.001110855               0.006295358               0.000047954              -0.001203487               0.002499594               0.001296107               0.000000000               0.000000000               0.000000000               0.000000000              -0.000787792               0.005903127               0.000051538              -0.001033310               0.002312126               0.001278816               0.000000000               0.000000000               0.000000000               0.000000000              -0.000519437               0.005565107               0.000048611              -0.000890425               0.002151825               0.001261400               0.000000000               0.000000000               0.000000000               0.000000000              -0.000311408               0.005289908               0.000030241              -0.000778015               0.002022623               0.001244609               0.000000000               0.000000000               0.000000000               0.000000000              -0.000157962               0.005096002               0.000010877              -0.000696234               0.001930728               0.001234494               0.000000000               0.000000000               0.000000000               0.000000000              -0.000062822               0.004979760               0.000002812              -0.000646027               0.001875245               0.001229219               0.000000000               0.000000000               0.000000000               0.000000000              -0.000016994               0.004924483              -0.000000229              -0.000621932               0.001848789               0.001226857               0.000000000               0.000000000               0.000000000               0.000000000              -0.000009149               0.004906747               0.000001010              -0.000616773               0.001841157               0.001224384               0.000000000               0.000000000               0.000000000               0.000000000              -0.001028936               0.006379413              -0.002035043              -0.001183276               0.002520874               0.001337599               0.000000000               0.000000000               0.000000000               0.000000000              -0.002789061               0.007831567              -0.001591495              -0.002024839               0.003285442               0.001260603               0.000000000               0.000000000               0.000000000               0.000000000              -0.004150308               0.009272977              -0.001073164              -0.002715481               0.003996122               0.001280641               0.000000000               0.000000000               0.000000000               0.000000000              -0.004039981               0.009213848              -0.000783739              -0.002666717               0.003960157               0.001293440               0.000000000               0.000000000               0.000000000               0.000000000              -0.003549567               0.008765621              -0.000612513              -0.002426784               0.003730772               0.001303988               0.000000000               0.000000000               0.000000000               0.000000000              -0.002959009               0.008212415              -0.000499509              -0.002136175               0.003449503               0.001313328               0.000000000               0.000000000               0.000000000               0.000000000              -0.002362550               0.007652089              -0.000415952              -0.001842463               0.003164825               0.001322362               0.000000000               0.000000000               0.000000000               0.000000000              -0.001810611               0.007124040              -0.000344001              -0.001569480               0.002897816               0.001328336               0.000000000               0.000000000               0.000000000               0.000000000              -0.001329113               0.006649966              -0.000280894              -0.001329660               0.002659853               0.001330193               0.000000000               0.000000000               0.000000000               0.000000000              -0.000926512               0.006222381              -0.000227020              -0.001125237               0.002449185               0.001323948               0.000000000               0.000000000               0.000000000               0.000000000              -0.000590861               0.005845039              -0.000181602              -0.000952200               0.002265727               0.001313527               0.000000000               0.000000000               0.000000000               0.000000000              -0.000328138               0.005516529              -0.000142981              -0.000812616               0.002109697               0.001297081               0.000000000               0.000000000               0.000000000               0.000000000              -0.000145479               0.005253314              -0.000108509              -0.000711217               0.001988159               0.001276942               0.000000000               0.000000000               0.000000000               0.000000000              -0.000029037               0.005086187              -0.000068487              -0.000646660               0.001910932               0.001264272               0.000000000               0.000000000               0.000000000               0.000000000               0.000024285               0.005000307              -0.000027341              -0.000615930               0.001872062               0.001256132               0.000000000               0.000000000               0.000000000               0.000000000               0.000028416               0.004965897              -0.000000205              -0.000610080               0.001858642               0.001248563               0.000000000               0.000000000               0.000000000               0.000000000               0.000020840               0.004961019               0.000008224              -0.000612311               0.001857760               0.001245449               0.000000000               0.000000000               0.000000000               0.000000000              -0.002504254               0.004321592              -0.001085866              -0.001479291               0.001933613               0.000454322               0.000000000               0.000000000               0.000000000               0.000000000              -0.003605956               0.006239453              -0.001441524              -0.002132160               0.002790517               0.000658356               0.000000000               0.000000000               0.000000000               0.000000000              -0.004598613               0.008112043              -0.001597018              -0.002738479               0.003616813               0.000878335               0.000000000               0.000000000               0.000000000               0.000000000              -0.004337651               0.008460617              -0.001397824              -0.002684190               0.003714907               0.001030717               0.000000000               0.000000000               0.000000000               0.000000000              -0.003764839               0.008296304              -0.001192974              -0.002448847               0.003581689               0.001132842               0.000000000               0.000000000               0.000000000               0.000000000              -0.003122296               0.007951907              -0.001020915              -0.002164844               0.003372224               0.001207380               0.000000000               0.000000000               0.000000000               0.000000000              -0.002491211               0.007542030              -0.000872224              -0.001876953               0.003139636               0.001262683               0.000000000               0.000000000               0.000000000               0.000000000              -0.001907150               0.007120529              -0.000742572              -0.001605243               0.002908567               0.001303323               0.000000000               0.000000000               0.000000000               0.000000000              -0.001392638               0.006715622              -0.000631538              -0.001361689               0.002692415               0.001330726               0.000000000               0.000000000               0.000000000               0.000000000              -0.000957297               0.006330745              -0.000534088              -0.001150327               0.002493669               0.001343343               0.000000000               0.000000000               0.000000000               0.000000000              -0.000600724               0.005971099              -0.000443928              -0.000971656               0.002314232               0.001342575               0.000000000               0.000000000               0.000000000               0.000000000              -0.000321203               0.005641680              -0.000355377              -0.000825659               0.002155761               0.001330102               0.000000000               0.000000000               0.000000000               0.000000000              -0.000118801               0.005365835              -0.000262905              -0.000715278               0.002027020               0.001311742               0.000000000               0.000000000               0.000000000               0.000000000               0.000009140               0.005169583              -0.000165754              -0.000642769               0.001937433               0.001294665               0.000000000               0.000000000               0.000000000               0.000000000               0.000066819               0.005046550              -0.000079973              -0.000605760               0.001884086               0.001278326               0.000000000               0.000000000               0.000000000               0.000000000               0.000076799               0.004997599              -0.000024560              -0.000595899               0.001864483               0.001268584               0.000000000               0.000000000               0.000000000               0.000000000               0.000067822               0.004990817              -0.000003542              -0.000598417               0.001863062               0.001264644               0.000000000               0.000000000               0.000000000               0.000000000              -0.004369505               0.002470678              -0.000168716              -0.001947396               0.001472681              -0.000474714               0.000000000               0.000000000               0.000000000               0.000000000              -0.004523878               0.004634750              -0.001226334              -0.002275793               0.002303498               0.000027705               0.000000000               0.000000000               0.000000000               0.000000000              -0.004954846               0.006732118              -0.002017016              -0.002699576               0.003143875               0.000444299               0.000000000               0.000000000               0.000000000               0.000000000              -0.004563227               0.007464333              -0.001980525              -0.002644246               0.003369501               0.000725255               0.000000000               0.000000000               0.000000000               0.000000000              -0.003948775               0.007628336              -0.001778095              -0.002434327               0.003354195               0.000919868               0.000000000               0.000000000               0.000000000               0.000000000              -0.003291134               0.007536546              -0.001563044              -0.002176239               0.003237570               0.001061331               0.000000000               0.000000000               0.000000000               0.000000000              -0.002649605               0.007321034              -0.001363803              -0.001908727               0.003076562               0.001167836               0.000000000               0.000000000               0.000000000               0.000000000              -0.002042311               0.007045837              -0.001188346              -0.001646593               0.002897453               0.001250860               0.000000000               0.000000000               0.000000000               0.000000000              -0.001495255               0.006735058              -0.001036544              -0.001402599               0.002712530               0.001309931               0.000000000               0.000000000               0.000000000               0.000000000              -0.001021818               0.006414027              -0.000899557              -0.001184932               0.002532965               0.001348033               0.000000000               0.000000000               0.000000000               0.000000000              -0.000625961               0.006099840              -0.000767606              -0.000997213               0.002365664               0.001368451               0.000000000               0.000000000               0.000000000               0.000000000              -0.000305256               0.005796979              -0.000637415              -0.000839092               0.002212004               0.001372913               0.000000000               0.000000000               0.000000000               0.000000000              -0.000055204               0.005518245              -0.000500748              -0.000710480               0.002076223               0.001365743               0.000000000               0.000000000               0.000000000               0.000000000               0.000122890               0.005286332              -0.000351577              -0.000614706               0.001966995               0.001352289               0.000000000               0.000000000               0.000000000               0.000000000               0.000218888               0.005117674              -0.000205767              -0.000557625               0.001891749               0.001334124               0.000000000               0.000000000               0.000000000               0.000000000               0.000236089               0.005030709              -0.000087753              -0.000540304               0.001856988               0.001316684               0.000000000               0.000000000               0.000000000               0.000000000               0.000210272               0.004998644              -0.000031741              -0.000545977               0.001848190               0.001302213               0.000000000               0.000000000               0.000000000               0.000000000              -0.006504033               0.000968382               0.000627945              -0.002560057               0.001176138              -0.001383919               0.000000000               0.000000000               0.000000000               0.000000000              -0.005584331               0.003119455              -0.000936256              -0.002484052               0.001867822              -0.000616229               0.000000000               0.000000000               0.000000000               0.000000000              -0.005243267               0.005153846              -0.002222801              -0.002610450               0.002588080              -0.000022370               0.000000000               0.000000000               0.000000000               0.000000000              -0.004632462               0.006152665              -0.002386894              -0.002506251               0.002886284               0.000380033               0.000000000               0.000000000               0.000000000               0.000000000              -0.003965778               0.006615404              -0.002240728              -0.002314087               0.002976474               0.000662387               0.000000000               0.000000000               0.000000000               0.000000000              -0.003300890               0.006791327              -0.002021534              -0.002086745               0.002959334               0.000872589               0.000000000               0.000000000               0.000000000               0.000000000              -0.002657788               0.006801852              -0.001801592              -0.001846898               0.002882894               0.001035995               0.000000000               0.000000000               0.000000000               0.000000000              -0.002050817               0.006701631              -0.001600336              -0.001606757               0.002769440               0.001162683               0.000000000               0.000000000               0.000000000               0.000000000              -0.001491947               0.006527207              -0.001420141              -0.001375378               0.002634173               0.001258795               0.000000000               0.000000000               0.000000000               0.000000000              -0.000992210               0.006311781              -0.001255298              -0.001161049               0.002490922               0.001329873               0.000000000               0.000000000               0.000000000               0.000000000              -0.000554609               0.006079279              -0.001097960              -0.000967886               0.002349034               0.001381148               0.000000000               0.000000000               0.000000000               0.000000000              -0.000182119               0.005839615              -0.000942776              -0.000798245               0.002212600               0.001414355               0.000000000               0.000000000               0.000000000               0.000000000               0.000124424               0.005597741              -0.000778971              -0.000653057               0.002083580               0.001430523               0.000000000               0.000000000               0.000000000               0.000000000               0.000362447               0.005369884              -0.000591633              -0.000535317               0.001968382               0.001433065               0.000000000               0.000000000               0.000000000               0.000000000               0.000518615               0.005185115              -0.000384916              -0.000453658               0.001879574               0.001425916               0.000000000               0.000000000               0.000000000               0.000000000               0.000574037               0.005068951              -0.000183603              -0.000418354               0.001829085               0.001410731               0.000000000               0.000000000               0.000000000               0.000000000               0.000553411               0.005018210              -0.000082019              -0.000419746               0.001812635               0.001392889               0.000000000               0.000000000               0.000000000               0.000000000              -0.008752686              -0.000107706               0.001180004              -0.003268791               0.001053688              -0.002215104               0.000000000               0.000000000               0.000000000               0.000000000              -0.006725009               0.001778975              -0.000620391              -0.002744247               0.001507730              -0.001236517               0.000000000               0.000000000               0.000000000               0.000000000              -0.005489711               0.003516225              -0.002183548              -0.002498165               0.002004782              -0.000493383               0.000000000               0.000000000               0.000000000               0.000000000              -0.004577610               0.004636621              -0.002521422              -0.002296177               0.002310916               0.000014739               0.000000000               0.000000000               0.000000000               0.000000000              -0.003820007               0.005333794              -0.002460736              -0.002099223               0.002477653               0.000378431               0.000000000               0.000000000               0.000000000               0.000000000              -0.003138784               0.005759309              -0.002279200              -0.001896954               0.002552068               0.000655114               0.000000000               0.000000000               0.000000000               0.000000000              -0.002504570               0.005995865              -0.002069919              -0.001688693               0.002561499               0.000872806               0.000000000               0.000000000               0.000000000               0.000000000              -0.001916046               0.006090443              -0.001864984              -0.001479820               0.002523400               0.001043580               0.000000000               0.000000000               0.000000000               0.000000000              -0.001363760               0.006085285              -0.001678434              -0.001272068               0.002452430               0.001180362               0.000000000               0.000000000               0.000000000               0.000000000              -0.000845776               0.006006851              -0.001509211              -0.001068020               0.002358270               0.001290250               0.000000000               0.000000000               0.000000000               0.000000000              -0.000368008               0.005879719              -0.001347355              -0.000872966               0.002250875               0.001377909               0.000000000               0.000000000               0.000000000               0.000000000               0.000063454               0.005730861              -0.001185329              -0.000692561               0.002141122               0.001448560               0.000000000               0.000000000               0.000000000               0.000000000               0.000442861               0.005562697              -0.001012930              -0.000529263               0.002030635               0.001501371               0.000000000               0.000000000               0.000000000               0.000000000               0.000765778               0.005387859              -0.000809080              -0.000386315               0.001924707               0.001538392               0.000000000               0.000000000               0.000000000               0.000000000               0.001022920               0.005228232              -0.000564684              -0.000269934               0.001832704               0.001562771               0.000000000               0.000000000               0.000000000               0.000000000               0.001185079               0.005101864              -0.000289426              -0.000193328               0.001765047               0.001571719               0.000000000               0.000000000               0.000000000               0.000000000               0.001233308               0.005047246              -0.000145478              -0.000168415               0.001738537               0.001570122               0.000000000               0.000000000               0.000000000               0.000000000              -0.010896963              -0.000773324               0.001385138              -0.003989693               0.001072115              -0.002917578               0.000000000               0.000000000               0.000000000               0.000000000              -0.007848372               0.000692174              -0.000341126              -0.003029658               0.001240602              -0.001789056               0.000000000               0.000000000               0.000000000               0.000000000              -0.005705192               0.001985206              -0.001897994              -0.002387595               0.001457590              -0.000930005               0.000000000               0.000000000               0.000000000               0.000000000              -0.004441567               0.003098572              -0.002324044              -0.002052905               0.001717146              -0.000335759               0.000000000               0.000000000               0.000000000               0.000000000              -0.003555405               0.003943293              -0.002343127              -0.001826185               0.001923145               0.000096960               0.000000000               0.000000000               0.000000000               0.000000000              -0.002841532               0.004565113              -0.002219353              -0.001636211               0.002067092               0.000430881               0.000000000               0.000000000               0.000000000               0.000000000              -0.002218211               0.004999269              -0.002043977              -0.001456735               0.002151984               0.000695249               0.000000000               0.000000000               0.000000000               0.000000000              -0.001648430               0.005279646              -0.001861952              -0.001278115               0.002185902               0.000907787               0.000000000               0.000000000               0.000000000               0.000000000              -0.001106978               0.005443211              -0.001696143              -0.001095516               0.002179557               0.001084041               0.000000000               0.000000000               0.000000000               0.000000000              -0.000581323               0.005512291              -0.001545311              -0.000907031               0.002139755               0.001232724               0.000000000               0.000000000               0.000000000               0.000000000              -0.000074137               0.005510541              -0.001399339              -0.000716618               0.002075701               0.001359083               0.000000000               0.000000000               0.000000000               0.000000000               0.000411545               0.005469058              -0.001253832              -0.000529302               0.001999435               0.001470133               0.000000000               0.000000000               0.000000000               0.000000000               0.000872755               0.005402685              -0.001095951              -0.000348052               0.001916894               0.001568842               0.000000000               0.000000000               0.000000000               0.000000000               0.001307008               0.005319525              -0.000905837              -0.000174813               0.001831428               0.001656615               0.000000000               0.000000000               0.000000000               0.000000000               0.001709913               0.005220382              -0.000664091              -0.000011331               0.001743887               0.001732556               0.000000000               0.000000000               0.000000000               0.000000000               0.002060090               0.005113232              -0.000358491               0.000133378               0.001659934               0.001793312               0.000000000               0.000000000               0.000000000               0.000000000               0.002261091               0.005076752              -0.000198247               0.000213313               0.001621129               0.001834442               0.000000000               0.000000000               0.000000000               0.000000000              -0.012686121              -0.001119210               0.001209683              -0.004617391               0.001166052              -0.003451339               0.000000000               0.000000000               0.000000000               0.000000000              -0.008811445              -0.000093238              -0.000144306              -0.003292634               0.001066458              -0.002226176               0.000000000               0.000000000               0.000000000               0.000000000              -0.005885530               0.000734686              -0.001397270              -0.002298907               0.001011190              -0.001287717               0.000000000               0.000000000               0.000000000               0.000000000              -0.004279769               0.001755023              -0.001788960              -0.001824289               0.001193095              -0.000631194               0.000000000               0.000000000               0.000000000               0.000000000              -0.003249483               0.002668369              -0.001847398              -0.001552099               0.001406812              -0.000145287               0.000000000               0.000000000               0.000000000               0.000000000              -0.002493085               0.003419471              -0.001777430              -0.001362338               0.001593924               0.000231586               0.000000000               0.000000000               0.000000000               0.000000000              -0.001870267               0.003999611              -0.001654083              -0.001201299               0.001733623               0.000532324               0.000000000               0.000000000               0.000000000               0.000000000              -0.001312891               0.004428811              -0.001519008              -0.001045933               0.001824900               0.000778966               0.000000000               0.000000000               0.000000000               0.000000000              -0.000785180               0.004733021              -0.001394993              -0.000886069               0.001873014               0.000986945               0.000000000               0.000000000               0.000000000               0.000000000              -0.000269674               0.004941290              -0.001280701              -0.000718788               0.001886676               0.001167888               0.000000000               0.000000000               0.000000000               0.000000000               0.000251291               0.005078485              -0.001169172              -0.000540576               0.001873003               0.001332427               0.000000000               0.000000000               0.000000000               0.000000000               0.000778528               0.005156452              -0.001059033              -0.000352608               0.001836336               0.001483728               0.000000000               0.000000000               0.000000000               0.000000000               0.001313713               0.005196337              -0.000941383              -0.000156900               0.001784395               0.001627495               0.000000000               0.000000000               0.000000000               0.000000000               0.001864367               0.005204934              -0.000798327               0.000048520               0.001718787               0.001767307               0.000000000               0.000000000               0.000000000               0.000000000               0.002429286               0.005171147              -0.000607429               0.000264586               0.001635503               0.001900089               0.000000000               0.000000000               0.000000000               0.000000000               0.003009170               0.005098471              -0.000340158               0.000491125               0.001535765               0.002026890               0.000000000               0.000000000               0.000000000               0.000000000               0.003416832               0.005095725              -0.000199172               0.000644340               0.001483778               0.002128118               0.000000000               0.000000000               0.000000000               0.000000000              -0.013884698              -0.001256561               0.000703387              -0.005049689               0.001264367              -0.003785321               0.000000000               0.000000000               0.000000000               0.000000000              -0.009470328              -0.000560313              -0.000040794              -0.003481332               0.000973666              -0.002507665               0.000000000               0.000000000               0.000000000               0.000000000              -0.006010809              -0.000087235              -0.000739129              -0.002243147               0.000718632              -0.001524515               0.000000000               0.000000000               0.000000000               0.000000000              -0.004152024               0.000829899              -0.000973177              -0.001660744               0.000830208              -0.000830536               0.000000000               0.000000000               0.000000000               0.000000000              -0.003009259               0.001759649              -0.001019925              -0.001348426               0.001036018              -0.000312408               0.000000000               0.000000000               0.000000000               0.000000000              -0.002212221               0.002581516              -0.000990490              -0.001152270               0.001244586               0.000092316               0.000000000               0.000000000               0.000000000               0.000000000              -0.001586271               0.003254078              -0.000928403              -0.001001609               0.001418551               0.000416942               0.000000000               0.000000000               0.000000000               0.000000000              -0.001039361               0.003778303              -0.000858908              -0.000862046               0.001546770               0.000684724               0.000000000               0.000000000               0.000000000               0.000000000              -0.000528227               0.004174929              -0.000791682              -0.000719950               0.001631612               0.000911662               0.000000000               0.000000000               0.000000000               0.000000000              -0.000023555               0.004483880              -0.000728981              -0.000569317               0.001684384               0.001115067               0.000000000               0.000000000               0.000000000               0.000000000               0.000498913               0.004729488              -0.000669131              -0.000404093               0.001711178               0.001307085               0.000000000               0.000000000               0.000000000               0.000000000               0.001051737               0.004911637              -0.000607932              -0.000219553               0.001710380               0.001490827               0.000000000               0.000000000               0.000000000               0.000000000               0.001641888               0.005037811              -0.000546040              -0.000014019               0.001683926               0.001669907               0.000000000               0.000000000               0.000000000               0.000000000               0.002278425               0.005107299              -0.000470673               0.000215995               0.001630418               0.001846413               0.000000000               0.000000000               0.000000000               0.000000000               0.002974039               0.005117805              -0.000363888               0.000475534               0.001547407               0.002022941               0.000000000               0.000000000               0.000000000               0.000000000               0.003752446               0.005073092              -0.000207888               0.000773023               0.001433340               0.002206362               0.000000000               0.000000000               0.000000000               0.000000000               0.004347747               0.005101162              -0.000127237               0.000992750               0.001369454               0.002362204               0.000000000               0.000000000               0.000000000               0.000000000               0.000000000               0.000000000               0.000000000               0.000000000               0.000000000               0.000000000               0.000000000               0.000000000               0.000000000               0.000000000               0.000000000               0.000000000               0.000000000               0.000000000               0.000000000               0.000000000               0.000000000               0.000000000               0.000000000               0.000000000               0.000000000               0.000000000               0.000000000               0.000000000               0.000000000               0.000000000               0.000000000               0.000000000               0.000000000               0.000000000               0.000000000               0.000000000               0.000000000               0.000000000               0.000000000               0.000000000               0.000000000               0.000000000               0.000000000               0.000000000               0.000000000               0.000000000               0.000000000               0.000000000               0.000000000               0.000000000               0.000000000               0.000000000               0.000000000               0.000000000               0.000000000               0.000000000               0.000000000               0.000000000               0.000000000               0.000000000               0.000000000               0.000000000               0.000000000               0.000000000               0.000000000               0.000000000               0.000000000               0.000000000               0.000000000               0.000000000               0.000000000               0.000000000               0.000000000               0.000000000               0.000000000               0.000000000               0.000000000               0.000000000               0.000000000               0.000000000               0.000000000               0.000000000               0.000000000               0.000000000               0.000000000               0.000000000               0.000000000               0.000000000               0.000000000               0.000000000               0.000000000               0.000000000               0.000000000               0.000000000               0.000000000               0.000000000               0.000000000               0.000000000               0.000000000               0.000000000               0.000000000               0.000000000               0.000000000               0.000000000               0.000000000               0.000000000               0.000000000               0.000000000               0.000000000               0.000000000               0.000000000               0.000000000               0.000000000               0.000000000               0.000000000               0.000000000               0.000000000               0.000000000               0.000000000               0.000000000               0.000000000               0.000000000               0.000000000               0.000000000               0.000000000               0.000000000               0.000000000               0.000000000               0.000000000               0.000000000               0.000000000               0.000000000               0.000000000               0.000000000               0.000000000               0.000000000               0.000000000               0.000000000               0.000000000               0.000000000               0.000000000               0.000000000               0.000000000               0.000000000               0.000000000               0.000000000               0.000000000               0.000000000               0.000000000               0.000000000               0.000000000               0.000000000               0.000000000               0.000000000               0.000000000               0.000000000               0.000000000               0.000000000               0.000000000               0.000000000               0.000000000               0.000000000               0.000000000               0.000000000               0.000000000               0.000000000               0.000000000               0.000000000               0.000000000               0.000000000               0.000000000               0.000000000               0.000000000               0.000000000               0.000000000               0.000000000               0.000000000               0.000000000               0.000000000               0.000000000               0.000000000               0.000000000               0.000000000               0.000000000               0.000000000               0.000000000               0.000000000               0.000000000               0.000000000               0.000000000               0.000000000               0.000000000               0.000000000               0.000000000               0.000000000               0.000000000               0.000000000               0.000000000               0.000000000               0.000000000               0.000000000               0.000000000               0.000000000               0.000000000               0.000000000               0.000000000               0.000000000               0.000000000               0.000000000               0.000000000               0.000000000               0.000000000               0.000000000               0.000000000               0.000000000               0.000000000               0.000000000               0.000000000               0.000000000               0.000000000               0.000000000               0.000000000               0.000000000               0.000000000               0.000000000               0.000000000               0.000000000               0.000000000               0.000000000               0.000000000               0.000000000               0.000000000               0.000000000               0.000000000               0.000000000               0.000000000               0.000000000               0.000000000               0.000000000               0.000000000               0.000000000               0.000000000               0.000000000               0.000000000               0.000000000               0.000000000               0.000000000               0.000000000               0.000000000               0.000000000               0.000000000               0.000000000               0.000000000               0.000000000               0.000000000               0.000000000               0.000000000               0.000000000               0.000000000               0.000000000               0.000000000               0.000000000               0.000000000               0.000000000               0.000000000               0.000000000               0.000000000               0.000000000               0.000000000               0.000000000               0.000000000               0.000000000               0.000000000               0.000000000               0.000000000               0.000000000               0.000000000               0.000000000               0.000000000               0.000000000               0.000000000               0.000000000               0.000000000               0.000000000               0.000000000               0.000000000               0.000000000               0.000000000               0.000000000               0.000000000               0.000000000               0.000000000               0.000000000               0.000000000               0.000000000               0.000000000               0.000000000               0.000000000               0.000000000               0.000000000               0.000000000               0.000000000               0.000000000               0.000000000               0.000000000               0.000000000               0.000000000               0.000000000               0.000000000               0.000000000               0.000000000               0.000000000               0.000000000               0.000000000               0.000000000               0.000000000               0.000000000               0.000000000               0.000000000               0.000000000               0.000000000               0.000000000               0.000000000               0.000000000               0.000000000               0.000000000               0.000000000               0.000000000               0.000000000               0.000000000               0.000000000               0.000000000               0.000000000               0.000000000               0.000000000               0.000000000               0.000000000               0.000000000               0.000000000               0.000000000               0.000000000               0.000000000               0.000000000               0.000000000               0.002294831               0.023360036               0.001572553              -0.002059438               0.008473080               0.006413642               0.000000000               0.000000000               0.000000000               0.000000000               0.002055556               0.018015280               0.000702764              -0.001481073               0.006498724               0.005017651               0.000000000               0.000000000               0.000000000               0.000000000               0.002501782               0.013731264              -0.000156629              -0.000778238               0.004836455               0.004058217               0.000000000               0.000000000               0.000000000               0.000000000               0.002217898               0.011317631              -0.000510927              -0.000582991               0.003966836               0.003383845               0.000000000               0.000000000               0.000000000               0.000000000               0.001753813               0.009784790              -0.000646485              -0.000565418               0.003450037               0.002884619               0.000000000               0.000000000               0.000000000               0.000000000               0.001293452               0.008697715              -0.000683638              -0.000602169               0.003099932               0.002497763               0.000000000               0.000000000               0.000000000               0.000000000               0.000900199               0.007849888              -0.000677363              -0.000643660               0.002831157               0.002187496               0.000000000               0.000000000               0.000000000               0.000000000               0.000587948               0.007125560              -0.000650278              -0.000670213               0.002598567               0.001928354               0.000000000               0.000000000               0.000000000               0.000000000               0.000350945               0.006468389              -0.000614914              -0.000676943               0.002381756               0.001704813               0.000000000               0.000000000               0.000000000               0.000000000               0.000176526               0.005842060              -0.000578819              -0.000664059               0.002168687               0.001504628               0.000000000               0.000000000               0.000000000               0.000000000               0.000048852               0.005227291              -0.000542683              -0.000635091               0.001954110               0.001319019               0.000000000               0.000000000               0.000000000               0.000000000              -0.000044130               0.004613687              -0.000507915              -0.000593258               0.001735633               0.001142375               0.000000000               0.000000000               0.000000000               0.000000000              -0.000104335               0.003995501              -0.000466205              -0.000538562               0.001511341               0.000972779               0.000000000               0.000000000               0.000000000               0.000000000              -0.000132868               0.003354857              -0.000402868              -0.000469182               0.001274668               0.000805487               0.000000000               0.000000000               0.000000000               0.000000000              -0.000124969               0.002668875              -0.000310635              -0.000380472               0.001016440               0.000635968               0.000000000               0.000000000               0.000000000               0.000000000              -0.000073302               0.001925464              -0.000179338              -0.000268171               0.000731205               0.000463034               0.000000000               0.000000000               0.000000000               0.000000000              -0.000094759               0.001373869              -0.000112159              -0.000207268               0.000527041               0.000319773               0.000000000               0.000000000               0.000000000               0.000000000               0.002435395               0.021899701               0.002904790              -0.001824186               0.007907889               0.006083703               0.000000000               0.000000000               0.000000000               0.000000000               0.001841065               0.017103249               0.001292858              -0.001447504               0.006183527               0.004736024               0.000000000               0.000000000               0.000000000               0.000000000               0.001911166               0.013384112              -0.000281808              -0.000956324               0.004780101               0.003823777               0.000000000               0.000000000               0.000000000               0.000000000               0.001501432               0.011245747              -0.000904101              -0.000842679               0.004029438               0.003186758               0.000000000               0.000000000               0.000000000               0.000000000               0.001032716               0.009843496              -0.001130971              -0.000843167               0.003562188               0.002719021               0.000000000               0.000000000               0.000000000               0.000000000               0.000626815               0.008817612              -0.001188372              -0.000867144               0.003228223               0.002361078               0.000000000               0.000000000               0.000000000               0.000000000               0.000307818               0.007996350              -0.001167691              -0.000884110               0.002960127               0.002076016               0.000000000               0.000000000               0.000000000               0.000000000               0.000070849               0.007287976              -0.001111149              -0.000884427               0.002724110               0.001839683               0.000000000               0.000000000               0.000000000               0.000000000              -0.000094279               0.006642886              -0.001041117              -0.000865714               0.002502844               0.001637131               0.000000000               0.000000000               0.000000000               0.000000000              -0.000202315               0.006031140              -0.000968246              -0.000829759               0.002286946               0.001457187               0.000000000               0.000000000               0.000000000               0.000000000              -0.000268801               0.005440902              -0.000897519              -0.000780911               0.002073920               0.001293008               0.000000000               0.000000000               0.000000000               0.000000000              -0.000303039               0.004867565              -0.000828815              -0.000722084               0.001863200               0.001141116               0.000000000               0.000000000               0.000000000               0.000000000              -0.000301563               0.004306104              -0.000748447              -0.000651348               0.001652470               0.001001122               0.000000000               0.000000000               0.000000000               0.000000000              -0.000265432               0.003748109              -0.000630106              -0.000568050               0.001438707               0.000870657               0.000000000               0.000000000               0.000000000               0.000000000              -0.000200193               0.003189887              -0.000470675              -0.000473807               0.001221221               0.000747413               0.000000000               0.000000000               0.000000000               0.000000000              -0.000107339               0.002641907              -0.000264218              -0.000370490               0.001004123               0.000633634               0.000000000               0.000000000               0.000000000               0.000000000              -0.000092670               0.002269230              -0.000159482              -0.000318404               0.000862537               0.000544133               0.000000000               0.000000000               0.000000000               0.000000000               0.002534960               0.019678040               0.003821261              -0.001509144               0.007062328               0.005553185               0.000000000               0.000000000               0.000000000               0.000000000               0.001449142               0.015741055               0.001698829              -0.001424201               0.005721699               0.004297498               0.000000000               0.000000000               0.000000000               0.000000000               0.000997321               0.012860197              -0.000342880              -0.001233526               0.004697865               0.003464339               0.000000000               0.000000000               0.000000000               0.000000000               0.000452414               0.011114906              -0.001100875              -0.001219705               0.004111500               0.002891795               0.000000000               0.000000000               0.000000000               0.000000000               0.000016344               0.009893778              -0.001357542              -0.001230591               0.003708090               0.002477499               0.000000000               0.000000000               0.000000000               0.000000000              -0.000289879               0.008949050              -0.001405796              -0.001227333               0.003392098               0.002164764               0.000000000               0.000000000               0.000000000               0.000000000              -0.000488598               0.008161919              -0.001364720              -0.001203462               0.003121766               0.001918305               0.000000000               0.000000000               0.000000000               0.000000000              -0.000603436               0.007472294              -0.001282536              -0.001160323               0.002877514               0.001717191               0.000000000               0.000000000               0.000000000               0.000000000              -0.000653366               0.006839460              -0.001184531              -0.001099943               0.002646445               0.001546502               0.000000000               0.000000000               0.000000000               0.000000000              -0.000659488               0.006247126              -0.001087142              -0.001028197               0.002425087               0.001396890               0.000000000               0.000000000               0.000000000               0.000000000              -0.000639617               0.005694055              -0.000995818              -0.000951611               0.002215203               0.001263592               0.000000000               0.000000000               0.000000000               0.000000000              -0.000592094               0.005177898              -0.000905895              -0.000869271               0.002015706               0.001146435               0.000000000               0.000000000               0.000000000               0.000000000              -0.000513578               0.004691595              -0.000799169              -0.000779039               0.001823529               0.001044490               0.000000000               0.000000000               0.000000000               0.000000000              -0.000401825               0.004236622              -0.000655308              -0.000680261               0.001638947               0.000958686               0.000000000               0.000000000               0.000000000               0.000000000              -0.000266209               0.003829737              -0.000476203              -0.000578544               0.001469414               0.000890870               0.000000000               0.000000000               0.000000000               0.000000000              -0.000130004               0.003484259              -0.000259982              -0.000484282               0.001322835               0.000838553               0.000000000               0.000000000               0.000000000               0.000000000              -0.000083712               0.003280948              -0.000150421              -0.000441509               0.001240808               0.000799299               0.000000000               0.000000000               0.000000000               0.000000000               0.002466214               0.016973391               0.004237907              -0.001196844               0.006056688               0.004859844               0.000000000               0.000000000               0.000000000               0.000000000               0.000871990               0.014105073               0.001903968              -0.001436135               0.005180355               0.003744220               0.000000000               0.000000000               0.000000000               0.000000000              -0.000117918               0.012221347              -0.000303439              -0.001571884               0.004597703               0.003025819               0.000000000               0.000000000               0.000000000               0.000000000              -0.000741642               0.010909034              -0.001062229              -0.001641741               0.004183555               0.002541814               0.000000000               0.000000000               0.000000000               0.000000000              -0.001088133               0.009878907              -0.001293492              -0.001642909               0.003840572               0.002197663               0.000000000               0.000000000               0.000000000               0.000000000              -0.001247110               0.009021102              -0.001319893              -0.001595300               0.003538771               0.001943470               0.000000000               0.000000000               0.000000000               0.000000000              -0.001285022               0.008270086              -0.001263368              -0.001515641               0.003261881               0.001746241               0.000000000               0.000000000               0.000000000               0.000000000              -0.001245185               0.007593207              -0.001170542              -0.001416092               0.003003074               0.001586982               0.000000000               0.000000000               0.000000000               0.000000000              -0.001160176               0.006973460              -0.001063726              -0.001306746               0.002760045               0.001453299               0.000000000               0.000000000               0.000000000               0.000000000              -0.001049811               0.006409192              -0.000962254              -0.001194826               0.002534651               0.001339826               0.000000000               0.000000000               0.000000000               0.000000000              -0.000925339               0.005899422              -0.000873294              -0.001084427               0.002327930               0.001243503               0.000000000               0.000000000               0.000000000               0.000000000              -0.000788135               0.005442450              -0.000782217              -0.000975855               0.002139417               0.001163562               0.000000000               0.000000000               0.000000000               0.000000000              -0.000628708               0.005031973              -0.000670570              -0.000864760               0.001965561               0.001100801               0.000000000               0.000000000               0.000000000               0.000000000              -0.000454879               0.004674394              -0.000531476              -0.000754877               0.001809741               0.001054864               0.000000000               0.000000000               0.000000000               0.000000000              -0.000284107               0.004390382              -0.000371243              -0.000655336               0.001681892               0.001026555               0.000000000               0.000000000               0.000000000               0.000000000              -0.000132330               0.004194119              -0.000193167              -0.000573887               0.001589322               0.001015434               0.000000000               0.000000000               0.000000000               0.000000000              -0.000070242               0.004105958              -0.000104189              -0.000539584               0.001548500               0.001008916               0.000000000               0.000000000               0.000000000               0.000000000               0.002092890               0.014074016               0.004167828              -0.000974419               0.005016097               0.004041678               0.000000000               0.000000000               0.000000000               0.000000000               0.000107277               0.012377425               0.001937494              -0.001506947               0.004628082               0.003121136               0.000000000               0.000000000               0.000000000               0.000000000              -0.001304209               0.011521320              -0.000139447              -0.001929238               0.004483481               0.002554243               0.000000000               0.000000000               0.000000000               0.000000000              -0.001897656               0.010611796              -0.000796352              -0.002038091               0.004216593               0.002178503               0.000000000               0.000000000               0.000000000               0.000000000              -0.002080208               0.009755400              -0.000977949              -0.001999498               0.003918267               0.001918769               0.000000000               0.000000000               0.000000000               0.000000000              -0.002052410               0.008973068              -0.000988072              -0.001891283               0.003621420               0.001730137               0.000000000               0.000000000               0.000000000               0.000000000              -0.001913040               0.008253021              -0.000932854              -0.001749013               0.003333984               0.001584971               0.000000000               0.000000000               0.000000000               0.000000000              -0.001713013               0.007595386              -0.000852959              -0.001591799               0.003062370               0.001470570               0.000000000               0.000000000               0.000000000               0.000000000              -0.001489115               0.007001394              -0.000765075              -0.001433589               0.002811638               0.001378049               0.000000000               0.000000000               0.000000000               0.000000000              -0.001260832               0.006476183              -0.000684875              -0.001282332               0.002586150               0.001303818               0.000000000               0.000000000               0.000000000               0.000000000              -0.001039663               0.006012306              -0.000617724              -0.001141409               0.002384552               0.001243143               0.000000000               0.000000000               0.000000000               0.000000000              -0.000829897               0.005604978              -0.000545768              -0.001011831               0.002205584               0.001193753               0.000000000               0.000000000               0.000000000               0.000000000              -0.000617198               0.005255040              -0.000449716              -0.000888327               0.002047771               0.001159444               0.000000000               0.000000000               0.000000000               0.000000000              -0.000413282               0.004972608              -0.000338215              -0.000776555               0.001916371               0.001139816               0.000000000               0.000000000               0.000000000               0.000000000              -0.000240736               0.004770784              -0.000222480              -0.000686622               0.001819119               0.001132497               0.000000000               0.000000000               0.000000000               0.000000000              -0.000105420               0.004656683              -0.000106713              -0.000621616               0.001759418               0.001137801               0.000000000               0.000000000               0.000000000               0.000000000              -0.000050040               0.004621194              -0.000051235              -0.000596413               0.001739187               0.001142774               0.000000000               0.000000000               0.000000000               0.000000000               0.001347183               0.011220567               0.003699542              -0.000897378               0.004039277               0.003141898               0.000000000               0.000000000               0.000000000               0.000000000              -0.000804826               0.010706441               0.001858950              -0.001640112               0.004115482               0.002475370               0.000000000               0.000000000               0.000000000               0.000000000              -0.002435889               0.010793887               0.000155555              -0.002262689               0.004352156               0.002089467               0.000000000               0.000000000               0.000000000               0.000000000              -0.002872536               0.010215555              -0.000352503              -0.002354140               0.004189864               0.001835724               0.000000000               0.000000000               0.000000000               0.000000000              -0.002834071               0.009500356              -0.000493921              -0.002250315               0.003916859               0.001666543               0.000000000               0.000000000               0.000000000               0.000000000              -0.002599064               0.008783024              -0.000510893              -0.002072522               0.003618486               0.001545964               0.000000000               0.000000000               0.000000000               0.000000000              -0.002279191               0.008103887              -0.000482340              -0.001867678               0.003323828               0.001456150               0.000000000               0.000000000               0.000000000               0.000000000              -0.001929717               0.007477838              -0.000439866              -0.001658370               0.003045378               0.001387008               0.000000000               0.000000000               0.000000000               0.000000000              -0.001588104               0.006919241              -0.000395358              -0.001460441               0.002793204               0.001332763               0.000000000               0.000000000               0.000000000               0.000000000              -0.001269455               0.006434281              -0.000354610              -0.001280328               0.002571515               0.001291187               0.000000000               0.000000000               0.000000000               0.000000000              -0.000978342               0.006011407              -0.000320243              -0.001118301               0.002376549               0.001258248               0.000000000               0.000000000               0.000000000               0.000000000              -0.000720458               0.005641774              -0.000280086              -0.000975391               0.002205703               0.001230312               0.000000000               0.000000000               0.000000000               0.000000000              -0.000491520               0.005335306              -0.000217714              -0.000851231               0.002062161               0.001210930               0.000000000               0.000000000               0.000000000               0.000000000              -0.000299038               0.005102732              -0.000147470              -0.000749979               0.001950886               0.001200908               0.000000000               0.000000000               0.000000000               0.000000000              -0.000156359               0.004946814              -0.000084858              -0.000676985               0.001874583               0.001197598               0.000000000               0.000000000               0.000000000               0.000000000              -0.000061843               0.004863083              -0.000033589              -0.000631075               0.001831370               0.001200295               0.000000000               0.000000000               0.000000000               0.000000000              -0.000030709               0.004835097              -0.000013986              -0.000615901               0.001816983               0.001201082               0.000000000               0.000000000               0.000000000               0.000000000               0.000258903               0.008594671               0.002945668              -0.000977245               0.003190609               0.002213364               0.000000000               0.000000000               0.000000000               0.000000000              -0.001809092               0.009190524               0.001728406              -0.001827221               0.003672551               0.001845329               0.000000000               0.000000000               0.000000000               0.000000000              -0.003397848               0.010039812               0.000571793              -0.002529163               0.004189625               0.001660462               0.000000000               0.000000000               0.000000000               0.000000000              -0.003568615               0.009714610               0.000198531              -0.002552551               0.004089021               0.001536471               0.000000000               0.000000000               0.000000000               0.000000000              -0.003283904               0.009118564               0.000059249              -0.002371279               0.003829917               0.001458638               0.000000000               0.000000000               0.000000000               0.000000000              -0.002851455               0.008470916               0.000003702              -0.002128155               0.003532995               0.001404840               0.000000000               0.000000000               0.000000000               0.000000000              -0.002375414               0.007842805              -0.000017347              -0.001871126               0.003237951               0.001366825               0.000000000               0.000000000               0.000000000               0.000000000              -0.001907868               0.007262071              -0.000028375              -0.001623205               0.002961734               0.001338529               0.000000000               0.000000000               0.000000000               0.000000000              -0.001481621               0.006746039              -0.000040006              -0.001398859               0.002714944               0.001316084               0.000000000               0.000000000               0.000000000               0.000000000              -0.001110855               0.006295358              -0.000047954              -0.001203487               0.002499594               0.001296107               0.000000000               0.000000000               0.000000000               0.000000000              -0.000787792               0.005903127              -0.000051538              -0.001033310               0.002312126               0.001278816               0.000000000               0.000000000               0.000000000               0.000000000              -0.000519437               0.005565107              -0.000048611              -0.000890425               0.002151825               0.001261400               0.000000000               0.000000000               0.000000000               0.000000000              -0.000311408               0.005289908              -0.000030241              -0.000778015               0.002022623               0.001244609               0.000000000               0.000000000               0.000000000               0.000000000              -0.000157962               0.005096002              -0.000010877              -0.000696234               0.001930728               0.001234494               0.000000000               0.000000000               0.000000000               0.000000000              -0.000062822               0.004979760              -0.000002812              -0.000646027               0.001875245               0.001229219               0.000000000               0.000000000               0.000000000               0.000000000              -0.000016994               0.004924483               0.000000229              -0.000621932               0.001848789               0.001226857               0.000000000               0.000000000               0.000000000               0.000000000              -0.000009149               0.004906747              -0.000001010              -0.000616773               0.001841157               0.001224384               0.000000000               0.000000000               0.000000000               0.000000000              -0.001028936               0.006379413               0.002035043              -0.001183276               0.002520874               0.001337599               0.000000000               0.000000000               0.000000000               0.000000000              -0.002789061               0.007831567               0.001591495              -0.002024839               0.003285442               0.001260603               0.000000000               0.000000000               0.000000000               0.000000000              -0.004150308               0.009272977               0.001073164              -0.002715481               0.003996122               0.001280641               0.000000000               0.000000000               0.000000000               0.000000000              -0.004039981               0.009213848               0.000783739              -0.002666717               0.003960157               0.001293440               0.000000000               0.000000000               0.000000000               0.000000000              -0.003549567               0.008765621               0.000612513              -0.002426784               0.003730772               0.001303988               0.000000000               0.000000000               0.000000000               0.000000000              -0.002959009               0.008212415               0.000499509              -0.002136175               0.003449503               0.001313328               0.000000000               0.000000000               0.000000000               0.000000000              -0.002362550               0.007652089               0.000415952              -0.001842463               0.003164825               0.001322362               0.000000000               0.000000000               0.000000000               0.000000000              -0.001810611               0.007124040               0.000344001              -0.001569480               0.002897816               0.001328336               0.000000000               0.000000000               0.000000000               0.000000000              -0.001329113               0.006649966               0.000280894              -0.001329660               0.002659853               0.001330193               0.000000000               0.000000000               0.000000000               0.000000000              -0.000926512               0.006222381               0.000227020              -0.001125237               0.002449185               0.001323948               0.000000000               0.000000000               0.000000000               0.000000000              -0.000590861               0.005845039               0.000181602              -0.000952200               0.002265727               0.001313527               0.000000000               0.000000000               0.000000000               0.000000000              -0.000328138               0.005516529               0.000142981              -0.000812616               0.002109697               0.001297081               0.000000000               0.000000000               0.000000000               0.000000000              -0.000145479               0.005253314               0.000108509              -0.000711217               0.001988159               0.001276942               0.000000000               0.000000000               0.000000000               0.000000000              -0.000029037               0.005086187               0.000068487              -0.000646660               0.001910932               0.001264272               0.000000000               0.000000000               0.000000000               0.000000000               0.000024285               0.005000307               0.000027341              -0.000615930               0.001872062               0.001256132               0.000000000               0.000000000               0.000000000               0.000000000               0.000028416               0.004965897               0.000000205              -0.000610080               0.001858642               0.001248563               0.000000000               0.000000000               0.000000000               0.000000000               0.000020840               0.004961019              -0.000008224              -0.000612311               0.001857760               0.001245449               0.000000000               0.000000000               0.000000000               0.000000000              -0.002504254               0.004321592               0.001085866              -0.001479291               0.001933613               0.000454322               0.000000000               0.000000000               0.000000000               0.000000000              -0.003605956               0.006239453               0.001441524              -0.002132160               0.002790517               0.000658356               0.000000000               0.000000000               0.000000000               0.000000000              -0.004598613               0.008112043               0.001597018              -0.002738479               0.003616813               0.000878335               0.000000000               0.000000000               0.000000000               0.000000000              -0.004337651               0.008460617               0.001397824              -0.002684190               0.003714907               0.001030717               0.000000000               0.000000000               0.000000000               0.000000000              -0.003764839               0.008296304               0.001192974              -0.002448847               0.003581689               0.001132842               0.000000000               0.000000000               0.000000000               0.000000000              -0.003122296               0.007951907               0.001020915              -0.002164844               0.003372224               0.001207380               0.000000000               0.000000000               0.000000000               0.000000000              -0.002491211               0.007542030               0.000872224              -0.001876953               0.003139636               0.001262683               0.000000000               0.000000000               0.000000000               0.000000000              -0.001907150               0.007120529               0.000742572              -0.001605243               0.002908567               0.001303323               0.000000000               0.000000000               0.000000000               0.000000000              -0.001392638               0.006715622               0.000631538              -0.001361689               0.002692415               0.001330726               0.000000000               0.000000000               0.000000000               0.000000000              -0.000957297               0.006330745               0.000534088              -0.001150327               0.002493669               0.001343343               0.000000000               0.000000000               0.000000000               0.000000000              -0.000600724               0.005971099               0.000443928              -0.000971656               0.002314232               0.001342575               0.000000000               0.000000000               0.000000000               0.000000000              -0.000321203               0.005641680               0.000355377              -0.000825659               0.002155761               0.001330102               0.000000000               0.000000000               0.000000000               0.000000000              -0.000118801               0.005365835               0.000262905              -0.000715278               0.002027020               0.001311742               0.000000000               0.000000000               0.000000000               0.000000000               0.000009140               0.005169583               0.000165754              -0.000642769               0.001937433               0.001294665               0.000000000               0.000000000               0.000000000               0.000000000               0.000066819               0.005046550               0.000079973              -0.000605760               0.001884086               0.001278326               0.000000000               0.000000000               0.000000000               0.000000000               0.000076799               0.004997599               0.000024560              -0.000595899               0.001864483               0.001268584               0.000000000               0.000000000               0.000000000               0.000000000               0.000067822               0.004990817               0.000003542              -0.000598417               0.001863062               0.001264644               0.000000000               0.000000000               0.000000000               0.000000000              -0.004369505               0.002470678               0.000168716              -0.001947396               0.001472681              -0.000474714               0.000000000               0.000000000               0.000000000               0.000000000              -0.004523878               0.004634750               0.001226334              -0.002275793               0.002303498               0.000027705               0.000000000               0.000000000               0.000000000               0.000000000              -0.004954846               0.006732118               0.002017016              -0.002699576               0.003143875               0.000444299               0.000000000               0.000000000               0.000000000               0.000000000              -0.004563227               0.007464333               0.001980525              -0.002644246               0.003369501               0.000725255               0.000000000               0.000000000               0.000000000               0.000000000              -0.003948775               0.007628336               0.001778095              -0.002434327               0.003354195               0.000919868               0.000000000               0.000000000               0.000000000               0.000000000              -0.003291134               0.007536546               0.001563044              -0.002176239               0.003237570               0.001061331               0.000000000               0.000000000               0.000000000               0.000000000              -0.002649605               0.007321034               0.001363803              -0.001908727               0.003076562               0.001167836               0.000000000               0.000000000               0.000000000               0.000000000              -0.002042311               0.007045837               0.001188346              -0.001646593               0.002897453               0.001250860               0.000000000               0.000000000               0.000000000               0.000000000              -0.001495255               0.006735058               0.001036544              -0.001402599               0.002712530               0.001309931               0.000000000               0.000000000               0.000000000               0.000000000              -0.001021818               0.006414027               0.000899557              -0.001184932               0.002532965               0.001348033               0.000000000               0.000000000               0.000000000               0.000000000              -0.000625961               0.006099840               0.000767606              -0.000997213               0.002365664               0.001368451               0.000000000               0.000000000               0.000000000               0.000000000              -0.000305256               0.005796979               0.000637415              -0.000839092               0.002212004               0.001372913               0.000000000               0.000000000               0.000000000               0.000000000              -0.000055204               0.005518245               0.000500748              -0.000710480               0.002076223               0.001365743               0.000000000               0.000000000               0.000000000               0.000000000               0.000122890               0.005286332               0.000351577              -0.000614706               0.001966995               0.001352289               0.000000000               0.000000000               0.000000000               0.000000000               0.000218888               0.005117674               0.000205767              -0.000557625               0.001891749               0.001334124               0.000000000               0.000000000               0.000000000               0.000000000               0.000236089               0.005030709               0.000087753              -0.000540304               0.001856988               0.001316684               0.000000000               0.000000000               0.000000000               0.000000000               0.000210272               0.004998644               0.000031741              -0.000545977               0.001848190               0.001302213               0.000000000               0.000000000               0.000000000               0.000000000              -0.006504033               0.000968382              -0.000627945              -0.002560057               0.001176138              -0.001383919               0.000000000               0.000000000               0.000000000               0.000000000              -0.005584331               0.003119455               0.000936256              -0.002484052               0.001867822              -0.000616229               0.000000000               0.000000000               0.000000000               0.000000000              -0.005243267               0.005153846               0.002222801              -0.002610450               0.002588080              -0.000022370               0.000000000               0.000000000               0.000000000               0.000000000              -0.004632462               0.006152665               0.002386894              -0.002506251               0.002886284               0.000380033               0.000000000               0.000000000               0.000000000               0.000000000              -0.003965778               0.006615404               0.002240728              -0.002314087               0.002976474               0.000662387               0.000000000               0.000000000               0.000000000               0.000000000              -0.003300890               0.006791327               0.002021534              -0.002086745               0.002959334               0.000872589               0.000000000               0.000000000               0.000000000               0.000000000              -0.002657788               0.006801852               0.001801592              -0.001846898               0.002882894               0.001035995               0.000000000               0.000000000               0.000000000               0.000000000              -0.002050817               0.006701631               0.001600336              -0.001606757               0.002769440               0.001162683               0.000000000               0.000000000               0.000000000               0.000000000              -0.001491947               0.006527207               0.001420141              -0.001375378               0.002634173               0.001258795               0.000000000               0.000000000               0.000000000               0.000000000              -0.000992210               0.006311781               0.001255298              -0.001161049               0.002490922               0.001329873               0.000000000               0.000000000               0.000000000               0.000000000              -0.000554609               0.006079279               0.001097960              -0.000967886               0.002349034               0.001381148               0.000000000               0.000000000               0.000000000               0.000000000              -0.000182119               0.005839615               0.000942776              -0.000798245               0.002212600               0.001414355               0.000000000               0.000000000               0.000000000               0.000000000               0.000124424               0.005597741               0.000778971              -0.000653057               0.002083580               0.001430523               0.000000000               0.000000000               0.000000000               0.000000000               0.000362447               0.005369884               0.000591633              -0.000535317               0.001968382               0.001433065               0.000000000               0.000000000               0.000000000               0.000000000               0.000518615               0.005185115               0.000384916              -0.000453658               0.001879574               0.001425916               0.000000000               0.000000000               0.000000000               0.000000000               0.000574037               0.005068951               0.000183603              -0.000418354               0.001829085               0.001410731               0.000000000               0.000000000               0.000000000               0.000000000               0.000553411               0.005018210               0.000082019              -0.000419746               0.001812635               0.001392889               0.000000000               0.000000000               0.000000000               0.000000000              -0.008752686              -0.000107706              -0.001180004              -0.003268791               0.001053688              -0.002215104               0.000000000               0.000000000               0.000000000               0.000000000              -0.006725009               0.001778975               0.000620391              -0.002744247               0.001507730              -0.001236517               0.000000000               0.000000000               0.000000000               0.000000000              -0.005489711               0.003516225               0.002183548              -0.002498165               0.002004782              -0.000493383               0.000000000               0.000000000               0.000000000               0.000000000              -0.004577610               0.004636621               0.002521422              -0.002296177               0.002310916               0.000014739               0.000000000               0.000000000               0.000000000               0.000000000              -0.003820007               0.005333794               0.002460736              -0.002099223               0.002477653               0.000378431               0.000000000               0.000000000               0.000000000               0.000000000              -0.003138784               0.005759309               0.002279200              -0.001896954               0.002552068               0.000655114               0.000000000               0.000000000               0.000000000               0.000000000              -0.002504570               0.005995865               0.002069919              -0.001688693               0.002561499               0.000872806               0.000000000               0.000000000               0.000000000               0.000000000              -0.001916046               0.006090443               0.001864984              -0.001479820               0.002523400               0.001043580               0.000000000               0.000000000               0.000000000               0.000000000              -0.001363760               0.006085285               0.001678434              -0.001272068               0.002452430               0.001180362               0.000000000               0.000000000               0.000000000               0.000000000              -0.000845776               0.006006851               0.001509211              -0.001068020               0.002358270               0.001290250               0.000000000               0.000000000               0.000000000               0.000000000              -0.000368008               0.005879719               0.001347355              -0.000872966               0.002250875               0.001377909               0.000000000               0.000000000               0.000000000               0.000000000               0.000063454               0.005730861               0.001185329              -0.000692561               0.002141122               0.001448560               0.000000000               0.000000000               0.000000000               0.000000000               0.000442861               0.005562697               0.001012930              -0.000529263               0.002030635               0.001501371               0.000000000               0.000000000               0.000000000               0.000000000               0.000765778               0.005387859               0.000809080              -0.000386315               0.001924707               0.001538392               0.000000000               0.000000000               0.000000000               0.000000000               0.001022920               0.005228232               0.000564684              -0.000269934               0.001832704               0.001562771               0.000000000               0.000000000               0.000000000               0.000000000               0.001185079               0.005101864               0.000289426              -0.000193328               0.001765047               0.001571719               0.000000000               0.000000000               0.000000000               0.000000000               0.001233308               0.005047246               0.000145478              -0.000168415               0.001738537               0.001570122               0.000000000               0.000000000               0.000000000               0.000000000              -0.010896963              -0.000773324              -0.001385138              -0.003989693               0.001072115              -0.002917578               0.000000000               0.000000000               0.000000000               0.000000000              -0.007848372               0.000692174               0.000341126              -0.003029658               0.001240602              -0.001789056               0.000000000               0.000000000               0.000000000               0.000000000              -0.005705192               0.001985206               0.001897994              -0.002387595               0.001457590              -0.000930005               0.000000000               0.000000000               0.000000000               0.000000000              -0.004441567               0.003098572               0.002324044              -0.002052905               0.001717146              -0.000335759               0.000000000               0.000000000               0.000000000               0.000000000              -0.003555405               0.003943293               0.002343127              -0.001826185               0.001923145               0.000096960               0.000000000               0.000000000               0.000000000               0.000000000              -0.002841532               0.004565113               0.002219353              -0.001636211               0.002067092               0.000430881               0.000000000               0.000000000               0.000000000               0.000000000              -0.002218211               0.004999269               0.002043977              -0.001456735               0.002151984               0.000695249               0.000000000               0.000000000               0.000000000               0.000000000              -0.001648430               0.005279646               0.001861952              -0.001278115               0.002185902               0.000907787               0.000000000               0.000000000               0.000000000               0.000000000              -0.001106978               0.005443211               0.001696143              -0.001095516               0.002179557               0.001084041               0.000000000               0.000000000               0.000000000               0.000000000              -0.000581323               0.005512291               0.001545311              -0.000907031               0.002139755               0.001232724               0.000000000               0.000000000               0.000000000               0.000000000              -0.000074137               0.005510541               0.001399339              -0.000716618               0.002075701               0.001359083               0.000000000               0.000000000               0.000000000               0.000000000               0.000411545               0.005469058               0.001253832              -0.000529302               0.001999435               0.001470133               0.000000000               0.000000000               0.000000000               0.000000000               0.000872755               0.005402685               0.001095951              -0.000348052               0.001916894               0.001568842               0.000000000               0.000000000               0.000000000               0.000000000               0.001307008               0.005319525               0.000905837              -0.000174813               0.001831428               0.001656615               0.000000000               0.000000000               0.000000000               0.000000000               0.001709913               0.005220382               0.000664091              -0.000011331               0.001743887               0.001732556               0.000000000               0.000000000               0.000000000               0.000000000               0.002060090               0.005113232               0.000358491               0.000133378               0.001659934               0.001793312               0.000000000               0.000000000               0.000000000               0.000000000               0.002261091               0.005076752               0.000198247               0.000213313               0.001621129               0.001834442               0.000000000               0.000000000               0.000000000               0.000000000              -0.012686121              -0.001119210              -0.001209683              -0.004617391               0.001166052              -0.003451339               0.000000000               0.000000000               0.000000000               0.000000000              -0.008811445              -0.000093238               0.000144306              -0.003292634               0.001066458              -0.002226176               0.000000000               0.000000000               0.000000000               0.000000000              -0.005885530               0.000734686               0.001397270              -0.002298907               0.001011190              -0.001287717               0.000000000               0.000000000               0.000000000               0.000000000              -0.004279769               0.001755023               0.001788960              -0.001824289               0.001193095              -0.000631194               0.000000000               0.000000000               0.000000000               0.000000000              -0.003249483               0.002668369               0.001847398              -0.001552099               0.001406812              -0.000145287               0.000000000               0.000000000               0.000000000               0.000000000              -0.002493085               0.003419471               0.001777430              -0.001362338               0.001593924               0.000231586               0.000000000               0.000000000               0.000000000               0.000000000              -0.001870267               0.003999611               0.001654083              -0.001201299               0.001733623               0.000532324               0.000000000               0.000000000               0.000000000               0.000000000              -0.001312891               0.004428811               0.001519008              -0.001045933               0.001824900               0.000778966               0.000000000               0.000000000               0.000000000               0.000000000              -0.000785180               0.004733021               0.001394993              -0.000886069               0.001873014               0.000986945               0.000000000               0.000000000               0.000000000               0.000000000              -0.000269674               0.004941290               0.001280701              -0.000718788               0.001886676               0.001167888               0.000000000               0.000000000               0.000000000               0.000000000               0.000251291               0.005078485               0.001169172              -0.000540576               0.001873003               0.001332427               0.000000000               0.000000000               0.000000000               0.000000000               0.000778528               0.005156452               0.001059033              -0.000352608               0.001836336               0.001483728               0.000000000               0.000000000               0.000000000               0.000000000               0.001313713               0.005196337               0.000941383              -0.000156900               0.001784395               0.001627495               0.000000000               0.000000000               0.000000000               0.000000000               0.001864367               0.005204934               0.000798327               0.000048520               0.001718787               0.001767307               0.000000000               0.000000000               0.000000000               0.000000000               0.002429286               0.005171147               0.000607429               0.000264586               0.001635503               0.001900089               0.000000000               0.000000000               0.000000000               0.000000000               0.003009170               0.005098471               0.000340158               0.000491125               0.001535765               0.002026890               0.000000000               0.000000000               0.000000000               0.000000000               0.003416832               0.005095725               0.000199172               0.000644340               0.001483778               0.002128118               0.000000000               0.000000000               0.000000000               0.000000000              -0.013884698              -0.001256561              -0.000703387              -0.005049689               0.001264367              -0.003785321               0.000000000               0.000000000               0.000000000               0.000000000              -0.009470328              -0.000560313               0.000040794              -0.003481332               0.000973666              -0.002507665               0.000000000               0.000000000               0.000000000               0.000000000              -0.006010809              -0.000087235               0.000739129              -0.002243147               0.000718632              -0.001524515               0.000000000               0.000000000               0.000000000               0.000000000              -0.004152024               0.000829899               0.000973177              -0.001660744               0.000830208              -0.000830536               0.000000000               0.000000000               0.000000000               0.000000000              -0.003009259               0.001759649               0.001019925              -0.001348426               0.001036018              -0.000312408               0.000000000               0.000000000               0.000000000               0.000000000              -0.002212221               0.002581516               0.000990490              -0.001152270               0.001244586               0.000092316               0.000000000               0.000000000               0.000000000               0.000000000              -0.001586271               0.003254078               0.000928403              -0.001001609               0.001418551               0.000416942               0.000000000               0.000000000               0.000000000               0.000000000              -0.001039361               0.003778303               0.000858908              -0.000862046               0.001546770               0.000684724               0.000000000               0.000000000               0.000000000               0.000000000              -0.000528227               0.004174929               0.000791682              -0.000719950               0.001631612               0.000911662               0.000000000               0.000000000               0.000000000               0.000000000              -0.000023555               0.004483880               0.000728981              -0.000569317               0.001684384               0.001115067               0.000000000               0.000000000               0.000000000               0.000000000               0.000498913               0.004729488               0.000669131              -0.000404093               0.001711178               0.001307085               0.000000000               0.000000000               0.000000000               0.000000000               0.001051737               0.004911637               0.000607932              -0.000219553               0.001710380               0.001490827               0.000000000               0.000000000               0.000000000               0.000000000               0.001641888               0.005037811               0.000546040              -0.000014019               0.001683926               0.001669907               0.000000000               0.000000000               0.000000000               0.000000000               0.002278425               0.005107299               0.000470673               0.000215995               0.001630418               0.001846413               0.000000000               0.000000000               0.000000000               0.000000000               0.002974039               0.005117805               0.000363888               0.000475534               0.001547407               0.002022941               0.000000000               0.000000000               0.000000000               0.000000000               0.003752446               0.005073092               0.000207888               0.000773023               0.001433340               0.002206362               0.000000000               0.000000000               0.000000000               0.000000000               0.004347747               0.005101162               0.000127237               0.000992750               0.001369454               0.002362204               0.000000000               0.000000000               0.000000000               0.000000000               0.000000000               0.000000000               0.000000000               0.000000000               0.000000000               0.000000000               0.000000000               0.000000000               0.000000000               0.000000000               0.000000000               0.000000000               0.000000000               0.000000000               0.000000000               0.000000000               0.000000000               0.000000000               0.000000000               0.000000000               0.000000000               0.000000000               0.000000000               0.000000000               0.000000000               0.000000000               0.000000000               0.000000000               0.000000000               0.000000000               0.000000000               0.000000000               0.000000000               0.000000000               0.000000000               0.000000000               0.000000000               0.000000000               0.000000000               0.000000000               0.000000000               0.000000000               0.000000000               0.000000000               0.000000000               0.000000000               0.000000000               0.000000000               0.000000000               0.000000000               0.000000000               0.000000000               0.000000000               0.000000000               0.000000000               0.000000000               0.000000000               0.000000000               0.000000000               0.000000000               0.000000000               0.000000000               0.000000000               0.000000000               0.000000000               0.000000000               0.000000000               0.000000000               0.000000000               0.000000000               0.000000000               0.000000000               0.000000000               0.000000000               0.000000000               0.000000000               0.000000000               0.000000000               0.000000000               0.000000000               0.000000000               0.000000000               0.000000000               0.000000000               0.000000000               0.000000000               0.000000000               0.000000000               0.000000000               0.000000000               0.000000000               0.000000000               0.000000000               0.000000000               0.000000000               0.000000000               0.000000000               0.000000000               0.000000000               0.000000000               0.000000000               0.000000000               0.000000000               0.000000000               0.000000000               0.000000000               0.000000000               0.000000000               0.000000000               0.000000000               0.000000000               0.000000000               0.000000000               0.000000000               0.000000000               0.000000000               0.000000000               0.000000000               0.000000000               0.000000000               0.000000000               0.000000000               0.000000000               0.000000000               0.000000000               0.000000000               0.000000000               0.000000000               0.000000000               0.000000000               0.000000000               0.000000000               0.000000000               0.000000000               0.000000000               0.000000000               0.000000000               0.000000000               0.000000000               0.000000000               0.000000000               0.000000000               0.000000000               0.000000000               0.000000000               0.000000000               0.000000000               0.000000000               0.000000000               0.000000000               0.000000000               0.000000000               0.000000000               0.000000000               0.000000000               0.000000000               0.000000000               0.000000000               0.000000000               0.000000000               0.000000000               0.000000000               0.000000000               0.000000000               0.000000000               0.000000000               0.000000000               0.000000000               0.000000000               0.000000000 </DataArray>
</PointData>
</Piece>
</UnstructuredGrid> </VTKFile>
