<?xml version="1.0"?>
<VTKFile type="UnstructuredGrid" version="0.1">
<UnstructuredGrid>
<Piece NumberOfPoints="      1156" NumberOfCells="      1024">
<Points>
<DataArray type="Float64"                                    Name="coordinates"                                                      NumberOfComponents=" 3" format="ascii">
              0.133000000               0.000000000               0.000000000               0.155937500               0.000000000               0.000000000               0.178875000               0.000000000               0.000000000               0.201812500               0.000000000               0.000000000               0.224750000               0.000000000               0.000000000               0.247687500               0.000000000               0.000000000               0.270625000               0.000000000               0.000000000               0.293562500               0.000000000               0.000000000               0.316500000               0.000000000               0.000000000               0.339437500               0.000000000               0.000000000               0.362375000               0.000000000               0.000000000               0.385312500               0.000000000               0.000000000               0.408250000               0.000000000               0.000000000               0.431187500               0.000000000               0.000000000               0.454125000               0.000000000               0.000000000               0.477062500               0.000000000               0.000000000               0.500000000               0.000000000               0.000000000               0.132359569               0.013036280               0.000000000               0.155337096               0.016127762               0.000000000               0.178314623               0.019219245               0.000000000               0.201292150               0.022310727               0.000000000               0.224269676               0.025402210               0.000000000               0.247247203               0.028493692               0.000000000               0.270224730               0.031585175               0.000000000               0.293202257               0.034676657               0.000000000               0.316179784               0.037768140               0.000000000               0.339157311               0.040859622               0.000000000               0.362134838               0.043951105               0.000000000               0.385112365               0.047042587               0.000000000               0.408089892               0.050134070               0.000000000               0.431067419               0.053225552               0.000000000               0.454044946               0.056317035               0.000000000               0.477022473               0.059408517               0.000000000               0.500000000               0.062500000               0.000000000               0.130444442               0.025947013               0.000000000               0.153541665               0.032137825               0.000000000               0.176638887               0.038328636               0.000000000               0.199736109               0.044519448               0.000000000               0.222833332               0.050710260               0.000000000               0.245930554               0.056901071               0.000000000               0.269027776               0.063091883               0.000000000               0.292124999               0.069282695               0.000000000               0.315222221               0.075473506               0.000000000               0.338319444               0.081664318               0.000000000               0.361416666               0.087855130               0.000000000               0.384513888               0.094045942               0.000000000               0.407611111               0.100236753               0.000000000               0.430708333               0.106427565               0.000000000               0.453805555               0.112618377               0.000000000               0.476902778               0.118809188               0.000000000               0.500000000               0.125000000               0.000000000               0.127273065               0.038607862               0.000000000               0.150568498               0.047913621               0.000000000               0.173863932               0.057219379               0.000000000               0.197159365               0.066525138               0.000000000               0.220454798               0.075830897               0.000000000               0.243750232               0.085136655               0.000000000               0.267045665               0.094442414               0.000000000               0.290341099               0.103748172               0.000000000               0.313636532               0.113053931               0.000000000               0.336931966               0.122359690               0.000000000               0.360227399               0.131665448               0.000000000               0.383522833               0.140971207               0.000000000               0.406818266               0.150276966               0.000000000               0.430113700               0.159582724               0.000000000               0.453409133               0.168888483               0.000000000               0.476704567               0.178194241               0.000000000               0.500000000               0.187500000               0.000000000               0.122875978               0.050896897               0.000000000               0.146446229               0.063340840               0.000000000               0.170016481               0.075784784               0.000000000               0.193586732               0.088228728               0.000000000               0.217156983               0.100672672               0.000000000               0.240727235               0.113116616               0.000000000               0.264297486               0.125560560               0.000000000               0.287867738               0.138004504               0.000000000               0.311437989               0.150448448               0.000000000               0.335008240               0.162892392               0.000000000               0.358578492               0.175336336               0.000000000               0.382148743               0.187780280               0.000000000               0.405718994               0.200224224               0.000000000               0.429289246               0.212668168               0.000000000               0.452859497               0.225112112               0.000000000               0.476429749               0.237556056               0.000000000               0.500000000               0.250000000               0.000000000               0.117295528               0.062695766               0.000000000               0.141214558               0.078308531               0.000000000               0.165133587               0.093921295               0.000000000               0.189052617               0.109534060               0.000000000               0.212971646               0.125146824               0.000000000               0.236890676               0.140759589               0.000000000               0.260809705               0.156372354               0.000000000               0.284728735               0.171985118               0.000000000               0.308647764               0.187597883               0.000000000               0.332566794               0.203210648               0.000000000               0.356485823               0.218823412               0.000000000               0.380404853               0.234436177               0.000000000               0.404323882               0.250048941               0.000000000               0.428242912               0.265661706               0.000000000               0.452161941               0.281274471               0.000000000               0.476080971               0.296887235               0.000000000               0.500000000               0.312500000               0.000000000               0.110585458               0.073890841               0.000000000               0.134923867               0.092710163               0.000000000               0.159262276               0.111529486               0.000000000               0.183600685               0.130348808               0.000000000               0.207939094               0.149168131               0.000000000               0.232277503               0.167987453               0.000000000               0.256615912               0.186806776               0.000000000               0.280954320               0.205626098               0.000000000               0.305292729               0.224445420               0.000000000               0.329631138               0.243264743               0.000000000               0.353969547               0.262084065               0.000000000               0.378307956               0.280903388               0.000000000               0.402646365               0.299722710               0.000000000               0.426984773               0.318542033               0.000000000               0.451323182               0.337361355               0.000000000               0.475661591               0.356180678               0.000000000               0.500000000               0.375000000               0.000000000               0.102810390               0.084374307               0.000000000               0.127634741               0.106444663               0.000000000               0.152459092               0.128515018               0.000000000               0.177283442               0.150585374               0.000000000               0.202107793               0.172655730               0.000000000               0.226932143               0.194726086               0.000000000               0.251756494               0.216796442               0.000000000               0.276580845               0.238866798               0.000000000               0.301405195               0.260937153               0.000000000               0.326229546               0.283007509               0.000000000               0.351053896               0.305077865               0.000000000               0.375878247               0.327148221               0.000000000               0.400702598               0.349218577               0.000000000               0.425526948               0.371288933               0.000000000               0.450351299               0.393359288               0.000000000               0.475175649               0.415429644               0.000000000               0.500000000               0.437500000               0.000000000               0.094045202               0.094045202               0.000000000               0.119417377               0.119417377               0.000000000               0.144789552               0.144789552               0.000000000               0.170161727               0.170161727               0.000000000               0.195533901               0.195533901               0.000000000               0.220906076               0.220906076               0.000000000               0.246278251               0.246278251               0.000000000               0.271650426               0.271650426               0.000000000               0.297022601               0.297022601               0.000000000               0.322394776               0.322394776               0.000000000               0.347766951               0.347766951               0.000000000               0.373139126               0.373139126               0.000000000               0.398511300               0.398511300               0.000000000               0.423883475               0.423883475               0.000000000               0.449255650               0.449255650               0.000000000               0.474627825               0.474627825               0.000000000               0.500000000               0.500000000               0.000000000               0.084374307               0.102810390               0.000000000               0.106444663               0.127634741               0.000000000               0.128515018               0.152459092               0.000000000               0.150585374               0.177283442               0.000000000               0.172655730               0.202107793               0.000000000               0.194726086               0.226932143               0.000000000               0.216796442               0.251756494               0.000000000               0.238866798               0.276580845               0.000000000               0.260937153               0.301405195               0.000000000               0.283007509               0.326229546               0.000000000               0.305077865               0.351053896               0.000000000               0.327148221               0.375878247               0.000000000               0.349218577               0.400702598               0.000000000               0.371288933               0.425526948               0.000000000               0.393359288               0.450351299               0.000000000               0.415429644               0.475175649               0.000000000               0.437500000               0.500000000               0.000000000               0.073890841               0.110585458               0.000000000               0.092710163               0.134923867               0.000000000               0.111529486               0.159262276               0.000000000               0.130348808               0.183600685               0.000000000               0.149168131               0.207939094               0.000000000               0.167987453               0.232277503               0.000000000               0.186806776               0.256615912               0.000000000               0.205626098               0.280954320               0.000000000               0.224445420               0.305292729               0.000000000               0.243264743               0.329631138               0.000000000               0.262084065               0.353969547               0.000000000               0.280903388               0.378307956               0.000000000               0.299722710               0.402646365               0.000000000               0.318542033               0.426984773               0.000000000               0.337361355               0.451323182               0.000000000               0.356180678               0.475661591               0.000000000               0.375000000               0.500000000               0.000000000               0.062695766               0.117295528               0.000000000               0.078308531               0.141214558               0.000000000               0.093921295               0.165133587               0.000000000               0.109534060               0.189052617               0.000000000               0.125146824               0.212971646               0.000000000               0.140759589               0.236890676               0.000000000               0.156372354               0.260809705               0.000000000               0.171985118               0.284728735               0.000000000               0.187597883               0.308647764               0.000000000               0.203210648               0.332566794               0.000000000               0.218823412               0.356485823               0.000000000               0.234436177               0.380404853               0.000000000               0.250048941               0.404323882               0.000000000               0.265661706               0.428242912               0.000000000               0.281274471               0.452161941               0.000000000               0.296887235               0.476080971               0.000000000               0.312500000               0.500000000               0.000000000               0.050896897               0.122875978               0.000000000               0.063340840               0.146446229               0.000000000               0.075784784               0.170016481               0.000000000               0.088228728               0.193586732               0.000000000               0.100672672               0.217156983               0.000000000               0.113116616               0.240727235               0.000000000               0.125560560               0.264297486               0.000000000               0.138004504               0.287867738               0.000000000               0.150448448               0.311437989               0.000000000               0.162892392               0.335008240               0.000000000               0.175336336               0.358578492               0.000000000               0.187780280               0.382148743               0.000000000               0.200224224               0.405718994               0.000000000               0.212668168               0.429289246               0.000000000               0.225112112               0.452859497               0.000000000               0.237556056               0.476429749               0.000000000               0.250000000               0.500000000               0.000000000               0.038607862               0.127273065               0.000000000               0.047913621               0.150568498               0.000000000               0.057219379               0.173863932               0.000000000               0.066525138               0.197159365               0.000000000               0.075830897               0.220454798               0.000000000               0.085136655               0.243750232               0.000000000               0.094442414               0.267045665               0.000000000               0.103748172               0.290341099               0.000000000               0.113053931               0.313636532               0.000000000               0.122359690               0.336931966               0.000000000               0.131665448               0.360227399               0.000000000               0.140971207               0.383522833               0.000000000               0.150276966               0.406818266               0.000000000               0.159582724               0.430113700               0.000000000               0.168888483               0.453409133               0.000000000               0.178194241               0.476704567               0.000000000               0.187500000               0.500000000               0.000000000               0.025947013               0.130444442               0.000000000               0.032137825               0.153541665               0.000000000               0.038328636               0.176638887               0.000000000               0.044519448               0.199736109               0.000000000               0.050710260               0.222833332               0.000000000               0.056901071               0.245930554               0.000000000               0.063091883               0.269027776               0.000000000               0.069282695               0.292124999               0.000000000               0.075473506               0.315222221               0.000000000               0.081664318               0.338319444               0.000000000               0.087855130               0.361416666               0.000000000               0.094045942               0.384513888               0.000000000               0.100236753               0.407611111               0.000000000               0.106427565               0.430708333               0.000000000               0.112618377               0.453805555               0.000000000               0.118809188               0.476902778               0.000000000               0.125000000               0.500000000               0.000000000               0.013036280               0.132359569               0.000000000               0.016127762               0.155337096               0.000000000               0.019219245               0.178314623               0.000000000               0.022310727               0.201292150               0.000000000               0.025402210               0.224269676               0.000000000               0.028493692               0.247247203               0.000000000               0.031585175               0.270224730               0.000000000               0.034676657               0.293202257               0.000000000               0.037768140               0.316179784               0.000000000               0.040859622               0.339157311               0.000000000               0.043951105               0.362134838               0.000000000               0.047042587               0.385112365               0.000000000               0.050134070               0.408089892               0.000000000               0.053225552               0.431067419               0.000000000               0.056317035               0.454044946               0.000000000               0.059408517               0.477022473               0.000000000               0.062500000               0.500000000               0.000000000               0.000000000               0.133000000               0.000000000               0.000000000               0.155937500               0.000000000               0.000000000               0.178875000               0.000000000               0.000000000               0.201812500               0.000000000               0.000000000               0.224750000               0.000000000               0.000000000               0.247687500               0.000000000               0.000000000               0.270625000               0.000000000               0.000000000               0.293562500               0.000000000               0.000000000               0.316500000               0.000000000               0.000000000               0.339437500               0.000000000               0.000000000               0.362375000               0.000000000               0.000000000               0.385312500               0.000000000               0.000000000               0.408250000               0.000000000               0.000000000               0.431187500               0.000000000               0.000000000               0.454125000               0.000000000               0.000000000               0.477062500               0.000000000               0.000000000               0.500000000               0.000000000               0.133000000               0.000000000               0.000000000               0.155937500               0.000000000               0.000000000               0.178875000               0.000000000               0.000000000               0.201812500               0.000000000               0.000000000               0.224750000               0.000000000               0.000000000               0.247687500               0.000000000               0.000000000               0.270625000               0.000000000               0.000000000               0.293562500               0.000000000               0.000000000               0.316500000               0.000000000               0.000000000               0.339437500               0.000000000               0.000000000               0.362375000               0.000000000               0.000000000               0.385312500               0.000000000               0.000000000               0.408250000               0.000000000               0.000000000               0.431187500               0.000000000               0.000000000               0.454125000               0.000000000               0.000000000               0.477062500               0.000000000               0.000000000               0.500000000               0.000000000               0.000000000               0.132359569              -0.013036280               0.000000000               0.155337096              -0.016127762               0.000000000               0.178314623              -0.019219245               0.000000000               0.201292150              -0.022310727               0.000000000               0.224269676              -0.025402210               0.000000000               0.247247203              -0.028493692               0.000000000               0.270224730              -0.031585175               0.000000000               0.293202257              -0.034676657               0.000000000               0.316179784              -0.037768140               0.000000000               0.339157311              -0.040859622               0.000000000               0.362134838              -0.043951105               0.000000000               0.385112365              -0.047042587               0.000000000               0.408089892              -0.050134070               0.000000000               0.431067419              -0.053225552               0.000000000               0.454044946              -0.056317035               0.000000000               0.477022473              -0.059408517               0.000000000               0.500000000              -0.062500000               0.000000000               0.130444442              -0.025947013               0.000000000               0.153541665              -0.032137825               0.000000000               0.176638887              -0.038328636               0.000000000               0.199736109              -0.044519448               0.000000000               0.222833332              -0.050710260               0.000000000               0.245930554              -0.056901071               0.000000000               0.269027776              -0.063091883               0.000000000               0.292124999              -0.069282695               0.000000000               0.315222221              -0.075473506               0.000000000               0.338319444              -0.081664318               0.000000000               0.361416666              -0.087855130               0.000000000               0.384513888              -0.094045942               0.000000000               0.407611111              -0.100236753               0.000000000               0.430708333              -0.106427565               0.000000000               0.453805555              -0.112618377               0.000000000               0.476902778              -0.118809188               0.000000000               0.500000000              -0.125000000               0.000000000               0.127273065              -0.038607862               0.000000000               0.150568498              -0.047913621               0.000000000               0.173863932              -0.057219379               0.000000000               0.197159365              -0.066525138               0.000000000               0.220454798              -0.075830897               0.000000000               0.243750232              -0.085136655               0.000000000               0.267045665              -0.094442414               0.000000000               0.290341099              -0.103748172               0.000000000               0.313636532              -0.113053931               0.000000000               0.336931966              -0.122359690               0.000000000               0.360227399              -0.131665448               0.000000000               0.383522833              -0.140971207               0.000000000               0.406818266              -0.150276966               0.000000000               0.430113700              -0.159582724               0.000000000               0.453409133              -0.168888483               0.000000000               0.476704567              -0.178194241               0.000000000               0.500000000              -0.187500000               0.000000000               0.122875978              -0.050896897               0.000000000               0.146446229              -0.063340840               0.000000000               0.170016481              -0.075784784               0.000000000               0.193586732              -0.088228728               0.000000000               0.217156983              -0.100672672               0.000000000               0.240727235              -0.113116616               0.000000000               0.264297486              -0.125560560               0.000000000               0.287867738              -0.138004504               0.000000000               0.311437989              -0.150448448               0.000000000               0.335008240              -0.162892392               0.000000000               0.358578492              -0.175336336               0.000000000               0.382148743              -0.187780280               0.000000000               0.405718994              -0.200224224               0.000000000               0.429289246              -0.212668168               0.000000000               0.452859497              -0.225112112               0.000000000               0.476429749              -0.237556056               0.000000000               0.500000000              -0.250000000               0.000000000               0.117295528              -0.062695766               0.000000000               0.141214558              -0.078308531               0.000000000               0.165133587              -0.093921295               0.000000000               0.189052617              -0.109534060               0.000000000               0.212971646              -0.125146824               0.000000000               0.236890676              -0.140759589               0.000000000               0.260809705              -0.156372354               0.000000000               0.284728735              -0.171985118               0.000000000               0.308647764              -0.187597883               0.000000000               0.332566794              -0.203210648               0.000000000               0.356485823              -0.218823412               0.000000000               0.380404853              -0.234436177               0.000000000               0.404323882              -0.250048941               0.000000000               0.428242912              -0.265661706               0.000000000               0.452161941              -0.281274471               0.000000000               0.476080971              -0.296887235               0.000000000               0.500000000              -0.312500000               0.000000000               0.110585458              -0.073890841               0.000000000               0.134923867              -0.092710163               0.000000000               0.159262276              -0.111529486               0.000000000               0.183600685              -0.130348808               0.000000000               0.207939094              -0.149168131               0.000000000               0.232277503              -0.167987453               0.000000000               0.256615912              -0.186806776               0.000000000               0.280954320              -0.205626098               0.000000000               0.305292729              -0.224445420               0.000000000               0.329631138              -0.243264743               0.000000000               0.353969547              -0.262084065               0.000000000               0.378307956              -0.280903388               0.000000000               0.402646365              -0.299722710               0.000000000               0.426984773              -0.318542033               0.000000000               0.451323182              -0.337361355               0.000000000               0.475661591              -0.356180678               0.000000000               0.500000000              -0.375000000               0.000000000               0.102810390              -0.084374307               0.000000000               0.127634741              -0.106444663               0.000000000               0.152459092              -0.128515018               0.000000000               0.177283442              -0.150585374               0.000000000               0.202107793              -0.172655730               0.000000000               0.226932143              -0.194726086               0.000000000               0.251756494              -0.216796442               0.000000000               0.276580845              -0.238866798               0.000000000               0.301405195              -0.260937153               0.000000000               0.326229546              -0.283007509               0.000000000               0.351053896              -0.305077865               0.000000000               0.375878247              -0.327148221               0.000000000               0.400702598              -0.349218577               0.000000000               0.425526948              -0.371288933               0.000000000               0.450351299              -0.393359288               0.000000000               0.475175649              -0.415429644               0.000000000               0.500000000              -0.437500000               0.000000000               0.094045202              -0.094045202               0.000000000               0.119417377              -0.119417377               0.000000000               0.144789552              -0.144789552               0.000000000               0.170161727              -0.170161727               0.000000000               0.195533901              -0.195533901               0.000000000               0.220906076              -0.220906076               0.000000000               0.246278251              -0.246278251               0.000000000               0.271650426              -0.271650426               0.000000000               0.297022601              -0.297022601               0.000000000               0.322394776              -0.322394776               0.000000000               0.347766951              -0.347766951               0.000000000               0.373139126              -0.373139126               0.000000000               0.398511300              -0.398511300               0.000000000               0.423883475              -0.423883475               0.000000000               0.449255650              -0.449255650               0.000000000               0.474627825              -0.474627825               0.000000000               0.500000000              -0.500000000               0.000000000               0.084374307              -0.102810390               0.000000000               0.106444663              -0.127634741               0.000000000               0.128515018              -0.152459092               0.000000000               0.150585374              -0.177283442               0.000000000               0.172655730              -0.202107793               0.000000000               0.194726086              -0.226932143               0.000000000               0.216796442              -0.251756494               0.000000000               0.238866798              -0.276580845               0.000000000               0.260937153              -0.301405195               0.000000000               0.283007509              -0.326229546               0.000000000               0.305077865              -0.351053896               0.000000000               0.327148221              -0.375878247               0.000000000               0.349218577              -0.400702598               0.000000000               0.371288933              -0.425526948               0.000000000               0.393359288              -0.450351299               0.000000000               0.415429644              -0.475175649               0.000000000               0.437500000              -0.500000000               0.000000000               0.073890841              -0.110585458               0.000000000               0.092710163              -0.134923867               0.000000000               0.111529486              -0.159262276               0.000000000               0.130348808              -0.183600685               0.000000000               0.149168131              -0.207939094               0.000000000               0.167987453              -0.232277503               0.000000000               0.186806776              -0.256615912               0.000000000               0.205626098              -0.280954320               0.000000000               0.224445420              -0.305292729               0.000000000               0.243264743              -0.329631138               0.000000000               0.262084065              -0.353969547               0.000000000               0.280903388              -0.378307956               0.000000000               0.299722710              -0.402646365               0.000000000               0.318542033              -0.426984773               0.000000000               0.337361355              -0.451323182               0.000000000               0.356180678              -0.475661591               0.000000000               0.375000000              -0.500000000               0.000000000               0.062695766              -0.117295528               0.000000000               0.078308531              -0.141214558               0.000000000               0.093921295              -0.165133587               0.000000000               0.109534060              -0.189052617               0.000000000               0.125146824              -0.212971646               0.000000000               0.140759589              -0.236890676               0.000000000               0.156372354              -0.260809705               0.000000000               0.171985118              -0.284728735               0.000000000               0.187597883              -0.308647764               0.000000000               0.203210648              -0.332566794               0.000000000               0.218823412              -0.356485823               0.000000000               0.234436177              -0.380404853               0.000000000               0.250048941              -0.404323882               0.000000000               0.265661706              -0.428242912               0.000000000               0.281274471              -0.452161941               0.000000000               0.296887235              -0.476080971               0.000000000               0.312500000              -0.500000000               0.000000000               0.050896897              -0.122875978               0.000000000               0.063340840              -0.146446229               0.000000000               0.075784784              -0.170016481               0.000000000               0.088228728              -0.193586732               0.000000000               0.100672672              -0.217156983               0.000000000               0.113116616              -0.240727235               0.000000000               0.125560560              -0.264297486               0.000000000               0.138004504              -0.287867738               0.000000000               0.150448448              -0.311437989               0.000000000               0.162892392              -0.335008240               0.000000000               0.175336336              -0.358578492               0.000000000               0.187780280              -0.382148743               0.000000000               0.200224224              -0.405718994               0.000000000               0.212668168              -0.429289246               0.000000000               0.225112112              -0.452859497               0.000000000               0.237556056              -0.476429749               0.000000000               0.250000000              -0.500000000               0.000000000               0.038607862              -0.127273065               0.000000000               0.047913621              -0.150568498               0.000000000               0.057219379              -0.173863932               0.000000000               0.066525138              -0.197159365               0.000000000               0.075830897              -0.220454798               0.000000000               0.085136655              -0.243750232               0.000000000               0.094442414              -0.267045665               0.000000000               0.103748172              -0.290341099               0.000000000               0.113053931              -0.313636532               0.000000000               0.122359690              -0.336931966               0.000000000               0.131665448              -0.360227399               0.000000000               0.140971207              -0.383522833               0.000000000               0.150276966              -0.406818266               0.000000000               0.159582724              -0.430113700               0.000000000               0.168888483              -0.453409133               0.000000000               0.178194241              -0.476704567               0.000000000               0.187500000              -0.500000000               0.000000000               0.025947013              -0.130444442               0.000000000               0.032137825              -0.153541665               0.000000000               0.038328636              -0.176638887               0.000000000               0.044519448              -0.199736109               0.000000000               0.050710260              -0.222833332               0.000000000               0.056901071              -0.245930554               0.000000000               0.063091883              -0.269027776               0.000000000               0.069282695              -0.292124999               0.000000000               0.075473506              -0.315222221               0.000000000               0.081664318              -0.338319444               0.000000000               0.087855130              -0.361416666               0.000000000               0.094045942              -0.384513888               0.000000000               0.100236753              -0.407611111               0.000000000               0.106427565              -0.430708333               0.000000000               0.112618377              -0.453805555               0.000000000               0.118809188              -0.476902778               0.000000000               0.125000000              -0.500000000               0.000000000               0.013036280              -0.132359569               0.000000000               0.016127762              -0.155337096               0.000000000               0.019219245              -0.178314623               0.000000000               0.022310727              -0.201292150               0.000000000               0.025402210              -0.224269676               0.000000000               0.028493692              -0.247247203               0.000000000               0.031585175              -0.270224730               0.000000000               0.034676657              -0.293202257               0.000000000               0.037768140              -0.316179784               0.000000000               0.040859622              -0.339157311               0.000000000               0.043951105              -0.362134838               0.000000000               0.047042587              -0.385112365               0.000000000               0.050134070              -0.408089892               0.000000000               0.053225552              -0.431067419               0.000000000               0.056317035              -0.454044946               0.000000000               0.059408517              -0.477022473               0.000000000               0.062500000              -0.500000000               0.000000000               0.000000000              -0.133000000               0.000000000               0.000000000              -0.155937500               0.000000000               0.000000000              -0.178875000               0.000000000               0.000000000              -0.201812500               0.000000000               0.000000000              -0.224750000               0.000000000               0.000000000              -0.247687500               0.000000000               0.000000000              -0.270625000               0.000000000               0.000000000              -0.293562500               0.000000000               0.000000000              -0.316500000               0.000000000               0.000000000              -0.339437500               0.000000000               0.000000000              -0.362375000               0.000000000               0.000000000              -0.385312500               0.000000000               0.000000000              -0.408250000               0.000000000               0.000000000              -0.431187500               0.000000000               0.000000000              -0.454125000               0.000000000               0.000000000              -0.477062500               0.000000000               0.000000000              -0.500000000               0.000000000              -0.133000000               0.000000000               0.000000000              -0.155937500               0.000000000               0.000000000              -0.178875000               0.000000000               0.000000000              -0.201812500               0.000000000               0.000000000              -0.224750000               0.000000000               0.000000000              -0.247687500               0.000000000               0.000000000              -0.270625000               0.000000000               0.000000000              -0.293562500               0.000000000               0.000000000              -0.316500000               0.000000000               0.000000000              -0.339437500               0.000000000               0.000000000              -0.362375000               0.000000000               0.000000000              -0.385312500               0.000000000               0.000000000              -0.408250000               0.000000000               0.000000000              -0.431187500               0.000000000               0.000000000              -0.454125000               0.000000000               0.000000000              -0.477062500               0.000000000               0.000000000              -0.500000000               0.000000000               0.000000000              -0.132359569              -0.013036280               0.000000000              -0.155337096              -0.016127762               0.000000000              -0.178314623              -0.019219245               0.000000000              -0.201292150              -0.022310727               0.000000000              -0.224269676              -0.025402210               0.000000000              -0.247247203              -0.028493692               0.000000000              -0.270224730              -0.031585175               0.000000000              -0.293202257              -0.034676657               0.000000000              -0.316179784              -0.037768140               0.000000000              -0.339157311              -0.040859622               0.000000000              -0.362134838              -0.043951105               0.000000000              -0.385112365              -0.047042587               0.000000000              -0.408089892              -0.050134070               0.000000000              -0.431067419              -0.053225552               0.000000000              -0.454044946              -0.056317035               0.000000000              -0.477022473              -0.059408517               0.000000000              -0.500000000              -0.062500000               0.000000000              -0.130444442              -0.025947013               0.000000000              -0.153541665              -0.032137825               0.000000000              -0.176638887              -0.038328636               0.000000000              -0.199736109              -0.044519448               0.000000000              -0.222833332              -0.050710260               0.000000000              -0.245930554              -0.056901071               0.000000000              -0.269027776              -0.063091883               0.000000000              -0.292124999              -0.069282695               0.000000000              -0.315222221              -0.075473506               0.000000000              -0.338319444              -0.081664318               0.000000000              -0.361416666              -0.087855130               0.000000000              -0.384513888              -0.094045942               0.000000000              -0.407611111              -0.100236753               0.000000000              -0.430708333              -0.106427565               0.000000000              -0.453805555              -0.112618377               0.000000000              -0.476902778              -0.118809188               0.000000000              -0.500000000              -0.125000000               0.000000000              -0.127273065              -0.038607862               0.000000000              -0.150568498              -0.047913621               0.000000000              -0.173863932              -0.057219379               0.000000000              -0.197159365              -0.066525138               0.000000000              -0.220454798              -0.075830897               0.000000000              -0.243750232              -0.085136655               0.000000000              -0.267045665              -0.094442414               0.000000000              -0.290341099              -0.103748172               0.000000000              -0.313636532              -0.113053931               0.000000000              -0.336931966              -0.122359690               0.000000000              -0.360227399              -0.131665448               0.000000000              -0.383522833              -0.140971207               0.000000000              -0.406818266              -0.150276966               0.000000000              -0.430113700              -0.159582724               0.000000000              -0.453409133              -0.168888483               0.000000000              -0.476704567              -0.178194241               0.000000000              -0.500000000              -0.187500000               0.000000000              -0.122875978              -0.050896897               0.000000000              -0.146446229              -0.063340840               0.000000000              -0.170016481              -0.075784784               0.000000000              -0.193586732              -0.088228728               0.000000000              -0.217156983              -0.100672672               0.000000000              -0.240727235              -0.113116616               0.000000000              -0.264297486              -0.125560560               0.000000000              -0.287867738              -0.138004504               0.000000000              -0.311437989              -0.150448448               0.000000000              -0.335008240              -0.162892392               0.000000000              -0.358578492              -0.175336336               0.000000000              -0.382148743              -0.187780280               0.000000000              -0.405718994              -0.200224224               0.000000000              -0.429289246              -0.212668168               0.000000000              -0.452859497              -0.225112112               0.000000000              -0.476429749              -0.237556056               0.000000000              -0.500000000              -0.250000000               0.000000000              -0.117295528              -0.062695766               0.000000000              -0.141214558              -0.078308531               0.000000000              -0.165133587              -0.093921295               0.000000000              -0.189052617              -0.109534060               0.000000000              -0.212971646              -0.125146824               0.000000000              -0.236890676              -0.140759589               0.000000000              -0.260809705              -0.156372354               0.000000000              -0.284728735              -0.171985118               0.000000000              -0.308647764              -0.187597883               0.000000000              -0.332566794              -0.203210648               0.000000000              -0.356485823              -0.218823412               0.000000000              -0.380404853              -0.234436177               0.000000000              -0.404323882              -0.250048941               0.000000000              -0.428242912              -0.265661706               0.000000000              -0.452161941              -0.281274471               0.000000000              -0.476080971              -0.296887235               0.000000000              -0.500000000              -0.312500000               0.000000000              -0.110585458              -0.073890841               0.000000000              -0.134923867              -0.092710163               0.000000000              -0.159262276              -0.111529486               0.000000000              -0.183600685              -0.130348808               0.000000000              -0.207939094              -0.149168131               0.000000000              -0.232277503              -0.167987453               0.000000000              -0.256615912              -0.186806776               0.000000000              -0.280954320              -0.205626098               0.000000000              -0.305292729              -0.224445420               0.000000000              -0.329631138              -0.243264743               0.000000000              -0.353969547              -0.262084065               0.000000000              -0.378307956              -0.280903388               0.000000000              -0.402646365              -0.299722710               0.000000000              -0.426984773              -0.318542033               0.000000000              -0.451323182              -0.337361355               0.000000000              -0.475661591              -0.356180678               0.000000000              -0.500000000              -0.375000000               0.000000000              -0.102810390              -0.084374307               0.000000000              -0.127634741              -0.106444663               0.000000000              -0.152459092              -0.128515018               0.000000000              -0.177283442              -0.150585374               0.000000000              -0.202107793              -0.172655730               0.000000000              -0.226932143              -0.194726086               0.000000000              -0.251756494              -0.216796442               0.000000000              -0.276580845              -0.238866798               0.000000000              -0.301405195              -0.260937153               0.000000000              -0.326229546              -0.283007509               0.000000000              -0.351053896              -0.305077865               0.000000000              -0.375878247              -0.327148221               0.000000000              -0.400702598              -0.349218577               0.000000000              -0.425526948              -0.371288933               0.000000000              -0.450351299              -0.393359288               0.000000000              -0.475175649              -0.415429644               0.000000000              -0.500000000              -0.437500000               0.000000000              -0.094045202              -0.094045202               0.000000000              -0.119417377              -0.119417377               0.000000000              -0.144789552              -0.144789552               0.000000000              -0.170161727              -0.170161727               0.000000000              -0.195533901              -0.195533901               0.000000000              -0.220906076              -0.220906076               0.000000000              -0.246278251              -0.246278251               0.000000000              -0.271650426              -0.271650426               0.000000000              -0.297022601              -0.297022601               0.000000000              -0.322394776              -0.322394776               0.000000000              -0.347766951              -0.347766951               0.000000000              -0.373139126              -0.373139126               0.000000000              -0.398511300              -0.398511300               0.000000000              -0.423883475              -0.423883475               0.000000000              -0.449255650              -0.449255650               0.000000000              -0.474627825              -0.474627825               0.000000000              -0.500000000              -0.500000000               0.000000000              -0.084374307              -0.102810390               0.000000000              -0.106444663              -0.127634741               0.000000000              -0.128515018              -0.152459092               0.000000000              -0.150585374              -0.177283442               0.000000000              -0.172655730              -0.202107793               0.000000000              -0.194726086              -0.226932143               0.000000000              -0.216796442              -0.251756494               0.000000000              -0.238866798              -0.276580845               0.000000000              -0.260937153              -0.301405195               0.000000000              -0.283007509              -0.326229546               0.000000000              -0.305077865              -0.351053896               0.000000000              -0.327148221              -0.375878247               0.000000000              -0.349218577              -0.400702598               0.000000000              -0.371288933              -0.425526948               0.000000000              -0.393359288              -0.450351299               0.000000000              -0.415429644              -0.475175649               0.000000000              -0.437500000              -0.500000000               0.000000000              -0.073890841              -0.110585458               0.000000000              -0.092710163              -0.134923867               0.000000000              -0.111529486              -0.159262276               0.000000000              -0.130348808              -0.183600685               0.000000000              -0.149168131              -0.207939094               0.000000000              -0.167987453              -0.232277503               0.000000000              -0.186806776              -0.256615912               0.000000000              -0.205626098              -0.280954320               0.000000000              -0.224445420              -0.305292729               0.000000000              -0.243264743              -0.329631138               0.000000000              -0.262084065              -0.353969547               0.000000000              -0.280903388              -0.378307956               0.000000000              -0.299722710              -0.402646365               0.000000000              -0.318542033              -0.426984773               0.000000000              -0.337361355              -0.451323182               0.000000000              -0.356180678              -0.475661591               0.000000000              -0.375000000              -0.500000000               0.000000000              -0.062695766              -0.117295528               0.000000000              -0.078308531              -0.141214558               0.000000000              -0.093921295              -0.165133587               0.000000000              -0.109534060              -0.189052617               0.000000000              -0.125146824              -0.212971646               0.000000000              -0.140759589              -0.236890676               0.000000000              -0.156372354              -0.260809705               0.000000000              -0.171985118              -0.284728735               0.000000000              -0.187597883              -0.308647764               0.000000000              -0.203210648              -0.332566794               0.000000000              -0.218823412              -0.356485823               0.000000000              -0.234436177              -0.380404853               0.000000000              -0.250048941              -0.404323882               0.000000000              -0.265661706              -0.428242912               0.000000000              -0.281274471              -0.452161941               0.000000000              -0.296887235              -0.476080971               0.000000000              -0.312500000              -0.500000000               0.000000000              -0.050896897              -0.122875978               0.000000000              -0.063340840              -0.146446229               0.000000000              -0.075784784              -0.170016481               0.000000000              -0.088228728              -0.193586732               0.000000000              -0.100672672              -0.217156983               0.000000000              -0.113116616              -0.240727235               0.000000000              -0.125560560              -0.264297486               0.000000000              -0.138004504              -0.287867738               0.000000000              -0.150448448              -0.311437989               0.000000000              -0.162892392              -0.335008240               0.000000000              -0.175336336              -0.358578492               0.000000000              -0.187780280              -0.382148743               0.000000000              -0.200224224              -0.405718994               0.000000000              -0.212668168              -0.429289246               0.000000000              -0.225112112              -0.452859497               0.000000000              -0.237556056              -0.476429749               0.000000000              -0.250000000              -0.500000000               0.000000000              -0.038607862              -0.127273065               0.000000000              -0.047913621              -0.150568498               0.000000000              -0.057219379              -0.173863932               0.000000000              -0.066525138              -0.197159365               0.000000000              -0.075830897              -0.220454798               0.000000000              -0.085136655              -0.243750232               0.000000000              -0.094442414              -0.267045665               0.000000000              -0.103748172              -0.290341099               0.000000000              -0.113053931              -0.313636532               0.000000000              -0.122359690              -0.336931966               0.000000000              -0.131665448              -0.360227399               0.000000000              -0.140971207              -0.383522833               0.000000000              -0.150276966              -0.406818266               0.000000000              -0.159582724              -0.430113700               0.000000000              -0.168888483              -0.453409133               0.000000000              -0.178194241              -0.476704567               0.000000000              -0.187500000              -0.500000000               0.000000000              -0.025947013              -0.130444442               0.000000000              -0.032137825              -0.153541665               0.000000000              -0.038328636              -0.176638887               0.000000000              -0.044519448              -0.199736109               0.000000000              -0.050710260              -0.222833332               0.000000000              -0.056901071              -0.245930554               0.000000000              -0.063091883              -0.269027776               0.000000000              -0.069282695              -0.292124999               0.000000000              -0.075473506              -0.315222221               0.000000000              -0.081664318              -0.338319444               0.000000000              -0.087855130              -0.361416666               0.000000000              -0.094045942              -0.384513888               0.000000000              -0.100236753              -0.407611111               0.000000000              -0.106427565              -0.430708333               0.000000000              -0.112618377              -0.453805555               0.000000000              -0.118809188              -0.476902778               0.000000000              -0.125000000              -0.500000000               0.000000000              -0.013036280              -0.132359569               0.000000000              -0.016127762              -0.155337096               0.000000000              -0.019219245              -0.178314623               0.000000000              -0.022310727              -0.201292150               0.000000000              -0.025402210              -0.224269676               0.000000000              -0.028493692              -0.247247203               0.000000000              -0.031585175              -0.270224730               0.000000000              -0.034676657              -0.293202257               0.000000000              -0.037768140              -0.316179784               0.000000000              -0.040859622              -0.339157311               0.000000000              -0.043951105              -0.362134838               0.000000000              -0.047042587              -0.385112365               0.000000000              -0.050134070              -0.408089892               0.000000000              -0.053225552              -0.431067419               0.000000000              -0.056317035              -0.454044946               0.000000000              -0.059408517              -0.477022473               0.000000000              -0.062500000              -0.500000000               0.000000000               0.000000000              -0.133000000               0.000000000               0.000000000              -0.155937500               0.000000000               0.000000000              -0.178875000               0.000000000               0.000000000              -0.201812500               0.000000000               0.000000000              -0.224750000               0.000000000               0.000000000              -0.247687500               0.000000000               0.000000000              -0.270625000               0.000000000               0.000000000              -0.293562500               0.000000000               0.000000000              -0.316500000               0.000000000               0.000000000              -0.339437500               0.000000000               0.000000000              -0.362375000               0.000000000               0.000000000              -0.385312500               0.000000000               0.000000000              -0.408250000               0.000000000               0.000000000              -0.431187500               0.000000000               0.000000000              -0.454125000               0.000000000               0.000000000              -0.477062500               0.000000000               0.000000000              -0.500000000               0.000000000              -0.133000000               0.000000000               0.000000000              -0.155937500               0.000000000               0.000000000              -0.178875000               0.000000000               0.000000000              -0.201812500               0.000000000               0.000000000              -0.224750000               0.000000000               0.000000000              -0.247687500               0.000000000               0.000000000              -0.270625000               0.000000000               0.000000000              -0.293562500               0.000000000               0.000000000              -0.316500000               0.000000000               0.000000000              -0.339437500               0.000000000               0.000000000              -0.362375000               0.000000000               0.000000000              -0.385312500               0.000000000               0.000000000              -0.408250000               0.000000000               0.000000000              -0.431187500               0.000000000               0.000000000              -0.454125000               0.000000000               0.000000000              -0.477062500               0.000000000               0.000000000              -0.500000000               0.000000000               0.000000000              -0.132359569               0.013036280               0.000000000              -0.155337096               0.016127762               0.000000000              -0.178314623               0.019219245               0.000000000              -0.201292150               0.022310727               0.000000000              -0.224269676               0.025402210               0.000000000              -0.247247203               0.028493692               0.000000000              -0.270224730               0.031585175               0.000000000              -0.293202257               0.034676657               0.000000000              -0.316179784               0.037768140               0.000000000              -0.339157311               0.040859622               0.000000000              -0.362134838               0.043951105               0.000000000              -0.385112365               0.047042587               0.000000000              -0.408089892               0.050134070               0.000000000              -0.431067419               0.053225552               0.000000000              -0.454044946               0.056317035               0.000000000              -0.477022473               0.059408517               0.000000000              -0.500000000               0.062500000               0.000000000              -0.130444442               0.025947013               0.000000000              -0.153541665               0.032137825               0.000000000              -0.176638887               0.038328636               0.000000000              -0.199736109               0.044519448               0.000000000              -0.222833332               0.050710260               0.000000000              -0.245930554               0.056901071               0.000000000              -0.269027776               0.063091883               0.000000000              -0.292124999               0.069282695               0.000000000              -0.315222221               0.075473506               0.000000000              -0.338319444               0.081664318               0.000000000              -0.361416666               0.087855130               0.000000000              -0.384513888               0.094045942               0.000000000              -0.407611111               0.100236753               0.000000000              -0.430708333               0.106427565               0.000000000              -0.453805555               0.112618377               0.000000000              -0.476902778               0.118809188               0.000000000              -0.500000000               0.125000000               0.000000000              -0.127273065               0.038607862               0.000000000              -0.150568498               0.047913621               0.000000000              -0.173863932               0.057219379               0.000000000              -0.197159365               0.066525138               0.000000000              -0.220454798               0.075830897               0.000000000              -0.243750232               0.085136655               0.000000000              -0.267045665               0.094442414               0.000000000              -0.290341099               0.103748172               0.000000000              -0.313636532               0.113053931               0.000000000              -0.336931966               0.122359690               0.000000000              -0.360227399               0.131665448               0.000000000              -0.383522833               0.140971207               0.000000000              -0.406818266               0.150276966               0.000000000              -0.430113700               0.159582724               0.000000000              -0.453409133               0.168888483               0.000000000              -0.476704567               0.178194241               0.000000000              -0.500000000               0.187500000               0.000000000              -0.122875978               0.050896897               0.000000000              -0.146446229               0.063340840               0.000000000              -0.170016481               0.075784784               0.000000000              -0.193586732               0.088228728               0.000000000              -0.217156983               0.100672672               0.000000000              -0.240727235               0.113116616               0.000000000              -0.264297486               0.125560560               0.000000000              -0.287867738               0.138004504               0.000000000              -0.311437989               0.150448448               0.000000000              -0.335008240               0.162892392               0.000000000              -0.358578492               0.175336336               0.000000000              -0.382148743               0.187780280               0.000000000              -0.405718994               0.200224224               0.000000000              -0.429289246               0.212668168               0.000000000              -0.452859497               0.225112112               0.000000000              -0.476429749               0.237556056               0.000000000              -0.500000000               0.250000000               0.000000000              -0.117295528               0.062695766               0.000000000              -0.141214558               0.078308531               0.000000000              -0.165133587               0.093921295               0.000000000              -0.189052617               0.109534060               0.000000000              -0.212971646               0.125146824               0.000000000              -0.236890676               0.140759589               0.000000000              -0.260809705               0.156372354               0.000000000              -0.284728735               0.171985118               0.000000000              -0.308647764               0.187597883               0.000000000              -0.332566794               0.203210648               0.000000000              -0.356485823               0.218823412               0.000000000              -0.380404853               0.234436177               0.000000000              -0.404323882               0.250048941               0.000000000              -0.428242912               0.265661706               0.000000000              -0.452161941               0.281274471               0.000000000              -0.476080971               0.296887235               0.000000000              -0.500000000               0.312500000               0.000000000              -0.110585458               0.073890841               0.000000000              -0.134923867               0.092710163               0.000000000              -0.159262276               0.111529486               0.000000000              -0.183600685               0.130348808               0.000000000              -0.207939094               0.149168131               0.000000000              -0.232277503               0.167987453               0.000000000              -0.256615912               0.186806776               0.000000000              -0.280954320               0.205626098               0.000000000              -0.305292729               0.224445420               0.000000000              -0.329631138               0.243264743               0.000000000              -0.353969547               0.262084065               0.000000000              -0.378307956               0.280903388               0.000000000              -0.402646365               0.299722710               0.000000000              -0.426984773               0.318542033               0.000000000              -0.451323182               0.337361355               0.000000000              -0.475661591               0.356180678               0.000000000              -0.500000000               0.375000000               0.000000000              -0.102810390               0.084374307               0.000000000              -0.127634741               0.106444663               0.000000000              -0.152459092               0.128515018               0.000000000              -0.177283442               0.150585374               0.000000000              -0.202107793               0.172655730               0.000000000              -0.226932143               0.194726086               0.000000000              -0.251756494               0.216796442               0.000000000              -0.276580845               0.238866798               0.000000000              -0.301405195               0.260937153               0.000000000              -0.326229546               0.283007509               0.000000000              -0.351053896               0.305077865               0.000000000              -0.375878247               0.327148221               0.000000000              -0.400702598               0.349218577               0.000000000              -0.425526948               0.371288933               0.000000000              -0.450351299               0.393359288               0.000000000              -0.475175649               0.415429644               0.000000000              -0.500000000               0.437500000               0.000000000              -0.094045202               0.094045202               0.000000000              -0.119417377               0.119417377               0.000000000              -0.144789552               0.144789552               0.000000000              -0.170161727               0.170161727               0.000000000              -0.195533901               0.195533901               0.000000000              -0.220906076               0.220906076               0.000000000              -0.246278251               0.246278251               0.000000000              -0.271650426               0.271650426               0.000000000              -0.297022601               0.297022601               0.000000000              -0.322394776               0.322394776               0.000000000              -0.347766951               0.347766951               0.000000000              -0.373139126               0.373139126               0.000000000              -0.398511300               0.398511300               0.000000000              -0.423883475               0.423883475               0.000000000              -0.449255650               0.449255650               0.000000000              -0.474627825               0.474627825               0.000000000              -0.500000000               0.500000000               0.000000000              -0.084374307               0.102810390               0.000000000              -0.106444663               0.127634741               0.000000000              -0.128515018               0.152459092               0.000000000              -0.150585374               0.177283442               0.000000000              -0.172655730               0.202107793               0.000000000              -0.194726086               0.226932143               0.000000000              -0.216796442               0.251756494               0.000000000              -0.238866798               0.276580845               0.000000000              -0.260937153               0.301405195               0.000000000              -0.283007509               0.326229546               0.000000000              -0.305077865               0.351053896               0.000000000              -0.327148221               0.375878247               0.000000000              -0.349218577               0.400702598               0.000000000              -0.371288933               0.425526948               0.000000000              -0.393359288               0.450351299               0.000000000              -0.415429644               0.475175649               0.000000000              -0.437500000               0.500000000               0.000000000              -0.073890841               0.110585458               0.000000000              -0.092710163               0.134923867               0.000000000              -0.111529486               0.159262276               0.000000000              -0.130348808               0.183600685               0.000000000              -0.149168131               0.207939094               0.000000000              -0.167987453               0.232277503               0.000000000              -0.186806776               0.256615912               0.000000000              -0.205626098               0.280954320               0.000000000              -0.224445420               0.305292729               0.000000000              -0.243264743               0.329631138               0.000000000              -0.262084065               0.353969547               0.000000000              -0.280903388               0.378307956               0.000000000              -0.299722710               0.402646365               0.000000000              -0.318542033               0.426984773               0.000000000              -0.337361355               0.451323182               0.000000000              -0.356180678               0.475661591               0.000000000              -0.375000000               0.500000000               0.000000000              -0.062695766               0.117295528               0.000000000              -0.078308531               0.141214558               0.000000000              -0.093921295               0.165133587               0.000000000              -0.109534060               0.189052617               0.000000000              -0.125146824               0.212971646               0.000000000              -0.140759589               0.236890676               0.000000000              -0.156372354               0.260809705               0.000000000              -0.171985118               0.284728735               0.000000000              -0.187597883               0.308647764               0.000000000              -0.203210648               0.332566794               0.000000000              -0.218823412               0.356485823               0.000000000              -0.234436177               0.380404853               0.000000000              -0.250048941               0.404323882               0.000000000              -0.265661706               0.428242912               0.000000000              -0.281274471               0.452161941               0.000000000              -0.296887235               0.476080971               0.000000000              -0.312500000               0.500000000               0.000000000              -0.050896897               0.122875978               0.000000000              -0.063340840               0.146446229               0.000000000              -0.075784784               0.170016481               0.000000000              -0.088228728               0.193586732               0.000000000              -0.100672672               0.217156983               0.000000000              -0.113116616               0.240727235               0.000000000              -0.125560560               0.264297486               0.000000000              -0.138004504               0.287867738               0.000000000              -0.150448448               0.311437989               0.000000000              -0.162892392               0.335008240               0.000000000              -0.175336336               0.358578492               0.000000000              -0.187780280               0.382148743               0.000000000              -0.200224224               0.405718994               0.000000000              -0.212668168               0.429289246               0.000000000              -0.225112112               0.452859497               0.000000000              -0.237556056               0.476429749               0.000000000              -0.250000000               0.500000000               0.000000000              -0.038607862               0.127273065               0.000000000              -0.047913621               0.150568498               0.000000000              -0.057219379               0.173863932               0.000000000              -0.066525138               0.197159365               0.000000000              -0.075830897               0.220454798               0.000000000              -0.085136655               0.243750232               0.000000000              -0.094442414               0.267045665               0.000000000              -0.103748172               0.290341099               0.000000000              -0.113053931               0.313636532               0.000000000              -0.122359690               0.336931966               0.000000000              -0.131665448               0.360227399               0.000000000              -0.140971207               0.383522833               0.000000000              -0.150276966               0.406818266               0.000000000              -0.159582724               0.430113700               0.000000000              -0.168888483               0.453409133               0.000000000              -0.178194241               0.476704567               0.000000000              -0.187500000               0.500000000               0.000000000              -0.025947013               0.130444442               0.000000000              -0.032137825               0.153541665               0.000000000              -0.038328636               0.176638887               0.000000000              -0.044519448               0.199736109               0.000000000              -0.050710260               0.222833332               0.000000000              -0.056901071               0.245930554               0.000000000              -0.063091883               0.269027776               0.000000000              -0.069282695               0.292124999               0.000000000              -0.075473506               0.315222221               0.000000000              -0.081664318               0.338319444               0.000000000              -0.087855130               0.361416666               0.000000000              -0.094045942               0.384513888               0.000000000              -0.100236753               0.407611111               0.000000000              -0.106427565               0.430708333               0.000000000              -0.112618377               0.453805555               0.000000000              -0.118809188               0.476902778               0.000000000              -0.125000000               0.500000000               0.000000000              -0.013036280               0.132359569               0.000000000              -0.016127762               0.155337096               0.000000000              -0.019219245               0.178314623               0.000000000              -0.022310727               0.201292150               0.000000000              -0.025402210               0.224269676               0.000000000              -0.028493692               0.247247203               0.000000000              -0.031585175               0.270224730               0.000000000              -0.034676657               0.293202257               0.000000000              -0.037768140               0.316179784               0.000000000              -0.040859622               0.339157311               0.000000000              -0.043951105               0.362134838               0.000000000              -0.047042587               0.385112365               0.000000000              -0.050134070               0.408089892               0.000000000              -0.053225552               0.431067419               0.000000000              -0.056317035               0.454044946               0.000000000              -0.059408517               0.477022473               0.000000000              -0.062500000               0.500000000               0.000000000               0.000000000               0.133000000               0.000000000               0.000000000               0.155937500               0.000000000               0.000000000               0.178875000               0.000000000               0.000000000               0.201812500               0.000000000               0.000000000               0.224750000               0.000000000               0.000000000               0.247687500               0.000000000               0.000000000               0.270625000               0.000000000               0.000000000               0.293562500               0.000000000               0.000000000               0.316500000               0.000000000               0.000000000               0.339437500               0.000000000               0.000000000               0.362375000               0.000000000               0.000000000               0.385312500               0.000000000               0.000000000               0.408250000               0.000000000               0.000000000               0.431187500               0.000000000               0.000000000               0.454125000               0.000000000               0.000000000               0.477062500               0.000000000               0.000000000               0.500000000               0.000000000 </DataArray>
</Points>
<Cells>
<DataArray type="Int32"                                    Name="connectivity"                                                      NumberOfComponents=" 1" format="ascii">
         0          1         18         17          1          2         19         18          2          3         20         19          3          4         21         20          4          5         22         21          5          6         23         22          6          7         24         23          7          8         25         24          8          9         26         25          9         10         27         26         10         11         28         27         11         12         29         28         12         13         30         29         13         14         31         30         14         15         32         31         15         16         33         32         17         18         35         34         18         19         36         35         19         20         37         36         20         21         38         37         21         22         39         38         22         23         40         39         23         24         41         40         24         25         42         41         25         26         43         42         26         27         44         43         27         28         45         44         28         29         46         45         29         30         47         46         30         31         48         47         31         32         49         48         32         33         50         49         34         35         52         51         35         36         53         52         36         37         54         53         37         38         55         54         38         39         56         55         39         40         57         56         40         41         58         57         41         42         59         58         42         43         60         59         43         44         61         60         44         45         62         61         45         46         63         62         46         47         64         63         47         48         65         64         48         49         66         65         49         50         67         66         51         52         69         68         52         53         70         69         53         54         71         70         54         55         72         71         55         56         73         72         56         57         74         73         57         58         75         74         58         59         76         75         59         60         77         76         60         61         78         77         61         62         79         78         62         63         80         79         63         64         81         80         64         65         82         81         65         66         83         82         66         67         84         83         68         69         86         85         69         70         87         86         70         71         88         87         71         72         89         88         72         73         90         89         73         74         91         90         74         75         92         91         75         76         93         92         76         77         94         93         77         78         95         94         78         79         96         95         79         80         97         96         80         81         98         97         81         82         99         98         82         83        100         99         83         84        101        100         85         86        103        102         86         87        104        103         87         88        105        104         88         89        106        105         89         90        107        106         90         91        108        107         91         92        109        108         92         93        110        109         93         94        111        110         94         95        112        111         95         96        113        112         96         97        114        113         97         98        115        114         98         99        116        115         99        100        117        116        100        101        118        117        102        103        120        119        103        104        121        120        104        105        122        121        105        106        123        122        106        107        124        123        107        108        125        124        108        109        126        125        109        110        127        126        110        111        128        127        111        112        129        128        112        113        130        129        113        114        131        130        114        115        132        131        115        116        133        132        116        117        134        133        117        118        135        134        119        120        137        136        120        121        138        137        121        122        139        138        122        123        140        139        123        124        141        140        124        125        142        141        125        126        143        142        126        127        144        143        127        128        145        144        128        129        146        145        129        130        147        146        130        131        148        147        131        132        149        148        132        133        150        149        133        134        151        150        134        135        152        151        136        137        154        153        137        138        155        154        138        139        156        155        139        140        157        156        140        141        158        157        141        142        159        158        142        143        160        159        143        144        161        160        144        145        162        161        145        146        163        162        146        147        164        163        147        148        165        164        148        149        166        165        149        150        167        166        150        151        168        167        151        152        169        168        153        154        171        170        154        155        172        171        155        156        173        172        156        157        174        173        157        158        175        174        158        159        176        175        159        160        177        176        160        161        178        177        161        162        179        178        162        163        180        179        163        164        181        180        164        165        182        181        165        166        183        182        166        167        184        183        167        168        185        184        168        169        186        185        170        171        188        187        171        172        189        188        172        173        190        189        173        174        191        190        174        175        192        191        175        176        193        192        176        177        194        193        177        178        195        194        178        179        196        195        179        180        197        196        180        181        198        197        181        182        199        198        182        183        200        199        183        184        201        200        184        185        202        201        185        186        203        202        187        188        205        204        188        189        206        205        189        190        207        206        190        191        208        207        191        192        209        208        192        193        210        209        193        194        211        210        194        195        212        211        195        196        213        212        196        197        214        213        197        198        215        214        198        199        216        215        199        200        217        216        200        201        218        217        201        202        219        218        202        203        220        219        204        205        222        221        205        206        223        222        206        207        224        223        207        208        225        224        208        209        226        225        209        210        227        226        210        211        228        227        211        212        229        228        212        213        230        229        213        214        231        230        214        215        232        231        215        216        233        232        216        217        234        233        217        218        235        234        218        219        236        235        219        220        237        236        221        222        239        238        222        223        240        239        223        224        241        240        224        225        242        241        225        226        243        242        226        227        244        243        227        228        245        244        228        229        246        245        229        230        247        246        230        231        248        247        231        232        249        248        232        233        250        249        233        234        251        250        234        235        252        251        235        236        253        252        236        237        254        253        238        239        256        255        239        240        257        256        240        241        258        257        241        242        259        258        242        243        260        259        243        244        261        260        244        245        262        261        245        246        263        262        246        247        264        263        247        248        265        264        248        249        266        265        249        250        267        266        250        251        268        267        251        252        269        268        252        253        270        269        253        254        271        270        255        256        273        272        256        257        274        273        257        258        275        274        258        259        276        275        259        260        277        276        260        261        278        277        261        262        279        278        262        263        280        279        263        264        281        280        264        265        282        281        265        266        283        282        266        267        284        283        267        268        285        284        268        269        286        285        269        270        287        286        270        271        288        287        306        307          1          0        307        308          2          1        308        309          3          2        309        310          4          3        310        311          5          4        311        312          6          5        312        313          7          6        313        314          8          7        314        315          9          8        315        316         10          9        316        317         11         10        317        318         12         11        318        319         13         12        319        320         14         13        320        321         15         14        321        322         16         15        323        324        307        306        324        325        308        307        325        326        309        308        326        327        310        309        327        328        311        310        328        329        312        311        329        330        313        312        330        331        314        313        331        332        315        314        332        333        316        315        333        334        317        316        334        335        318        317        335        336        319        318        336        337        320        319        337        338        321        320        338        339        322        321        340        341        324        323        341        342        325        324        342        343        326        325        343        344        327        326        344        345        328        327        345        346        329        328        346        347        330        329        347        348        331        330        348        349        332        331        349        350        333        332        350        351        334        333        351        352        335        334        352        353        336        335        353        354        337        336        354        355        338        337        355        356        339        338        357        358        341        340        358        359        342        341        359        360        343        342        360        361        344        343        361        362        345        344        362        363        346        345        363        364        347        346        364        365        348        347        365        366        349        348        366        367        350        349        367        368        351        350        368        369        352        351        369        370        353        352        370        371        354        353        371        372        355        354        372        373        356        355        374        375        358        357        375        376        359        358        376        377        360        359        377        378        361        360        378        379        362        361        379        380        363        362        380        381        364        363        381        382        365        364        382        383        366        365        383        384        367        366        384        385        368        367        385        386        369        368        386        387        370        369        387        388        371        370        388        389        372        371        389        390        373        372        391        392        375        374        392        393        376        375        393        394        377        376        394        395        378        377        395        396        379        378        396        397        380        379        397        398        381        380        398        399        382        381        399        400        383        382        400        401        384        383        401        402        385        384        402        403        386        385        403        404        387        386        404        405        388        387        405        406        389        388        406        407        390        389        408        409        392        391        409        410        393        392        410        411        394        393        411        412        395        394        412        413        396        395        413        414        397        396        414        415        398        397        415        416        399        398        416        417        400        399        417        418        401        400        418        419        402        401        419        420        403        402        420        421        404        403        421        422        405        404        422        423        406        405        423        424        407        406        425        426        409        408        426        427        410        409        427        428        411        410        428        429        412        411        429        430        413        412        430        431        414        413        431        432        415        414        432        433        416        415        433        434        417        416        434        435        418        417        435        436        419        418        436        437        420        419        437        438        421        420        438        439        422        421        439        440        423        422        440        441        424        423        442        443        426        425        443        444        427        426        444        445        428        427        445        446        429        428        446        447        430        429        447        448        431        430        448        449        432        431        449        450        433        432        450        451        434        433        451        452        435        434        452        453        436        435        453        454        437        436        454        455        438        437        455        456        439        438        456        457        440        439        457        458        441        440        459        460        443        442        460        461        444        443        461        462        445        444        462        463        446        445        463        464        447        446        464        465        448        447        465        466        449        448        466        467        450        449        467        468        451        450        468        469        452        451        469        470        453        452        470        471        454        453        471        472        455        454        472        473        456        455        473        474        457        456        474        475        458        457        476        477        460        459        477        478        461        460        478        479        462        461        479        480        463        462        480        481        464        463        481        482        465        464        482        483        466        465        483        484        467        466        484        485        468        467        485        486        469        468        486        487        470        469        487        488        471        470        488        489        472        471        489        490        473        472        490        491        474        473        491        492        475        474        493        494        477        476        494        495        478        477        495        496        479        478        496        497        480        479        497        498        481        480        498        499        482        481        499        500        483        482        500        501        484        483        501        502        485        484        502        503        486        485        503        504        487        486        504        505        488        487        505        506        489        488        506        507        490        489        507        508        491        490        508        509        492        491        510        511        494        493        511        512        495        494        512        513        496        495        513        514        497        496        514        515        498        497        515        516        499        498        516        517        500        499        517        518        501        500        518        519        502        501        519        520        503        502        520        521        504        503        521        522        505        504        522        523        506        505        523        524        507        506        524        525        508        507        525        526        509        508        527        528        511        510        528        529        512        511        529        530        513        512        530        531        514        513        531        532        515        514        532        533        516        515        533        534        517        516        534        535        518        517        535        536        519        518        536        537        520        519        537        538        521        520        538        539        522        521        539        540        523        522        540        541        524        523        541        542        525        524        542        543        526        525        544        545        528        527        545        546        529        528        546        547        530        529        547        548        531        530        548        549        532        531        549        550        533        532        550        551        534        533        551        552        535        534        552        553        536        535        553        554        537        536        554        555        538        537        555        556        539        538        556        557        540        539        557        558        541        540        558        559        542        541        559        560        543        542        561        562        545        544        562        563        546        545        563        564        547        546        564        565        548        547        565        566        549        548        566        567        550        549        567        568        551        550        568        569        552        551        569        570        553        552        570        571        554        553        571        572        555        554        572        573        556        555        573        574        557        556        574        575        558        557        575        576        559        558        576        577        560        559        578        579        596        595        579        580        597        596        580        581        598        597        581        582        599        598        582        583        600        599        583        584        601        600        584        585        602        601        585        586        603        602        586        587        604        603        587        588        605        604        588        589        606        605        589        590        607        606        590        591        608        607        591        592        609        608        592        593        610        609        593        594        611        610        595        596        613        612        596        597        614        613        597        598        615        614        598        599        616        615        599        600        617        616        600        601        618        617        601        602        619        618        602        603        620        619        603        604        621        620        604        605        622        621        605        606        623        622        606        607        624        623        607        608        625        624        608        609        626        625        609        610        627        626        610        611        628        627        612        613        630        629        613        614        631        630        614        615        632        631        615        616        633        632        616        617        634        633        617        618        635        634        618        619        636        635        619        620        637        636        620        621        638        637        621        622        639        638        622        623        640        639        623        624        641        640        624        625        642        641        625        626        643        642        626        627        644        643        627        628        645        644        629        630        647        646        630        631        648        647        631        632        649        648        632        633        650        649        633        634        651        650        634        635        652        651        635        636        653        652        636        637        654        653        637        638        655        654        638        639        656        655        639        640        657        656        640        641        658        657        641        642        659        658        642        643        660        659        643        644        661        660        644        645        662        661        646        647        664        663        647        648        665        664        648        649        666        665        649        650        667        666        650        651        668        667        651        652        669        668        652        653        670        669        653        654        671        670        654        655        672        671        655        656        673        672        656        657        674        673        657        658        675        674        658        659        676        675        659        660        677        676        660        661        678        677        661        662        679        678        663        664        681        680        664        665        682        681        665        666        683        682        666        667        684        683        667        668        685        684        668        669        686        685        669        670        687        686        670        671        688        687        671        672        689        688        672        673        690        689        673        674        691        690        674        675        692        691        675        676        693        692        676        677        694        693        677        678        695        694        678        679        696        695        680        681        698        697        681        682        699        698        682        683        700        699        683        684        701        700        684        685        702        701        685        686        703        702        686        687        704        703        687        688        705        704        688        689        706        705        689        690        707        706        690        691        708        707        691        692        709        708        692        693        710        709        693        694        711        710        694        695        712        711        695        696        713        712        697        698        715        714        698        699        716        715        699        700        717        716        700        701        718        717        701        702        719        718        702        703        720        719        703        704        721        720        704        705        722        721        705        706        723        722        706        707        724        723        707        708        725        724        708        709        726        725        709        710        727        726        710        711        728        727        711        712        729        728        712        713        730        729        714        715        732        731        715        716        733        732        716        717        734        733        717        718        735        734        718        719        736        735        719        720        737        736        720        721        738        737        721        722        739        738        722        723        740        739        723        724        741        740        724        725        742        741        725        726        743        742        726        727        744        743        727        728        745        744        728        729        746        745        729        730        747        746        731        732        749        748        732        733        750        749        733        734        751        750        734        735        752        751        735        736        753        752        736        737        754        753        737        738        755        754        738        739        756        755        739        740        757        756        740        741        758        757        741        742        759        758        742        743        760        759        743        744        761        760        744        745        762        761        745        746        763        762        746        747        764        763        748        749        766        765        749        750        767        766        750        751        768        767        751        752        769        768        752        753        770        769        753        754        771        770        754        755        772        771        755        756        773        772        756        757        774        773        757        758        775        774        758        759        776        775        759        760        777        776        760        761        778        777        761        762        779        778        762        763        780        779        763        764        781        780        765        766        783        782        766        767        784        783        767        768        785        784        768        769        786        785        769        770        787        786        770        771        788        787        771        772        789        788        772        773        790        789        773        774        791        790        774        775        792        791        775        776        793        792        776        777        794        793        777        778        795        794        778        779        796        795        779        780        797        796        780        781        798        797        782        783        800        799        783        784        801        800        784        785        802        801        785        786        803        802        786        787        804        803        787        788        805        804        788        789        806        805        789        790        807        806        790        791        808        807        791        792        809        808        792        793        810        809        793        794        811        810        794        795        812        811        795        796        813        812        796        797        814        813        797        798        815        814        799        800        817        816        800        801        818        817        801        802        819        818        802        803        820        819        803        804        821        820        804        805        822        821        805        806        823        822        806        807        824        823        807        808        825        824        808        809        826        825        809        810        827        826        810        811        828        827        811        812        829        828        812        813        830        829        813        814        831        830        814        815        832        831        816        817        834        833        817        818        835        834        818        819        836        835        819        820        837        836        820        821        838        837        821        822        839        838        822        823        840        839        823        824        841        840        824        825        842        841        825        826        843        842        826        827        844        843        827        828        845        844        828        829        846        845        829        830        847        846        830        831        848        847        831        832        849        848        833        834        562        561        834        835        563        562        835        836        564        563        836        837        565        564        837        838        566        565        838        839        567        566        839        840        568        567        840        841        569        568        841        842        570        569        842        843        571        570        843        844        572        571        844        845        573        572        845        846        574        573        846        847        575        574        847        848        576        575        848        849        577        576        884        885        579        578        885        886        580        579        886        887        581        580        887        888        582        581        888        889        583        582        889        890        584        583        890        891        585        584        891        892        586        585        892        893        587        586        893        894        588        587        894        895        589        588        895        896        590        589        896        897        591        590        897        898        592        591        898        899        593        592        899        900        594        593        901        902        885        884        902        903        886        885        903        904        887        886        904        905        888        887        905        906        889        888        906        907        890        889        907        908        891        890        908        909        892        891        909        910        893        892        910        911        894        893        911        912        895        894        912        913        896        895        913        914        897        896        914        915        898        897        915        916        899        898        916        917        900        899        918        919        902        901        919        920        903        902        920        921        904        903        921        922        905        904        922        923        906        905        923        924        907        906        924        925        908        907        925        926        909        908        926        927        910        909        927        928        911        910        928        929        912        911        929        930        913        912        930        931        914        913        931        932        915        914        932        933        916        915        933        934        917        916        935        936        919        918        936        937        920        919        937        938        921        920        938        939        922        921        939        940        923        922        940        941        924        923        941        942        925        924        942        943        926        925        943        944        927        926        944        945        928        927        945        946        929        928        946        947        930        929        947        948        931        930        948        949        932        931        949        950        933        932        950        951        934        933        952        953        936        935        953        954        937        936        954        955        938        937        955        956        939        938        956        957        940        939        957        958        941        940        958        959        942        941        959        960        943        942        960        961        944        943        961        962        945        944        962        963        946        945        963        964        947        946        964        965        948        947        965        966        949        948        966        967        950        949        967        968        951        950        969        970        953        952        970        971        954        953        971        972        955        954        972        973        956        955        973        974        957        956        974        975        958        957        975        976        959        958        976        977        960        959        977        978        961        960        978        979        962        961        979        980        963        962        980        981        964        963        981        982        965        964        982        983        966        965        983        984        967        966        984        985        968        967        986        987        970        969        987        988        971        970        988        989        972        971        989        990        973        972        990        991        974        973        991        992        975        974        992        993        976        975        993        994        977        976        994        995        978        977        995        996        979        978        996        997        980        979        997        998        981        980        998        999        982        981        999       1000        983        982       1000       1001        984        983       1001       1002        985        984       1003       1004        987        986       1004       1005        988        987       1005       1006        989        988       1006       1007        990        989       1007       1008        991        990       1008       1009        992        991       1009       1010        993        992       1010       1011        994        993       1011       1012        995        994       1012       1013        996        995       1013       1014        997        996       1014       1015        998        997       1015       1016        999        998       1016       1017       1000        999       1017       1018       1001       1000       1018       1019       1002       1001       1020       1021       1004       1003       1021       1022       1005       1004       1022       1023       1006       1005       1023       1024       1007       1006       1024       1025       1008       1007       1025       1026       1009       1008       1026       1027       1010       1009       1027       1028       1011       1010       1028       1029       1012       1011       1029       1030       1013       1012       1030       1031       1014       1013       1031       1032       1015       1014       1032       1033       1016       1015       1033       1034       1017       1016       1034       1035       1018       1017       1035       1036       1019       1018       1037       1038       1021       1020       1038       1039       1022       1021       1039       1040       1023       1022       1040       1041       1024       1023       1041       1042       1025       1024       1042       1043       1026       1025       1043       1044       1027       1026       1044       1045       1028       1027       1045       1046       1029       1028       1046       1047       1030       1029       1047       1048       1031       1030       1048       1049       1032       1031       1049       1050       1033       1032       1050       1051       1034       1033       1051       1052       1035       1034       1052       1053       1036       1035       1054       1055       1038       1037       1055       1056       1039       1038       1056       1057       1040       1039       1057       1058       1041       1040       1058       1059       1042       1041       1059       1060       1043       1042       1060       1061       1044       1043       1061       1062       1045       1044       1062       1063       1046       1045       1063       1064       1047       1046       1064       1065       1048       1047       1065       1066       1049       1048       1066       1067       1050       1049       1067       1068       1051       1050       1068       1069       1052       1051       1069       1070       1053       1052       1071       1072       1055       1054       1072       1073       1056       1055       1073       1074       1057       1056       1074       1075       1058       1057       1075       1076       1059       1058       1076       1077       1060       1059       1077       1078       1061       1060       1078       1079       1062       1061       1079       1080       1063       1062       1080       1081       1064       1063       1081       1082       1065       1064       1082       1083       1066       1065       1083       1084       1067       1066       1084       1085       1068       1067       1085       1086       1069       1068       1086       1087       1070       1069       1088       1089       1072       1071       1089       1090       1073       1072       1090       1091       1074       1073       1091       1092       1075       1074       1092       1093       1076       1075       1093       1094       1077       1076       1094       1095       1078       1077       1095       1096       1079       1078       1096       1097       1080       1079       1097       1098       1081       1080       1098       1099       1082       1081       1099       1100       1083       1082       1100       1101       1084       1083       1101       1102       1085       1084       1102       1103       1086       1085       1103       1104       1087       1086       1105       1106       1089       1088       1106       1107       1090       1089       1107       1108       1091       1090       1108       1109       1092       1091       1109       1110       1093       1092       1110       1111       1094       1093       1111       1112       1095       1094       1112       1113       1096       1095       1113       1114       1097       1096       1114       1115       1098       1097       1115       1116       1099       1098       1116       1117       1100       1099       1117       1118       1101       1100       1118       1119       1102       1101       1119       1120       1103       1102       1120       1121       1104       1103       1122       1123       1106       1105       1123       1124       1107       1106       1124       1125       1108       1107       1125       1126       1109       1108       1126       1127       1110       1109       1127       1128       1111       1110       1128       1129       1112       1111       1129       1130       1113       1112       1130       1131       1114       1113       1131       1132       1115       1114       1132       1133       1116       1115       1133       1134       1117       1116       1134       1135       1118       1117       1135       1136       1119       1118       1136       1137       1120       1119       1137       1138       1121       1120        272        273       1123       1122        273        274       1124       1123        274        275       1125       1124        275        276       1126       1125        276        277       1127       1126        277        278       1128       1127        278        279       1129       1128        279        280       1130       1129        280        281       1131       1130        281        282       1132       1131        282        283       1133       1132        283        284       1134       1133        284        285       1135       1134        285        286       1136       1135        286        287       1137       1136        287        288       1138       1137 </DataArray>
<DataArray type="Int32"                                    Name="offsets"                                                      NumberOfComponents=" 1" format="ascii">
         4          8         12         16         20         24         28         32         36         40         44         48         52         56         60         64         68         72         76         80         84         88         92         96        100        104        108        112        116        120        124        128        132        136        140        144        148        152        156        160        164        168        172        176        180        184        188        192        196        200        204        208        212        216        220        224        228        232        236        240        244        248        252        256        260        264        268        272        276        280        284        288        292        296        300        304        308        312        316        320        324        328        332        336        340        344        348        352        356        360        364        368        372        376        380        384        388        392        396        400        404        408        412        416        420        424        428        432        436        440        444        448        452        456        460        464        468        472        476        480        484        488        492        496        500        504        508        512        516        520        524        528        532        536        540        544        548        552        556        560        564        568        572        576        580        584        588        592        596        600        604        608        612        616        620        624        628        632        636        640        644        648        652        656        660        664        668        672        676        680        684        688        692        696        700        704        708        712        716        720        724        728        732        736        740        744        748        752        756        760        764        768        772        776        780        784        788        792        796        800        804        808        812        816        820        824        828        832        836        840        844        848        852        856        860        864        868        872        876        880        884        888        892        896        900        904        908        912        916        920        924        928        932        936        940        944        948        952        956        960        964        968        972        976        980        984        988        992        996       1000       1004       1008       1012       1016       1020       1024       1028       1032       1036       1040       1044       1048       1052       1056       1060       1064       1068       1072       1076       1080       1084       1088       1092       1096       1100       1104       1108       1112       1116       1120       1124       1128       1132       1136       1140       1144       1148       1152       1156       1160       1164       1168       1172       1176       1180       1184       1188       1192       1196       1200       1204       1208       1212       1216       1220       1224       1228       1232       1236       1240       1244       1248       1252       1256       1260       1264       1268       1272       1276       1280       1284       1288       1292       1296       1300       1304       1308       1312       1316       1320       1324       1328       1332       1336       1340       1344       1348       1352       1356       1360       1364       1368       1372       1376       1380       1384       1388       1392       1396       1400       1404       1408       1412       1416       1420       1424       1428       1432       1436       1440       1444       1448       1452       1456       1460       1464       1468       1472       1476       1480       1484       1488       1492       1496       1500       1504       1508       1512       1516       1520       1524       1528       1532       1536       1540       1544       1548       1552       1556       1560       1564       1568       1572       1576       1580       1584       1588       1592       1596       1600       1604       1608       1612       1616       1620       1624       1628       1632       1636       1640       1644       1648       1652       1656       1660       1664       1668       1672       1676       1680       1684       1688       1692       1696       1700       1704       1708       1712       1716       1720       1724       1728       1732       1736       1740       1744       1748       1752       1756       1760       1764       1768       1772       1776       1780       1784       1788       1792       1796       1800       1804       1808       1812       1816       1820       1824       1828       1832       1836       1840       1844       1848       1852       1856       1860       1864       1868       1872       1876       1880       1884       1888       1892       1896       1900       1904       1908       1912       1916       1920       1924       1928       1932       1936       1940       1944       1948       1952       1956       1960       1964       1968       1972       1976       1980       1984       1988       1992       1996       2000       2004       2008       2012       2016       2020       2024       2028       2032       2036       2040       2044       2048       2052       2056       2060       2064       2068       2072       2076       2080       2084       2088       2092       2096       2100       2104       2108       2112       2116       2120       2124       2128       2132       2136       2140       2144       2148       2152       2156       2160       2164       2168       2172       2176       2180       2184       2188       2192       2196       2200       2204       2208       2212       2216       2220       2224       2228       2232       2236       2240       2244       2248       2252       2256       2260       2264       2268       2272       2276       2280       2284       2288       2292       2296       2300       2304       2308       2312       2316       2320       2324       2328       2332       2336       2340       2344       2348       2352       2356       2360       2364       2368       2372       2376       2380       2384       2388       2392       2396       2400       2404       2408       2412       2416       2420       2424       2428       2432       2436       2440       2444       2448       2452       2456       2460       2464       2468       2472       2476       2480       2484       2488       2492       2496       2500       2504       2508       2512       2516       2520       2524       2528       2532       2536       2540       2544       2548       2552       2556       2560       2564       2568       2572       2576       2580       2584       2588       2592       2596       2600       2604       2608       2612       2616       2620       2624       2628       2632       2636       2640       2644       2648       2652       2656       2660       2664       2668       2672       2676       2680       2684       2688       2692       2696       2700       2704       2708       2712       2716       2720       2724       2728       2732       2736       2740       2744       2748       2752       2756       2760       2764       2768       2772       2776       2780       2784       2788       2792       2796       2800       2804       2808       2812       2816       2820       2824       2828       2832       2836       2840       2844       2848       2852       2856       2860       2864       2868       2872       2876       2880       2884       2888       2892       2896       2900       2904       2908       2912       2916       2920       2924       2928       2932       2936       2940       2944       2948       2952       2956       2960       2964       2968       2972       2976       2980       2984       2988       2992       2996       3000       3004       3008       3012       3016       3020       3024       3028       3032       3036       3040       3044       3048       3052       3056       3060       3064       3068       3072       3076       3080       3084       3088       3092       3096       3100       3104       3108       3112       3116       3120       3124       3128       3132       3136       3140       3144       3148       3152       3156       3160       3164       3168       3172       3176       3180       3184       3188       3192       3196       3200       3204       3208       3212       3216       3220       3224       3228       3232       3236       3240       3244       3248       3252       3256       3260       3264       3268       3272       3276       3280       3284       3288       3292       3296       3300       3304       3308       3312       3316       3320       3324       3328       3332       3336       3340       3344       3348       3352       3356       3360       3364       3368       3372       3376       3380       3384       3388       3392       3396       3400       3404       3408       3412       3416       3420       3424       3428       3432       3436       3440       3444       3448       3452       3456       3460       3464       3468       3472       3476       3480       3484       3488       3492       3496       3500       3504       3508       3512       3516       3520       3524       3528       3532       3536       3540       3544       3548       3552       3556       3560       3564       3568       3572       3576       3580       3584       3588       3592       3596       3600       3604       3608       3612       3616       3620       3624       3628       3632       3636       3640       3644       3648       3652       3656       3660       3664       3668       3672       3676       3680       3684       3688       3692       3696       3700       3704       3708       3712       3716       3720       3724       3728       3732       3736       3740       3744       3748       3752       3756       3760       3764       3768       3772       3776       3780       3784       3788       3792       3796       3800       3804       3808       3812       3816       3820       3824       3828       3832       3836       3840       3844       3848       3852       3856       3860       3864       3868       3872       3876       3880       3884       3888       3892       3896       3900       3904       3908       3912       3916       3920       3924       3928       3932       3936       3940       3944       3948       3952       3956       3960       3964       3968       3972       3976       3980       3984       3988       3992       3996       4000       4004       4008       4012       4016       4020       4024       4028       4032       4036       4040       4044       4048       4052       4056       4060       4064       4068       4072       4076       4080       4084       4088       4092       4096 </DataArray>
<DataArray type="UInt8"                                    Name="types"                                                      NumberOfComponents=" 1" format="ascii">
         9          9          9          9          9          9          9          9          9          9          9          9          9          9          9          9          9          9          9          9          9          9          9          9          9          9          9          9          9          9          9          9          9          9          9          9          9          9          9          9          9          9          9          9          9          9          9          9          9          9          9          9          9          9          9          9          9          9          9          9          9          9          9          9          9          9          9          9          9          9          9          9          9          9          9          9          9          9          9          9          9          9          9          9          9          9          9          9          9          9          9          9          9          9          9          9          9          9          9          9          9          9          9          9          9          9          9          9          9          9          9          9          9          9          9          9          9          9          9          9          9          9          9          9          9          9          9          9          9          9          9          9          9          9          9          9          9          9          9          9          9          9          9          9          9          9          9          9          9          9          9          9          9          9          9          9          9          9          9          9          9          9          9          9          9          9          9          9          9          9          9          9          9          9          9          9          9          9          9          9          9          9          9          9          9          9          9          9          9          9          9          9          9          9          9          9          9          9          9          9          9          9          9          9          9          9          9          9          9          9          9          9          9          9          9          9          9          9          9          9          9          9          9          9          9          9          9          9          9          9          9          9          9          9          9          9          9          9          9          9          9          9          9          9          9          9          9          9          9          9          9          9          9          9          9          9          9          9          9          9          9          9          9          9          9          9          9          9          9          9          9          9          9          9          9          9          9          9          9          9          9          9          9          9          9          9          9          9          9          9          9          9          9          9          9          9          9          9          9          9          9          9          9          9          9          9          9          9          9          9          9          9          9          9          9          9          9          9          9          9          9          9          9          9          9          9          9          9          9          9          9          9          9          9          9          9          9          9          9          9          9          9          9          9          9          9          9          9          9          9          9          9          9          9          9          9          9          9          9          9          9          9          9          9          9          9          9          9          9          9          9          9          9          9          9          9          9          9          9          9          9          9          9          9          9          9          9          9          9          9          9          9          9          9          9          9          9          9          9          9          9          9          9          9          9          9          9          9          9          9          9          9          9          9          9          9          9          9          9          9          9          9          9          9          9          9          9          9          9          9          9          9          9          9          9          9          9          9          9          9          9          9          9          9          9          9          9          9          9          9          9          9          9          9          9          9          9          9          9          9          9          9          9          9          9          9          9          9          9          9          9          9          9          9          9          9          9          9          9          9          9          9          9          9          9          9          9          9          9          9          9          9          9          9          9          9          9          9          9          9          9          9          9          9          9          9          9          9          9          9          9          9          9          9          9          9          9          9          9          9          9          9          9          9          9          9          9          9          9          9          9          9          9          9          9          9          9          9          9          9          9          9          9          9          9          9          9          9          9          9          9          9          9          9          9          9          9          9          9          9          9          9          9          9          9          9          9          9          9          9          9          9          9          9          9          9          9          9          9          9          9          9          9          9          9          9          9          9          9          9          9          9          9          9          9          9          9          9          9          9          9          9          9          9          9          9          9          9          9          9          9          9          9          9          9          9          9          9          9          9          9          9          9          9          9          9          9          9          9          9          9          9          9          9          9          9          9          9          9          9          9          9          9          9          9          9          9          9          9          9          9          9          9          9          9          9          9          9          9          9          9          9          9          9          9          9          9          9          9          9          9          9          9          9          9          9          9          9          9          9          9          9          9          9          9          9          9          9          9          9          9          9          9          9          9          9          9          9          9          9          9          9          9          9          9          9          9          9          9          9          9          9          9          9          9          9          9          9          9          9          9          9          9          9          9          9          9          9          9          9          9          9          9          9          9          9          9          9          9          9          9          9          9          9          9          9          9          9          9          9          9          9          9          9          9          9          9          9          9          9          9          9          9          9          9          9          9          9          9          9          9          9          9          9          9          9          9          9          9          9          9          9          9          9          9          9          9          9          9          9          9          9          9          9          9          9          9          9          9          9          9          9          9          9          9          9          9          9          9          9          9          9          9          9          9          9          9          9          9          9          9          9          9          9          9          9          9          9          9          9          9          9          9          9          9          9          9          9          9          9          9          9          9          9          9          9          9          9          9          9          9          9          9          9          9          9          9          9          9          9          9          9          9          9          9          9          9          9          9          9          9          9          9          9          9          9          9          9          9          9          9          9          9          9          9          9          9          9          9          9          9          9          9          9          9          9          9          9          9          9          9          9          9          9          9          9          9          9          9          9          9          9          9          9          9          9          9          9          9          9          9          9          9          9          9          9          9          9          9          9          9          9          9          9          9          9          9          9          9          9          9          9          9          9          9          9          9          9          9          9          9          9          9          9          9          9          9          9          9          9          9          9          9          9          9          9          9          9          9          9          9          9          9          9          9          9          9          9          9          9          9          9          9          9          9          9          9          9          9          9          9          9          9          9          9          9          9          9          9          9          9          9          9          9          9          9          9          9          9          9          9          9          9          9          9          9          9          9          9          9          9          9          9          9 </DataArray>
</Cells>
<CellData>
<DataArray type="Int32"                                    Name="material"                                                      NumberOfComponents=" 1" format="ascii">
         1          1          1          1          1          1          1          1          1          1          1          1          1          1          1          1          1          1          1          1          1          1          1          1          1          1          1          1          1          1          1          1          1          1          1          1          1          1          1          1          1          1          1          1          1          1          1          1          1          1          1          1          1          1          1          1          1          1          1          1          1          1          1          1          1          1          1          1          1          1          1          1          1          1          1          1          1          1          1          1          1          1          1          1          1          1          1          1          1          1          1          1          1          1          1          1          1          1          1          1          1          1          1          1          1          1          1          1          1          1          1          1          1          1          1          1          1          1          1          1          1          1          1          1          1          1          1          1          1          1          1          1          1          1          1          1          1          1          1          1          1          1          1          1          1          1          1          1          1          1          1          1          1          1          1          1          1          1          1          1          1          1          1          1          1          1          1          1          1          1          1          1          1          1          1          1          1          1          1          1          1          1          1          1          1          1          1          1          1          1          1          1          1          1          1          1          1          1          1          1          1          1          1          1          1          1          1          1          1          1          1          1          1          1          1          1          1          1          1          1          1          1          1          1          1          1          1          1          1          1          1          1          1          1          1          1          1          1          1          1          1          1          1          1          1          1          1          1          1          1          1          1          1          1          1          1          1          1          1          1          1          1          1          1          1          1          1          1          1          1          1          1          1          1          1          1          1          1          1          1          1          1          1          1          1          1          1          1          1          1          1          1          1          1          1          1          1          1          1          1          1          1          1          1          1          1          1          1          1          1          1          1          1          1          1          1          1          1          1          1          1          1          1          1          1          1          1          1          1          1          1          1          1          1          1          1          1          1          1          1          1          1          1          1          1          1          1          1          1          1          1          1          1          1          1          1          1          1          1          1          1          1          1          1          1          1          1          1          1          1          1          1          1          1          1          1          1          1          1          1          1          1          1          1          1          1          1          1          1          1          1          1          1          1          1          1          1          1          1          1          1          1          1          1          1          1          1          1          1          1          1          1          1          1          1          1          1          1          1          1          1          1          1          1          1          1          1          1          1          1          1          1          1          1          1          1          1          1          1          1          1          1          1          1          1          1          1          1          1          1          1          1          1          1          1          1          1          1          1          1          1          1          1          1          1          1          1          1          1          1          1          1          1          1          1          1          1          1          1          1          1          1          1          1          1          1          1          1          1          1          1          1          1          1          1          1          1          1          1          1          1          1          1          1          1          1          1          1          1          1          1          1          1          1          1          1          1          1          1          1          1          1          1          1          1          1          1          1          1          1          1          1          1          1          1          1          1          1          1          1          1          1          1          1          1          1          1          1          1          1          1          1          1          1          1          1          1          1          1          1          1          1          1          1          1          1          1          1          1          1          1          1          1          1          1          1          1          1          1          1          1          1          1          1          1          1          1          1          1          1          1          1          1          1          1          1          1          1          1          1          1          1          1          1          1          1          1          1          1          1          1          1          1          1          1          1          1          1          1          1          1          1          1          1          1          1          1          1          1          1          1          1          1          1          1          1          1          1          1          1          1          1          1          1          1          1          1          1          1          1          1          1          1          1          1          1          1          1          1          1          1          1          1          1          1          1          1          1          1          1          1          1          1          1          1          1          1          1          1          1          1          1          1          1          1          1          1          1          1          1          1          1          1          1          1          1          1          1          1          1          1          1          1          1          1          1          1          1          1          1          1          1          1          1          1          1          1          1          1          1          1          1          1          1          1          1          1          1          1          1          1          1          1          1          1          1          1          1          1          1          1          1          1          1          1          1          1          1          1          1          1          1          1          1          1          1          1          1          1          1          1          1          1          1          1          1          1          1          1          1          1          1          1          1          1          1          1          1          1          1          1          1          1          1          1          1          1          1          1          1          1          1          1          1          1          1          1          1          1          1          1          1          1          1          1          1          1          1          1          1          1          1          1          1          1          1          1          1          1          1          1          1          1          1          1          1          1          1          1          1          1          1          1          1          1          1          1          1          1          1          1          1          1          1          1          1          1          1          1          1          1          1          1          1          1          1          1          1          1          1          1          1          1          1          1          1          1          1          1          1          1          1          1          1          1          1          1          1          1          1          1          1          1          1          1          1          1          1          1          1          1          1          1          1          1          1          1          1          1          1          1          1          1          1          1          1          1          1          1          1          1          1          1          1          1          1          1          1          1          1          1          1          1          1          1          1          1          1          1          1          1          1          1          1          1          1          1          1          1          1          1          1          1          1          1          1          1          1          1          1          1          1          1          1          1          1          1          1          1          1          1          1          1          1          1          1          1          1          1          1          1          1          1          1          1          1          1          1          1          1          1          1          1          1          1          1          1          1          1          1          1          1          1          1          1          1          1          1          1          1          1          1          1          1          1          1          1          1          1          1          1          1          1          1          1          1          1          1          1          1          1          1          1          1 </DataArray>
</CellData>
<PointData>
<DataArray type="Float64"                                    Name="u"                                                      NumberOfComponents=" 3" format="ascii">
             -0.000805126              -0.000000000               0.999999984              -0.000856760               0.000000000               0.999999984              -0.000879055               0.000000000               0.999999984              -0.000891459               0.000000000               0.999999984              -0.000901220              -0.000000000               0.999999984              -0.000910960              -0.000000000               0.999999984              -0.000921651               0.000000000               0.999999984              -0.000933495              -0.000000000               0.999999984              -0.000946615               0.000000000               0.999999984              -0.000960696              -0.000000000               0.999999984              -0.000975497               0.000000000               0.999999984              -0.000990800               0.000000000               0.999999984              -0.001006078              -0.000000000               0.999999984              -0.001020859              -0.000000000               0.999999984              -0.001034474               0.000000000               0.999999984              -0.001046124               0.000000000               0.999999984              -0.001054786               0.000000000               0.999999984              -0.000800704               0.000133830               0.999999984              -0.000848272               0.000107858               0.999999984              -0.000867957               0.000096124               0.999999984              -0.000878723               0.000091565               0.999999984              -0.000887445               0.000090439               0.999999984              -0.000896402               0.000091141               0.999999984              -0.000906372               0.000092665               0.999999984              -0.000917587               0.000094598               0.999999984              -0.000930020               0.000096533               0.999999984              -0.000943406               0.000097912               0.999999984              -0.000957275               0.000098448               0.999999984              -0.000971195               0.000097773               0.999999984              -0.000984734               0.000095376               0.999999984              -0.000997354               0.000090802               0.999999984              -0.001008535               0.000083057               0.999999984              -0.001017589               0.000071386               0.999999984              -0.001023808               0.000054833               0.999999984              -0.000787417               0.000266394               0.999999984              -0.000823176               0.000215234               0.999999984              -0.000835719               0.000193028               0.999999984              -0.000842145               0.000184925               0.999999984              -0.000847975               0.000183534               0.999999984              -0.000854822               0.000185407               0.999999984              -0.000863097               0.000188950               0.999999984              -0.000872667               0.000193226               0.999999984              -0.000883179               0.000197179               0.999999984              -0.000894104               0.000199828               0.999999984              -0.000904909               0.000200605               0.999999984              -0.000915082               0.000198878               0.999999984              -0.000923950               0.000193891               0.999999984              -0.000931073               0.000184740               0.999999984              -0.000936103               0.000170319               0.999999984              -0.000938733               0.000149408               0.999999984              -0.000938780               0.000120841               0.999999984              -0.000765604               0.000396417               0.999999984              -0.000782837               0.000321734               0.999999984              -0.000784975               0.000291351               0.999999984              -0.000785481               0.000281476               0.999999984              -0.000787593               0.000281013               0.999999984              -0.000791776               0.000285038               0.999999984              -0.000797769               0.000291286               0.999999984              -0.000804936               0.000298157               0.999999984              -0.000812562               0.000304025               0.999999984              -0.000819782               0.000307550               0.999999984              -0.000825746               0.000308129               0.999999984              -0.000829835               0.000304948               0.999999984              -0.000831646               0.000297213               0.999999984              -0.000830835               0.000284194               0.999999984              -0.000827310               0.000264825               0.999999984              -0.000821339               0.000238418               0.999999984              -0.000813187               0.000204263               0.999999984              -0.000735788               0.000522750               0.999999984              -0.000729415               0.000427122               0.999999984              -0.000719847               0.000391397               0.999999984              -0.000714440               0.000381762               0.999999984              -0.000713219               0.000383413               0.999999984              -0.000714980               0.000390426               0.999999984              -0.000718732               0.000399526               0.999999984              -0.000723108               0.000408809               0.999999984              -0.000726814               0.000416237               0.999999984              -0.000728937               0.000420164               0.999999984              -0.000728673               0.000419952               0.999999984              -0.000725546               0.000414970               0.999999984              -0.000719268               0.000404643               0.999999984              -0.000709798               0.000388474               0.999999984              -0.000697405               0.000366072               0.999999984              -0.000682509               0.000337479               0.999999984              -0.000665773               0.000303067               0.999999984              -0.000698426               0.000644326               0.999999984              -0.000665481               0.000531508               0.999999984              -0.000645192               0.000493180               0.999999984              -0.000635272               0.000485246               0.999999984              -0.000631809               0.000489933               0.999999984              -0.000632015               0.000500042               0.999999984              -0.000633583               0.000511798               0.999999984              -0.000634650               0.000523000               0.999999984              -0.000633907               0.000531163               0.999999984              -0.000630216               0.000534827               0.999999984              -0.000623060               0.000533429               0.999999984              -0.000612125               0.000526545               0.999999984              -0.000597372               0.000513942               0.999999984              -0.000579095               0.000495603               0.999999984              -0.000557768               0.000471619               0.999999984              -0.000534046               0.000442934               0.999999984              -0.000508705               0.000410671               0.999999984              -0.000654385               0.000759886               0.999999984              -0.000594270               0.000634824               0.999999984              -0.000565682               0.000596371               0.999999984              -0.000553635               0.000590859               0.999999984              -0.000549612               0.000598619               0.999999984              -0.000548879               0.000611563               0.999999984              -0.000548400               0.000625328               0.999999984              -0.000546072               0.000637509               0.999999984              -0.000540265               0.000645699               0.999999984              -0.000530114               0.000648532               0.999999984              -0.000515216               0.000645789               0.999999984              -0.000495653               0.000637227               0.999999984              -0.000471665               0.000623160               0.999999984              -0.000443845               0.000603811               0.999999984              -0.000413005               0.000579885               0.999999984              -0.000380036               0.000552802               0.999999984              -0.000345772               0.000523837               0.999999984              -0.000604352               0.000868311               0.999999984              -0.000519137               0.000736865               0.999999984              -0.000486010               0.000699831               0.999999984              -0.000474470               0.000696812               0.999999984              -0.000471141               0.000707177               0.999999984              -0.000470013               0.000722124               0.999999984              -0.000467439               0.000737018               0.999999984              -0.000461073               0.000749543               0.999999984              -0.000449410               0.000757183               0.999999984              -0.000431869               0.000758948               0.999999984              -0.000408188               0.000755023               0.999999984              -0.000378888               0.000745378               0.999999984              -0.000344663               0.000730508               0.999999984              -0.000306593               0.000711374               0.999999984              -0.000265707               0.000688985               0.999999984              -0.000223151               0.000664687               0.999999984              -0.000179798               0.000639666               0.999999984              -0.000550033               0.000967538               0.999999984              -0.000442801               0.000837521               0.999999984              -0.000410278               0.000802096               0.999999984              -0.000401115               0.000800825               0.999999984              -0.000399220               0.000813057               0.999999984              -0.000397584               0.000829418               0.999999984              -0.000392302               0.000845078               0.999999984              -0.000381241               0.000857308               0.999999984              -0.000362868               0.000864050               0.999999984              -0.000336586               0.000864798               0.999999984              -0.000302843               0.000859839               0.999999984              -0.000262613               0.000849536               0.999999984              -0.000217215               0.000834824               0.999999984              -0.000168168               0.000817034               0.999999984              -0.000116919               0.000797364               0.999999984              -0.000064752               0.000776928               0.999999984              -0.000012466               0.000756397               0.999999984              -0.000493875               0.001061280               0.999999984              -0.000379048               0.000949836               0.999999984              -0.000343621               0.000910229               0.999999984              -0.000333474               0.000903400               0.999999984              -0.000331462               0.000911373               0.999999984              -0.000330442               0.000925667               0.999999984              -0.000326951               0.000941313               0.999999984              -0.000318930               0.000955638               0.999999984              -0.000304634               0.000966811               0.999999984              -0.000283093               0.000973705               0.999999984              -0.000254216               0.000976132               0.999999984              -0.000218431               0.000974216               0.999999984              -0.000176496               0.000968392               0.999999984              -0.000129707               0.000959479               0.999999984              -0.000079466               0.000948396               0.999999984              -0.000027097               0.000936229               0.999999984               0.000025948               0.000923626               0.999999984              -0.000432314               0.001146663               0.999999984              -0.000318090               0.001058471               0.999999984              -0.000279940               0.001021096               0.999999984              -0.000267975               0.001011239               0.999999984              -0.000265174               0.001016186               0.999999984              -0.000264256               0.001028641               0.999999984              -0.000261856               0.001044379               0.999999984              -0.000256044               0.001060595               0.999999984              -0.000245242               0.001075345               0.999999984              -0.000228187               0.001087390               0.999999984              -0.000204195               0.001096195               0.999999984              -0.000173302               0.001101559               0.999999984              -0.000135511               0.001103624               0.999999984              -0.000091735               0.001102773               0.999999984              -0.000043216               0.001099728               0.999999984               0.000008845               0.001095437               0.999999984               0.000062773               0.001090515               0.999999984              -0.000366723               0.001221497               0.999999984              -0.000259973               0.001160008               0.999999984              -0.000220876               0.001129588               0.999999984              -0.000207076               0.001120196               0.999999984              -0.000203000               0.001123990               0.999999984              -0.000201607               0.001135586               0.999999984              -0.000199723               0.001151630               0.999999984              -0.000195488               0.001169654               0.999999984              -0.000187363               0.001187762               0.999999984              -0.000174061               0.001204609               0.999999984              -0.000154734               0.001219281               0.999999984              -0.000128791               0.001231320               0.999999984              -0.000096061               0.001240602               0.999999984              -0.000056442               0.001247205               0.999999984              -0.000010626               0.001251651               0.999999984               0.000040422               0.001254561               0.999999984               0.000095378               0.001256783               0.999999984              -0.000297742               0.001284414               0.999999984              -0.000204615               0.001250329               0.999999984              -0.000167338               0.001230213               0.999999984              -0.000152662               0.001224402               0.999999984              -0.000147335               0.001229316               0.999999984              -0.000145245               0.001241635               0.999999984              -0.000143348               0.001258718               0.999999984              -0.000140083               0.001278603               0.999999984              -0.000133952               0.001299838               0.999999984              -0.000123829               0.001321090               0.999999984              -0.000108840               0.001341379               0.999999984              -0.000088022               0.001359931               0.999999984              -0.000060858               0.001376357               0.999999984              -0.000026752               0.001390486               0.999999984               0.000014845               0.001402530               0.999999984               0.000063650               0.001412733               0.999999984               0.000118990               0.001421962               0.999999984              -0.000225930               0.001334366               0.999999984              -0.000151616               0.001325367               0.999999984              -0.000119471               0.001317002               0.999999984              -0.000105557               0.001316847               0.999999984              -0.000099717               0.001324767               0.999999984              -0.000097189               0.001339121               0.999999984              -0.000095272               0.001358134               0.999999984              -0.000092488               0.001380358               0.999999984              -0.000087854               0.001404702               0.999999984              -0.000080500               0.001430156               0.999999984              -0.000069456               0.001455772               0.999999984              -0.000053777               0.001480641               0.999999984              -0.000032770               0.001504206               0.999999984              -0.000005283               0.001526042               0.999999984               0.000029734               0.001546011               0.999999984               0.000073171               0.001564076               0.999999984               0.000125882               0.001580575               0.999999984              -0.000151898               0.001370631               0.999999984              -0.000100294               0.001381630               0.999999984              -0.000076551               0.001384192               0.999999984              -0.000065532               0.001390096               0.999999984              -0.000060524               0.001401727               0.999999984              -0.000058169               0.001418777               0.999999984              -0.000056403               0.001440265               0.999999984              -0.000054225               0.001465124               0.999999984              -0.000050986               0.001492486               0.999999984              -0.000046042               0.001521647               0.999999984              -0.000038726               0.001551812               0.999999984              -0.000028280               0.001582323               0.999999984              -0.000013670               0.001612526               0.999999984               0.000006021               0.001641843               0.999999984               0.000031826               0.001669869               0.999999984               0.000065193               0.001696128               0.999999984               0.000108255               0.001720098               0.999999984              -0.000076339               0.001392686               0.999999984              -0.000049939               0.001416492               0.999999984              -0.000037291               0.001426742               0.999999984              -0.000031197               0.001437354               0.999999984              -0.000028335               0.001452057               0.999999984              -0.000026789               0.001471492               0.999999984              -0.000025702               0.001495122               0.999999984              -0.000024545               0.001522178               0.999999984              -0.000022819               0.001551937               0.999999984              -0.000020212               0.001583788               0.999999984              -0.000016533               0.001617271               0.999999984              -0.000011229               0.001651787               0.999999984              -0.000003642               0.001686674               0.999999984               0.000006749               0.001721401               0.999999984               0.000020518               0.001755362               0.999999984               0.000038721               0.001787812               0.999999984               0.000063140               0.001817690               0.999999984               0.000000000               0.001400100               0.999999984               0.000000000               0.001428321               0.999999984              -0.000000000               0.001441302               0.999999984               0.000000000               0.001453637               0.999999984              -0.000000000               0.001469559               0.999999984               0.000000000               0.001489933               0.999999984               0.000000000               0.001514361               0.999999984               0.000000000               0.001542236               0.999999984              -0.000000000               0.001572972               0.999999984              -0.000000000               0.001605961               0.999999984              -0.000000000               0.001640673               0.999999984               0.000000000               0.001676690               0.999999984               0.000000000               0.001713300               0.999999984              -0.000000000               0.001749874               0.999999984               0.000000000               0.001785853               0.999999984               0.000000000               0.001820540               0.999999984              -0.000000000               0.001852737               0.999999984              -0.000805126              -0.000000000               0.999999984              -0.000856760               0.000000000               0.999999984              -0.000879055               0.000000000               0.999999984              -0.000891459               0.000000000               0.999999984              -0.000901220              -0.000000000               0.999999984              -0.000910960              -0.000000000               0.999999984              -0.000921651               0.000000000               0.999999984              -0.000933495              -0.000000000               0.999999984              -0.000946615               0.000000000               0.999999984              -0.000960696              -0.000000000               0.999999984              -0.000975497               0.000000000               0.999999984              -0.000990800               0.000000000               0.999999984              -0.001006078              -0.000000000               0.999999984              -0.001020859              -0.000000000               0.999999984              -0.001034474               0.000000000               0.999999984              -0.001046124               0.000000000               0.999999984              -0.001054786               0.000000000               0.999999984              -0.000800704              -0.000133830               0.999999984              -0.000848272              -0.000107858               0.999999984              -0.000867957              -0.000096124               0.999999984              -0.000878723              -0.000091565               0.999999984              -0.000887445              -0.000090439               0.999999984              -0.000896402              -0.000091141               0.999999984              -0.000906372              -0.000092665               0.999999984              -0.000917587              -0.000094598               0.999999984              -0.000930020              -0.000096533               0.999999984              -0.000943406              -0.000097912               0.999999984              -0.000957275              -0.000098448               0.999999984              -0.000971195              -0.000097773               0.999999984              -0.000984734              -0.000095376               0.999999984              -0.000997354              -0.000090802               0.999999984              -0.001008535              -0.000083057               0.999999984              -0.001017589              -0.000071386               0.999999984              -0.001023808              -0.000054833               0.999999984              -0.000787417              -0.000266394               0.999999984              -0.000823176              -0.000215234               0.999999984              -0.000835719              -0.000193028               0.999999984              -0.000842145              -0.000184925               0.999999984              -0.000847975              -0.000183534               0.999999984              -0.000854822              -0.000185407               0.999999984              -0.000863097              -0.000188950               0.999999984              -0.000872667              -0.000193226               0.999999984              -0.000883179              -0.000197179               0.999999984              -0.000894104              -0.000199828               0.999999984              -0.000904909              -0.000200605               0.999999984              -0.000915082              -0.000198878               0.999999984              -0.000923950              -0.000193891               0.999999984              -0.000931073              -0.000184740               0.999999984              -0.000936103              -0.000170319               0.999999984              -0.000938733              -0.000149408               0.999999984              -0.000938780              -0.000120841               0.999999984              -0.000765604              -0.000396417               0.999999984              -0.000782837              -0.000321734               0.999999984              -0.000784975              -0.000291351               0.999999984              -0.000785481              -0.000281476               0.999999984              -0.000787593              -0.000281013               0.999999984              -0.000791776              -0.000285038               0.999999984              -0.000797769              -0.000291286               0.999999984              -0.000804936              -0.000298157               0.999999984              -0.000812562              -0.000304025               0.999999984              -0.000819782              -0.000307550               0.999999984              -0.000825746              -0.000308129               0.999999984              -0.000829835              -0.000304948               0.999999984              -0.000831646              -0.000297213               0.999999984              -0.000830835              -0.000284194               0.999999984              -0.000827310              -0.000264825               0.999999984              -0.000821339              -0.000238418               0.999999984              -0.000813187              -0.000204263               0.999999984              -0.000735788              -0.000522750               0.999999984              -0.000729415              -0.000427122               0.999999984              -0.000719847              -0.000391397               0.999999984              -0.000714440              -0.000381762               0.999999984              -0.000713219              -0.000383413               0.999999984              -0.000714980              -0.000390426               0.999999984              -0.000718732              -0.000399526               0.999999984              -0.000723108              -0.000408809               0.999999984              -0.000726814              -0.000416237               0.999999984              -0.000728937              -0.000420164               0.999999984              -0.000728673              -0.000419952               0.999999984              -0.000725546              -0.000414970               0.999999984              -0.000719268              -0.000404643               0.999999984              -0.000709798              -0.000388474               0.999999984              -0.000697405              -0.000366072               0.999999984              -0.000682509              -0.000337479               0.999999984              -0.000665773              -0.000303067               0.999999984              -0.000698426              -0.000644326               0.999999984              -0.000665481              -0.000531508               0.999999984              -0.000645192              -0.000493180               0.999999984              -0.000635272              -0.000485246               0.999999984              -0.000631809              -0.000489933               0.999999984              -0.000632015              -0.000500042               0.999999984              -0.000633583              -0.000511798               0.999999984              -0.000634650              -0.000523000               0.999999984              -0.000633907              -0.000531163               0.999999984              -0.000630216              -0.000534827               0.999999984              -0.000623060              -0.000533429               0.999999984              -0.000612125              -0.000526545               0.999999984              -0.000597372              -0.000513942               0.999999984              -0.000579095              -0.000495603               0.999999984              -0.000557768              -0.000471619               0.999999984              -0.000534046              -0.000442934               0.999999984              -0.000508705              -0.000410671               0.999999984              -0.000654385              -0.000759886               0.999999984              -0.000594270              -0.000634824               0.999999984              -0.000565682              -0.000596371               0.999999984              -0.000553635              -0.000590859               0.999999984              -0.000549612              -0.000598619               0.999999984              -0.000548879              -0.000611563               0.999999984              -0.000548400              -0.000625328               0.999999984              -0.000546072              -0.000637509               0.999999984              -0.000540265              -0.000645699               0.999999984              -0.000530114              -0.000648532               0.999999984              -0.000515216              -0.000645789               0.999999984              -0.000495653              -0.000637227               0.999999984              -0.000471665              -0.000623160               0.999999984              -0.000443845              -0.000603811               0.999999984              -0.000413005              -0.000579885               0.999999984              -0.000380036              -0.000552802               0.999999984              -0.000345772              -0.000523837               0.999999984              -0.000604352              -0.000868311               0.999999984              -0.000519137              -0.000736865               0.999999984              -0.000486010              -0.000699831               0.999999984              -0.000474470              -0.000696812               0.999999984              -0.000471141              -0.000707177               0.999999984              -0.000470013              -0.000722124               0.999999984              -0.000467439              -0.000737018               0.999999984              -0.000461073              -0.000749543               0.999999984              -0.000449410              -0.000757183               0.999999984              -0.000431869              -0.000758948               0.999999984              -0.000408188              -0.000755023               0.999999984              -0.000378888              -0.000745378               0.999999984              -0.000344663              -0.000730508               0.999999984              -0.000306593              -0.000711374               0.999999984              -0.000265707              -0.000688985               0.999999984              -0.000223151              -0.000664687               0.999999984              -0.000179798              -0.000639666               0.999999984              -0.000550033              -0.000967538               0.999999984              -0.000442801              -0.000837521               0.999999984              -0.000410278              -0.000802096               0.999999984              -0.000401115              -0.000800825               0.999999984              -0.000399220              -0.000813057               0.999999984              -0.000397584              -0.000829418               0.999999984              -0.000392302              -0.000845078               0.999999984              -0.000381241              -0.000857308               0.999999984              -0.000362868              -0.000864050               0.999999984              -0.000336586              -0.000864798               0.999999984              -0.000302843              -0.000859839               0.999999984              -0.000262613              -0.000849536               0.999999984              -0.000217215              -0.000834824               0.999999984              -0.000168168              -0.000817034               0.999999984              -0.000116919              -0.000797364               0.999999984              -0.000064752              -0.000776928               0.999999984              -0.000012466              -0.000756397               0.999999984              -0.000493875              -0.001061280               0.999999984              -0.000379048              -0.000949836               0.999999984              -0.000343621              -0.000910229               0.999999984              -0.000333474              -0.000903400               0.999999984              -0.000331462              -0.000911373               0.999999984              -0.000330442              -0.000925667               0.999999984              -0.000326951              -0.000941313               0.999999984              -0.000318930              -0.000955638               0.999999984              -0.000304634              -0.000966811               0.999999984              -0.000283093              -0.000973705               0.999999984              -0.000254216              -0.000976132               0.999999984              -0.000218431              -0.000974216               0.999999984              -0.000176496              -0.000968392               0.999999984              -0.000129707              -0.000959479               0.999999984              -0.000079466              -0.000948396               0.999999984              -0.000027097              -0.000936229               0.999999984               0.000025948              -0.000923626               0.999999984              -0.000432314              -0.001146663               0.999999984              -0.000318090              -0.001058471               0.999999984              -0.000279940              -0.001021096               0.999999984              -0.000267975              -0.001011239               0.999999984              -0.000265174              -0.001016186               0.999999984              -0.000264256              -0.001028641               0.999999984              -0.000261856              -0.001044379               0.999999984              -0.000256044              -0.001060595               0.999999984              -0.000245242              -0.001075345               0.999999984              -0.000228187              -0.001087390               0.999999984              -0.000204195              -0.001096195               0.999999984              -0.000173302              -0.001101559               0.999999984              -0.000135511              -0.001103624               0.999999984              -0.000091735              -0.001102773               0.999999984              -0.000043216              -0.001099728               0.999999984               0.000008845              -0.001095437               0.999999984               0.000062773              -0.001090515               0.999999984              -0.000366723              -0.001221497               0.999999984              -0.000259973              -0.001160008               0.999999984              -0.000220876              -0.001129588               0.999999984              -0.000207076              -0.001120196               0.999999984              -0.000203000              -0.001123990               0.999999984              -0.000201607              -0.001135586               0.999999984              -0.000199723              -0.001151630               0.999999984              -0.000195488              -0.001169654               0.999999984              -0.000187363              -0.001187762               0.999999984              -0.000174061              -0.001204609               0.999999984              -0.000154734              -0.001219281               0.999999984              -0.000128791              -0.001231320               0.999999984              -0.000096061              -0.001240602               0.999999984              -0.000056442              -0.001247205               0.999999984              -0.000010626              -0.001251651               0.999999984               0.000040422              -0.001254561               0.999999984               0.000095378              -0.001256783               0.999999984              -0.000297742              -0.001284414               0.999999984              -0.000204615              -0.001250329               0.999999984              -0.000167338              -0.001230213               0.999999984              -0.000152662              -0.001224402               0.999999984              -0.000147335              -0.001229316               0.999999984              -0.000145245              -0.001241635               0.999999984              -0.000143348              -0.001258718               0.999999984              -0.000140083              -0.001278603               0.999999984              -0.000133952              -0.001299838               0.999999984              -0.000123829              -0.001321090               0.999999984              -0.000108840              -0.001341379               0.999999984              -0.000088022              -0.001359931               0.999999984              -0.000060858              -0.001376357               0.999999984              -0.000026752              -0.001390486               0.999999984               0.000014845              -0.001402530               0.999999984               0.000063650              -0.001412733               0.999999984               0.000118990              -0.001421962               0.999999984              -0.000225930              -0.001334366               0.999999984              -0.000151616              -0.001325367               0.999999984              -0.000119471              -0.001317002               0.999999984              -0.000105557              -0.001316847               0.999999984              -0.000099717              -0.001324767               0.999999984              -0.000097189              -0.001339121               0.999999984              -0.000095272              -0.001358134               0.999999984              -0.000092488              -0.001380358               0.999999984              -0.000087854              -0.001404702               0.999999984              -0.000080500              -0.001430156               0.999999984              -0.000069456              -0.001455772               0.999999984              -0.000053777              -0.001480641               0.999999984              -0.000032770              -0.001504206               0.999999984              -0.000005283              -0.001526042               0.999999984               0.000029734              -0.001546011               0.999999984               0.000073171              -0.001564076               0.999999984               0.000125882              -0.001580575               0.999999984              -0.000151898              -0.001370631               0.999999984              -0.000100294              -0.001381630               0.999999984              -0.000076551              -0.001384192               0.999999984              -0.000065532              -0.001390096               0.999999984              -0.000060524              -0.001401727               0.999999984              -0.000058169              -0.001418777               0.999999984              -0.000056403              -0.001440265               0.999999984              -0.000054225              -0.001465124               0.999999984              -0.000050986              -0.001492486               0.999999984              -0.000046042              -0.001521647               0.999999984              -0.000038726              -0.001551812               0.999999984              -0.000028280              -0.001582323               0.999999984              -0.000013670              -0.001612526               0.999999984               0.000006021              -0.001641843               0.999999984               0.000031826              -0.001669869               0.999999984               0.000065193              -0.001696128               0.999999984               0.000108255              -0.001720098               0.999999984              -0.000076339              -0.001392686               0.999999984              -0.000049939              -0.001416492               0.999999984              -0.000037291              -0.001426742               0.999999984              -0.000031197              -0.001437354               0.999999984              -0.000028335              -0.001452057               0.999999984              -0.000026789              -0.001471492               0.999999984              -0.000025702              -0.001495122               0.999999984              -0.000024545              -0.001522178               0.999999984              -0.000022819              -0.001551937               0.999999984              -0.000020212              -0.001583788               0.999999984              -0.000016533              -0.001617271               0.999999984              -0.000011229              -0.001651787               0.999999984              -0.000003642              -0.001686674               0.999999984               0.000006749              -0.001721401               0.999999984               0.000020518              -0.001755362               0.999999984               0.000038721              -0.001787812               0.999999984               0.000063140              -0.001817690               0.999999984               0.000000000              -0.001400100               0.999999984              -0.000000000              -0.001428321               0.999999984              -0.000000000              -0.001441302               0.999999984               0.000000000              -0.001453637               0.999999984              -0.000000000              -0.001469559               0.999999984               0.000000000              -0.001489933               0.999999984              -0.000000000              -0.001514361               0.999999984               0.000000000              -0.001542236               0.999999984              -0.000000000              -0.001572972               0.999999984              -0.000000000              -0.001605961               0.999999984               0.000000000              -0.001640673               0.999999984              -0.000000000              -0.001676690               0.999999984               0.000000000              -0.001713300               0.999999984               0.000000000              -0.001749874               0.999999984              -0.000000000              -0.001785853               0.999999984              -0.000000000              -0.001820540               0.999999984              -0.000000000              -0.001852737               0.999999984               0.000805126              -0.000000000               0.999999984               0.000856760              -0.000000000               0.999999984               0.000879055              -0.000000000               0.999999984               0.000891459               0.000000000               0.999999984               0.000901220              -0.000000000               0.999999984               0.000910960              -0.000000000               0.999999984               0.000921651              -0.000000000               0.999999984               0.000933495               0.000000000               0.999999984               0.000946615               0.000000000               0.999999984               0.000960696               0.000000000               0.999999984               0.000975497               0.000000000               0.999999984               0.000990800              -0.000000000               0.999999984               0.001006078              -0.000000000               0.999999984               0.001020859              -0.000000000               0.999999984               0.001034474               0.000000000               0.999999984               0.001046124               0.000000000               0.999999984               0.001054786               0.000000000               0.999999984               0.000800704              -0.000133830               0.999999984               0.000848272              -0.000107858               0.999999984               0.000867957              -0.000096124               0.999999984               0.000878723              -0.000091565               0.999999984               0.000887445              -0.000090439               0.999999984               0.000896402              -0.000091141               0.999999984               0.000906372              -0.000092665               0.999999984               0.000917587              -0.000094598               0.999999984               0.000930020              -0.000096533               0.999999984               0.000943406              -0.000097912               0.999999984               0.000957275              -0.000098448               0.999999984               0.000971195              -0.000097773               0.999999984               0.000984734              -0.000095376               0.999999984               0.000997354              -0.000090802               0.999999984               0.001008535              -0.000083057               0.999999984               0.001017589              -0.000071386               0.999999984               0.001023808              -0.000054833               0.999999984               0.000787417              -0.000266394               0.999999984               0.000823176              -0.000215234               0.999999984               0.000835719              -0.000193028               0.999999984               0.000842145              -0.000184925               0.999999984               0.000847975              -0.000183534               0.999999984               0.000854822              -0.000185407               0.999999984               0.000863097              -0.000188950               0.999999984               0.000872667              -0.000193226               0.999999984               0.000883179              -0.000197179               0.999999984               0.000894104              -0.000199828               0.999999984               0.000904909              -0.000200605               0.999999984               0.000915082              -0.000198878               0.999999984               0.000923950              -0.000193891               0.999999984               0.000931073              -0.000184740               0.999999984               0.000936103              -0.000170319               0.999999984               0.000938733              -0.000149408               0.999999984               0.000938780              -0.000120841               0.999999984               0.000765604              -0.000396417               0.999999984               0.000782837              -0.000321734               0.999999984               0.000784975              -0.000291351               0.999999984               0.000785481              -0.000281476               0.999999984               0.000787593              -0.000281013               0.999999984               0.000791776              -0.000285038               0.999999984               0.000797769              -0.000291286               0.999999984               0.000804936              -0.000298157               0.999999984               0.000812562              -0.000304025               0.999999984               0.000819782              -0.000307550               0.999999984               0.000825746              -0.000308129               0.999999984               0.000829835              -0.000304948               0.999999984               0.000831646              -0.000297213               0.999999984               0.000830835              -0.000284194               0.999999984               0.000827310              -0.000264825               0.999999984               0.000821339              -0.000238418               0.999999984               0.000813187              -0.000204263               0.999999984               0.000735788              -0.000522750               0.999999984               0.000729415              -0.000427122               0.999999984               0.000719847              -0.000391397               0.999999984               0.000714440              -0.000381762               0.999999984               0.000713219              -0.000383413               0.999999984               0.000714980              -0.000390426               0.999999984               0.000718732              -0.000399526               0.999999984               0.000723108              -0.000408809               0.999999984               0.000726814              -0.000416237               0.999999984               0.000728937              -0.000420164               0.999999984               0.000728673              -0.000419952               0.999999984               0.000725546              -0.000414970               0.999999984               0.000719268              -0.000404643               0.999999984               0.000709798              -0.000388474               0.999999984               0.000697405              -0.000366072               0.999999984               0.000682509              -0.000337479               0.999999984               0.000665773              -0.000303067               0.999999984               0.000698426              -0.000644326               0.999999984               0.000665481              -0.000531508               0.999999984               0.000645192              -0.000493180               0.999999984               0.000635272              -0.000485246               0.999999984               0.000631809              -0.000489933               0.999999984               0.000632015              -0.000500042               0.999999984               0.000633583              -0.000511798               0.999999984               0.000634650              -0.000523000               0.999999984               0.000633907              -0.000531163               0.999999984               0.000630216              -0.000534827               0.999999984               0.000623060              -0.000533429               0.999999984               0.000612125              -0.000526545               0.999999984               0.000597372              -0.000513942               0.999999984               0.000579095              -0.000495603               0.999999984               0.000557768              -0.000471619               0.999999984               0.000534046              -0.000442934               0.999999984               0.000508705              -0.000410671               0.999999984               0.000654385              -0.000759886               0.999999984               0.000594270              -0.000634824               0.999999984               0.000565682              -0.000596371               0.999999984               0.000553635              -0.000590859               0.999999984               0.000549612              -0.000598619               0.999999984               0.000548879              -0.000611563               0.999999984               0.000548400              -0.000625328               0.999999984               0.000546072              -0.000637509               0.999999984               0.000540265              -0.000645699               0.999999984               0.000530114              -0.000648532               0.999999984               0.000515216              -0.000645789               0.999999984               0.000495653              -0.000637227               0.999999984               0.000471665              -0.000623160               0.999999984               0.000443845              -0.000603811               0.999999984               0.000413005              -0.000579885               0.999999984               0.000380036              -0.000552802               0.999999984               0.000345772              -0.000523837               0.999999984               0.000604352              -0.000868311               0.999999984               0.000519137              -0.000736865               0.999999984               0.000486010              -0.000699831               0.999999984               0.000474470              -0.000696812               0.999999984               0.000471141              -0.000707177               0.999999984               0.000470013              -0.000722124               0.999999984               0.000467439              -0.000737018               0.999999984               0.000461073              -0.000749543               0.999999984               0.000449410              -0.000757183               0.999999984               0.000431869              -0.000758948               0.999999984               0.000408188              -0.000755023               0.999999984               0.000378888              -0.000745378               0.999999984               0.000344663              -0.000730508               0.999999984               0.000306593              -0.000711374               0.999999984               0.000265707              -0.000688985               0.999999984               0.000223151              -0.000664687               0.999999984               0.000179798              -0.000639666               0.999999984               0.000550033              -0.000967538               0.999999984               0.000442801              -0.000837521               0.999999984               0.000410278              -0.000802096               0.999999984               0.000401115              -0.000800825               0.999999984               0.000399220              -0.000813057               0.999999984               0.000397584              -0.000829418               0.999999984               0.000392302              -0.000845078               0.999999984               0.000381241              -0.000857308               0.999999984               0.000362868              -0.000864050               0.999999984               0.000336586              -0.000864798               0.999999984               0.000302843              -0.000859839               0.999999984               0.000262613              -0.000849536               0.999999984               0.000217215              -0.000834824               0.999999984               0.000168168              -0.000817034               0.999999984               0.000116919              -0.000797364               0.999999984               0.000064752              -0.000776928               0.999999984               0.000012466              -0.000756397               0.999999984               0.000493875              -0.001061280               0.999999984               0.000379048              -0.000949836               0.999999984               0.000343621              -0.000910229               0.999999984               0.000333474              -0.000903400               0.999999984               0.000331462              -0.000911373               0.999999984               0.000330442              -0.000925667               0.999999984               0.000326951              -0.000941313               0.999999984               0.000318930              -0.000955638               0.999999984               0.000304634              -0.000966811               0.999999984               0.000283093              -0.000973705               0.999999984               0.000254216              -0.000976132               0.999999984               0.000218431              -0.000974216               0.999999984               0.000176496              -0.000968392               0.999999984               0.000129707              -0.000959479               0.999999984               0.000079466              -0.000948396               0.999999984               0.000027097              -0.000936229               0.999999984              -0.000025948              -0.000923626               0.999999984               0.000432314              -0.001146663               0.999999984               0.000318090              -0.001058471               0.999999984               0.000279940              -0.001021096               0.999999984               0.000267975              -0.001011239               0.999999984               0.000265174              -0.001016186               0.999999984               0.000264256              -0.001028641               0.999999984               0.000261856              -0.001044379               0.999999984               0.000256044              -0.001060595               0.999999984               0.000245242              -0.001075345               0.999999984               0.000228187              -0.001087390               0.999999984               0.000204195              -0.001096195               0.999999984               0.000173302              -0.001101559               0.999999984               0.000135511              -0.001103624               0.999999984               0.000091735              -0.001102773               0.999999984               0.000043216              -0.001099728               0.999999984              -0.000008845              -0.001095437               0.999999984              -0.000062773              -0.001090515               0.999999984               0.000366723              -0.001221497               0.999999984               0.000259973              -0.001160008               0.999999984               0.000220876              -0.001129588               0.999999984               0.000207076              -0.001120196               0.999999984               0.000203000              -0.001123990               0.999999984               0.000201607              -0.001135586               0.999999984               0.000199723              -0.001151630               0.999999984               0.000195488              -0.001169654               0.999999984               0.000187363              -0.001187762               0.999999984               0.000174061              -0.001204609               0.999999984               0.000154734              -0.001219281               0.999999984               0.000128791              -0.001231320               0.999999984               0.000096061              -0.001240602               0.999999984               0.000056442              -0.001247205               0.999999984               0.000010626              -0.001251651               0.999999984              -0.000040422              -0.001254561               0.999999984              -0.000095378              -0.001256783               0.999999984               0.000297742              -0.001284414               0.999999984               0.000204615              -0.001250329               0.999999984               0.000167338              -0.001230213               0.999999984               0.000152662              -0.001224402               0.999999984               0.000147335              -0.001229316               0.999999984               0.000145245              -0.001241635               0.999999984               0.000143348              -0.001258718               0.999999984               0.000140083              -0.001278603               0.999999984               0.000133952              -0.001299838               0.999999984               0.000123829              -0.001321090               0.999999984               0.000108840              -0.001341379               0.999999984               0.000088022              -0.001359931               0.999999984               0.000060858              -0.001376357               0.999999984               0.000026752              -0.001390486               0.999999984              -0.000014845              -0.001402530               0.999999984              -0.000063650              -0.001412733               0.999999984              -0.000118990              -0.001421962               0.999999984               0.000225930              -0.001334366               0.999999984               0.000151616              -0.001325367               0.999999984               0.000119471              -0.001317002               0.999999984               0.000105557              -0.001316847               0.999999984               0.000099717              -0.001324767               0.999999984               0.000097189              -0.001339121               0.999999984               0.000095272              -0.001358134               0.999999984               0.000092488              -0.001380358               0.999999984               0.000087854              -0.001404702               0.999999984               0.000080500              -0.001430156               0.999999984               0.000069456              -0.001455772               0.999999984               0.000053777              -0.001480641               0.999999984               0.000032770              -0.001504206               0.999999984               0.000005283              -0.001526042               0.999999984              -0.000029734              -0.001546011               0.999999984              -0.000073171              -0.001564076               0.999999984              -0.000125882              -0.001580575               0.999999984               0.000151898              -0.001370631               0.999999984               0.000100294              -0.001381630               0.999999984               0.000076551              -0.001384192               0.999999984               0.000065532              -0.001390096               0.999999984               0.000060524              -0.001401727               0.999999984               0.000058169              -0.001418777               0.999999984               0.000056403              -0.001440265               0.999999984               0.000054225              -0.001465124               0.999999984               0.000050986              -0.001492486               0.999999984               0.000046042              -0.001521647               0.999999984               0.000038726              -0.001551812               0.999999984               0.000028280              -0.001582323               0.999999984               0.000013670              -0.001612526               0.999999984              -0.000006021              -0.001641843               0.999999984              -0.000031826              -0.001669869               0.999999984              -0.000065193              -0.001696128               0.999999984              -0.000108255              -0.001720098               0.999999984               0.000076339              -0.001392686               0.999999984               0.000049939              -0.001416492               0.999999984               0.000037291              -0.001426742               0.999999984               0.000031197              -0.001437354               0.999999984               0.000028335              -0.001452057               0.999999984               0.000026789              -0.001471492               0.999999984               0.000025702              -0.001495122               0.999999984               0.000024545              -0.001522178               0.999999984               0.000022819              -0.001551937               0.999999984               0.000020212              -0.001583788               0.999999984               0.000016533              -0.001617271               0.999999984               0.000011229              -0.001651787               0.999999984               0.000003642              -0.001686674               0.999999984              -0.000006749              -0.001721401               0.999999984              -0.000020518              -0.001755362               0.999999984              -0.000038721              -0.001787812               0.999999984              -0.000063140              -0.001817690               0.999999984               0.000000000              -0.001400100               0.999999984              -0.000000000              -0.001428321               0.999999984              -0.000000000              -0.001441302               0.999999984               0.000000000              -0.001453637               0.999999984              -0.000000000              -0.001469559               0.999999984               0.000000000              -0.001489933               0.999999984              -0.000000000              -0.001514361               0.999999984               0.000000000              -0.001542236               0.999999984              -0.000000000              -0.001572972               0.999999984              -0.000000000              -0.001605961               0.999999984               0.000000000              -0.001640673               0.999999984              -0.000000000              -0.001676690               0.999999984               0.000000000              -0.001713300               0.999999984               0.000000000              -0.001749874               0.999999984              -0.000000000              -0.001785853               0.999999984              -0.000000000              -0.001820540               0.999999984              -0.000000000              -0.001852737               0.999999984               0.000805126              -0.000000000               0.999999984               0.000856760              -0.000000000               0.999999984               0.000879055              -0.000000000               0.999999984               0.000891459               0.000000000               0.999999984               0.000901220              -0.000000000               0.999999984               0.000910960              -0.000000000               0.999999984               0.000921651              -0.000000000               0.999999984               0.000933495               0.000000000               0.999999984               0.000946615               0.000000000               0.999999984               0.000960696               0.000000000               0.999999984               0.000975497               0.000000000               0.999999984               0.000990800              -0.000000000               0.999999984               0.001006078              -0.000000000               0.999999984               0.001020859              -0.000000000               0.999999984               0.001034474               0.000000000               0.999999984               0.001046124               0.000000000               0.999999984               0.001054786               0.000000000               0.999999984               0.000800704               0.000133830               0.999999984               0.000848272               0.000107858               0.999999984               0.000867957               0.000096124               0.999999984               0.000878723               0.000091565               0.999999984               0.000887445               0.000090439               0.999999984               0.000896402               0.000091141               0.999999984               0.000906372               0.000092665               0.999999984               0.000917587               0.000094598               0.999999984               0.000930020               0.000096533               0.999999984               0.000943406               0.000097912               0.999999984               0.000957275               0.000098448               0.999999984               0.000971195               0.000097773               0.999999984               0.000984734               0.000095376               0.999999984               0.000997354               0.000090802               0.999999984               0.001008535               0.000083057               0.999999984               0.001017589               0.000071386               0.999999984               0.001023808               0.000054833               0.999999984               0.000787417               0.000266394               0.999999984               0.000823176               0.000215234               0.999999984               0.000835719               0.000193028               0.999999984               0.000842145               0.000184925               0.999999984               0.000847975               0.000183534               0.999999984               0.000854822               0.000185407               0.999999984               0.000863097               0.000188950               0.999999984               0.000872667               0.000193226               0.999999984               0.000883179               0.000197179               0.999999984               0.000894104               0.000199828               0.999999984               0.000904909               0.000200605               0.999999984               0.000915082               0.000198878               0.999999984               0.000923950               0.000193891               0.999999984               0.000931073               0.000184740               0.999999984               0.000936103               0.000170319               0.999999984               0.000938733               0.000149408               0.999999984               0.000938780               0.000120841               0.999999984               0.000765604               0.000396417               0.999999984               0.000782837               0.000321734               0.999999984               0.000784975               0.000291351               0.999999984               0.000785481               0.000281476               0.999999984               0.000787593               0.000281013               0.999999984               0.000791776               0.000285038               0.999999984               0.000797769               0.000291286               0.999999984               0.000804936               0.000298157               0.999999984               0.000812562               0.000304025               0.999999984               0.000819782               0.000307550               0.999999984               0.000825746               0.000308129               0.999999984               0.000829835               0.000304948               0.999999984               0.000831646               0.000297213               0.999999984               0.000830835               0.000284194               0.999999984               0.000827310               0.000264825               0.999999984               0.000821339               0.000238418               0.999999984               0.000813187               0.000204263               0.999999984               0.000735788               0.000522750               0.999999984               0.000729415               0.000427122               0.999999984               0.000719847               0.000391397               0.999999984               0.000714440               0.000381762               0.999999984               0.000713219               0.000383413               0.999999984               0.000714980               0.000390426               0.999999984               0.000718732               0.000399526               0.999999984               0.000723108               0.000408809               0.999999984               0.000726814               0.000416237               0.999999984               0.000728937               0.000420164               0.999999984               0.000728673               0.000419952               0.999999984               0.000725546               0.000414970               0.999999984               0.000719268               0.000404643               0.999999984               0.000709798               0.000388474               0.999999984               0.000697405               0.000366072               0.999999984               0.000682509               0.000337479               0.999999984               0.000665773               0.000303067               0.999999984               0.000698426               0.000644326               0.999999984               0.000665481               0.000531508               0.999999984               0.000645192               0.000493180               0.999999984               0.000635272               0.000485246               0.999999984               0.000631809               0.000489933               0.999999984               0.000632015               0.000500042               0.999999984               0.000633583               0.000511798               0.999999984               0.000634650               0.000523000               0.999999984               0.000633907               0.000531163               0.999999984               0.000630216               0.000534827               0.999999984               0.000623060               0.000533429               0.999999984               0.000612125               0.000526545               0.999999984               0.000597372               0.000513942               0.999999984               0.000579095               0.000495603               0.999999984               0.000557768               0.000471619               0.999999984               0.000534046               0.000442934               0.999999984               0.000508705               0.000410671               0.999999984               0.000654385               0.000759886               0.999999984               0.000594270               0.000634824               0.999999984               0.000565682               0.000596371               0.999999984               0.000553635               0.000590859               0.999999984               0.000549612               0.000598619               0.999999984               0.000548879               0.000611563               0.999999984               0.000548400               0.000625328               0.999999984               0.000546072               0.000637509               0.999999984               0.000540265               0.000645699               0.999999984               0.000530114               0.000648532               0.999999984               0.000515216               0.000645789               0.999999984               0.000495653               0.000637227               0.999999984               0.000471665               0.000623160               0.999999984               0.000443845               0.000603811               0.999999984               0.000413005               0.000579885               0.999999984               0.000380036               0.000552802               0.999999984               0.000345772               0.000523837               0.999999984               0.000604352               0.000868311               0.999999984               0.000519137               0.000736865               0.999999984               0.000486010               0.000699831               0.999999984               0.000474470               0.000696812               0.999999984               0.000471141               0.000707177               0.999999984               0.000470013               0.000722124               0.999999984               0.000467439               0.000737018               0.999999984               0.000461073               0.000749543               0.999999984               0.000449410               0.000757183               0.999999984               0.000431869               0.000758948               0.999999984               0.000408188               0.000755023               0.999999984               0.000378888               0.000745378               0.999999984               0.000344663               0.000730508               0.999999984               0.000306593               0.000711374               0.999999984               0.000265707               0.000688985               0.999999984               0.000223151               0.000664687               0.999999984               0.000179798               0.000639666               0.999999984               0.000550033               0.000967538               0.999999984               0.000442801               0.000837521               0.999999984               0.000410278               0.000802096               0.999999984               0.000401115               0.000800825               0.999999984               0.000399220               0.000813057               0.999999984               0.000397584               0.000829418               0.999999984               0.000392302               0.000845078               0.999999984               0.000381241               0.000857308               0.999999984               0.000362868               0.000864050               0.999999984               0.000336586               0.000864798               0.999999984               0.000302843               0.000859839               0.999999984               0.000262613               0.000849536               0.999999984               0.000217215               0.000834824               0.999999984               0.000168168               0.000817034               0.999999984               0.000116919               0.000797364               0.999999984               0.000064752               0.000776928               0.999999984               0.000012466               0.000756397               0.999999984               0.000493875               0.001061280               0.999999984               0.000379048               0.000949836               0.999999984               0.000343621               0.000910229               0.999999984               0.000333474               0.000903400               0.999999984               0.000331462               0.000911373               0.999999984               0.000330442               0.000925667               0.999999984               0.000326951               0.000941313               0.999999984               0.000318930               0.000955638               0.999999984               0.000304634               0.000966811               0.999999984               0.000283093               0.000973705               0.999999984               0.000254216               0.000976132               0.999999984               0.000218431               0.000974216               0.999999984               0.000176496               0.000968392               0.999999984               0.000129707               0.000959479               0.999999984               0.000079466               0.000948396               0.999999984               0.000027097               0.000936229               0.999999984              -0.000025948               0.000923626               0.999999984               0.000432314               0.001146663               0.999999984               0.000318090               0.001058471               0.999999984               0.000279940               0.001021096               0.999999984               0.000267975               0.001011239               0.999999984               0.000265174               0.001016186               0.999999984               0.000264256               0.001028641               0.999999984               0.000261856               0.001044379               0.999999984               0.000256044               0.001060595               0.999999984               0.000245242               0.001075345               0.999999984               0.000228187               0.001087390               0.999999984               0.000204195               0.001096195               0.999999984               0.000173302               0.001101559               0.999999984               0.000135511               0.001103624               0.999999984               0.000091735               0.001102773               0.999999984               0.000043216               0.001099728               0.999999984              -0.000008845               0.001095437               0.999999984              -0.000062773               0.001090515               0.999999984               0.000366723               0.001221497               0.999999984               0.000259973               0.001160008               0.999999984               0.000220876               0.001129588               0.999999984               0.000207076               0.001120196               0.999999984               0.000203000               0.001123990               0.999999984               0.000201607               0.001135586               0.999999984               0.000199723               0.001151630               0.999999984               0.000195488               0.001169654               0.999999984               0.000187363               0.001187762               0.999999984               0.000174061               0.001204609               0.999999984               0.000154734               0.001219281               0.999999984               0.000128791               0.001231320               0.999999984               0.000096061               0.001240602               0.999999984               0.000056442               0.001247205               0.999999984               0.000010626               0.001251651               0.999999984              -0.000040422               0.001254561               0.999999984              -0.000095378               0.001256783               0.999999984               0.000297742               0.001284414               0.999999984               0.000204615               0.001250329               0.999999984               0.000167338               0.001230213               0.999999984               0.000152662               0.001224402               0.999999984               0.000147335               0.001229316               0.999999984               0.000145245               0.001241635               0.999999984               0.000143348               0.001258718               0.999999984               0.000140083               0.001278603               0.999999984               0.000133952               0.001299838               0.999999984               0.000123829               0.001321090               0.999999984               0.000108840               0.001341379               0.999999984               0.000088022               0.001359931               0.999999984               0.000060858               0.001376357               0.999999984               0.000026752               0.001390486               0.999999984              -0.000014845               0.001402530               0.999999984              -0.000063650               0.001412733               0.999999984              -0.000118990               0.001421962               0.999999984               0.000225930               0.001334366               0.999999984               0.000151616               0.001325367               0.999999984               0.000119471               0.001317002               0.999999984               0.000105557               0.001316847               0.999999984               0.000099717               0.001324767               0.999999984               0.000097189               0.001339121               0.999999984               0.000095272               0.001358134               0.999999984               0.000092488               0.001380358               0.999999984               0.000087854               0.001404702               0.999999984               0.000080500               0.001430156               0.999999984               0.000069456               0.001455772               0.999999984               0.000053777               0.001480641               0.999999984               0.000032770               0.001504206               0.999999984               0.000005283               0.001526042               0.999999984              -0.000029734               0.001546011               0.999999984              -0.000073171               0.001564076               0.999999984              -0.000125882               0.001580575               0.999999984               0.000151898               0.001370631               0.999999984               0.000100294               0.001381630               0.999999984               0.000076551               0.001384192               0.999999984               0.000065532               0.001390096               0.999999984               0.000060524               0.001401727               0.999999984               0.000058169               0.001418777               0.999999984               0.000056403               0.001440265               0.999999984               0.000054225               0.001465124               0.999999984               0.000050986               0.001492486               0.999999984               0.000046042               0.001521647               0.999999984               0.000038726               0.001551812               0.999999984               0.000028280               0.001582323               0.999999984               0.000013670               0.001612526               0.999999984              -0.000006021               0.001641843               0.999999984              -0.000031826               0.001669869               0.999999984              -0.000065193               0.001696128               0.999999984              -0.000108255               0.001720098               0.999999984               0.000076339               0.001392686               0.999999984               0.000049939               0.001416492               0.999999984               0.000037291               0.001426742               0.999999984               0.000031197               0.001437354               0.999999984               0.000028335               0.001452057               0.999999984               0.000026789               0.001471492               0.999999984               0.000025702               0.001495122               0.999999984               0.000024545               0.001522178               0.999999984               0.000022819               0.001551937               0.999999984               0.000020212               0.001583788               0.999999984               0.000016533               0.001617271               0.999999984               0.000011229               0.001651787               0.999999984               0.000003642               0.001686674               0.999999984              -0.000006749               0.001721401               0.999999984              -0.000020518               0.001755362               0.999999984              -0.000038721               0.001787812               0.999999984              -0.000063140               0.001817690               0.999999984               0.000000000               0.001400100               0.999999984               0.000000000               0.001428321               0.999999984              -0.000000000               0.001441302               0.999999984               0.000000000               0.001453637               0.999999984              -0.000000000               0.001469559               0.999999984               0.000000000               0.001489933               0.999999984               0.000000000               0.001514361               0.999999984               0.000000000               0.001542236               0.999999984              -0.000000000               0.001572972               0.999999984              -0.000000000               0.001605961               0.999999984              -0.000000000               0.001640673               0.999999984               0.000000000               0.001676690               0.999999984               0.000000000               0.001713300               0.999999984              -0.000000000               0.001749874               0.999999984               0.000000000               0.001785853               0.999999984               0.000000000               0.001820540               0.999999984              -0.000000000               0.001852737               0.999999984 </DataArray>
<DataArray type="Float64"                                    Name="defo"                                                      NumberOfComponents=" 3" format="ascii">
             -0.000805126              -0.000000000               0.999999984              -0.000856760               0.000000000               0.999999984              -0.000879055               0.000000000               0.999999984              -0.000891459               0.000000000               0.999999984              -0.000901220              -0.000000000               0.999999984              -0.000910960              -0.000000000               0.999999984              -0.000921651               0.000000000               0.999999984              -0.000933495              -0.000000000               0.999999984              -0.000946615               0.000000000               0.999999984              -0.000960696              -0.000000000               0.999999984              -0.000975497               0.000000000               0.999999984              -0.000990800               0.000000000               0.999999984              -0.001006078              -0.000000000               0.999999984              -0.001020859              -0.000000000               0.999999984              -0.001034474               0.000000000               0.999999984              -0.001046124               0.000000000               0.999999984              -0.001054786               0.000000000               0.999999984              -0.000800704               0.000133830               0.999999984              -0.000848272               0.000107858               0.999999984              -0.000867957               0.000096124               0.999999984              -0.000878723               0.000091565               0.999999984              -0.000887445               0.000090439               0.999999984              -0.000896402               0.000091141               0.999999984              -0.000906372               0.000092665               0.999999984              -0.000917587               0.000094598               0.999999984              -0.000930020               0.000096533               0.999999984              -0.000943406               0.000097912               0.999999984              -0.000957275               0.000098448               0.999999984              -0.000971195               0.000097773               0.999999984              -0.000984734               0.000095376               0.999999984              -0.000997354               0.000090802               0.999999984              -0.001008535               0.000083057               0.999999984              -0.001017589               0.000071386               0.999999984              -0.001023808               0.000054833               0.999999984              -0.000787417               0.000266394               0.999999984              -0.000823176               0.000215234               0.999999984              -0.000835719               0.000193028               0.999999984              -0.000842145               0.000184925               0.999999984              -0.000847975               0.000183534               0.999999984              -0.000854822               0.000185407               0.999999984              -0.000863097               0.000188950               0.999999984              -0.000872667               0.000193226               0.999999984              -0.000883179               0.000197179               0.999999984              -0.000894104               0.000199828               0.999999984              -0.000904909               0.000200605               0.999999984              -0.000915082               0.000198878               0.999999984              -0.000923950               0.000193891               0.999999984              -0.000931073               0.000184740               0.999999984              -0.000936103               0.000170319               0.999999984              -0.000938733               0.000149408               0.999999984              -0.000938780               0.000120841               0.999999984              -0.000765604               0.000396417               0.999999984              -0.000782837               0.000321734               0.999999984              -0.000784975               0.000291351               0.999999984              -0.000785481               0.000281476               0.999999984              -0.000787593               0.000281013               0.999999984              -0.000791776               0.000285038               0.999999984              -0.000797769               0.000291286               0.999999984              -0.000804936               0.000298157               0.999999984              -0.000812562               0.000304025               0.999999984              -0.000819782               0.000307550               0.999999984              -0.000825746               0.000308129               0.999999984              -0.000829835               0.000304948               0.999999984              -0.000831646               0.000297213               0.999999984              -0.000830835               0.000284194               0.999999984              -0.000827310               0.000264825               0.999999984              -0.000821339               0.000238418               0.999999984              -0.000813187               0.000204263               0.999999984              -0.000735788               0.000522750               0.999999984              -0.000729415               0.000427122               0.999999984              -0.000719847               0.000391397               0.999999984              -0.000714440               0.000381762               0.999999984              -0.000713219               0.000383413               0.999999984              -0.000714980               0.000390426               0.999999984              -0.000718732               0.000399526               0.999999984              -0.000723108               0.000408809               0.999999984              -0.000726814               0.000416237               0.999999984              -0.000728937               0.000420164               0.999999984              -0.000728673               0.000419952               0.999999984              -0.000725546               0.000414970               0.999999984              -0.000719268               0.000404643               0.999999984              -0.000709798               0.000388474               0.999999984              -0.000697405               0.000366072               0.999999984              -0.000682509               0.000337479               0.999999984              -0.000665773               0.000303067               0.999999984              -0.000698426               0.000644326               0.999999984              -0.000665481               0.000531508               0.999999984              -0.000645192               0.000493180               0.999999984              -0.000635272               0.000485246               0.999999984              -0.000631809               0.000489933               0.999999984              -0.000632015               0.000500042               0.999999984              -0.000633583               0.000511798               0.999999984              -0.000634650               0.000523000               0.999999984              -0.000633907               0.000531163               0.999999984              -0.000630216               0.000534827               0.999999984              -0.000623060               0.000533429               0.999999984              -0.000612125               0.000526545               0.999999984              -0.000597372               0.000513942               0.999999984              -0.000579095               0.000495603               0.999999984              -0.000557768               0.000471619               0.999999984              -0.000534046               0.000442934               0.999999984              -0.000508705               0.000410671               0.999999984              -0.000654385               0.000759886               0.999999984              -0.000594270               0.000634824               0.999999984              -0.000565682               0.000596371               0.999999984              -0.000553635               0.000590859               0.999999984              -0.000549612               0.000598619               0.999999984              -0.000548879               0.000611563               0.999999984              -0.000548400               0.000625328               0.999999984              -0.000546072               0.000637509               0.999999984              -0.000540265               0.000645699               0.999999984              -0.000530114               0.000648532               0.999999984              -0.000515216               0.000645789               0.999999984              -0.000495653               0.000637227               0.999999984              -0.000471665               0.000623160               0.999999984              -0.000443845               0.000603811               0.999999984              -0.000413005               0.000579885               0.999999984              -0.000380036               0.000552802               0.999999984              -0.000345772               0.000523837               0.999999984              -0.000604352               0.000868311               0.999999984              -0.000519137               0.000736865               0.999999984              -0.000486010               0.000699831               0.999999984              -0.000474470               0.000696812               0.999999984              -0.000471141               0.000707177               0.999999984              -0.000470013               0.000722124               0.999999984              -0.000467439               0.000737018               0.999999984              -0.000461073               0.000749543               0.999999984              -0.000449410               0.000757183               0.999999984              -0.000431869               0.000758948               0.999999984              -0.000408188               0.000755023               0.999999984              -0.000378888               0.000745378               0.999999984              -0.000344663               0.000730508               0.999999984              -0.000306593               0.000711374               0.999999984              -0.000265707               0.000688985               0.999999984              -0.000223151               0.000664687               0.999999984              -0.000179798               0.000639666               0.999999984              -0.000550033               0.000967538               0.999999984              -0.000442801               0.000837521               0.999999984              -0.000410278               0.000802096               0.999999984              -0.000401115               0.000800825               0.999999984              -0.000399220               0.000813057               0.999999984              -0.000397584               0.000829418               0.999999984              -0.000392302               0.000845078               0.999999984              -0.000381241               0.000857308               0.999999984              -0.000362868               0.000864050               0.999999984              -0.000336586               0.000864798               0.999999984              -0.000302843               0.000859839               0.999999984              -0.000262613               0.000849536               0.999999984              -0.000217215               0.000834824               0.999999984              -0.000168168               0.000817034               0.999999984              -0.000116919               0.000797364               0.999999984              -0.000064752               0.000776928               0.999999984              -0.000012466               0.000756397               0.999999984              -0.000493875               0.001061280               0.999999984              -0.000379048               0.000949836               0.999999984              -0.000343621               0.000910229               0.999999984              -0.000333474               0.000903400               0.999999984              -0.000331462               0.000911373               0.999999984              -0.000330442               0.000925667               0.999999984              -0.000326951               0.000941313               0.999999984              -0.000318930               0.000955638               0.999999984              -0.000304634               0.000966811               0.999999984              -0.000283093               0.000973705               0.999999984              -0.000254216               0.000976132               0.999999984              -0.000218431               0.000974216               0.999999984              -0.000176496               0.000968392               0.999999984              -0.000129707               0.000959479               0.999999984              -0.000079466               0.000948396               0.999999984              -0.000027097               0.000936229               0.999999984               0.000025948               0.000923626               0.999999984              -0.000432314               0.001146663               0.999999984              -0.000318090               0.001058471               0.999999984              -0.000279940               0.001021096               0.999999984              -0.000267975               0.001011239               0.999999984              -0.000265174               0.001016186               0.999999984              -0.000264256               0.001028641               0.999999984              -0.000261856               0.001044379               0.999999984              -0.000256044               0.001060595               0.999999984              -0.000245242               0.001075345               0.999999984              -0.000228187               0.001087390               0.999999984              -0.000204195               0.001096195               0.999999984              -0.000173302               0.001101559               0.999999984              -0.000135511               0.001103624               0.999999984              -0.000091735               0.001102773               0.999999984              -0.000043216               0.001099728               0.999999984               0.000008845               0.001095437               0.999999984               0.000062773               0.001090515               0.999999984              -0.000366723               0.001221497               0.999999984              -0.000259973               0.001160008               0.999999984              -0.000220876               0.001129588               0.999999984              -0.000207076               0.001120196               0.999999984              -0.000203000               0.001123990               0.999999984              -0.000201607               0.001135586               0.999999984              -0.000199723               0.001151630               0.999999984              -0.000195488               0.001169654               0.999999984              -0.000187363               0.001187762               0.999999984              -0.000174061               0.001204609               0.999999984              -0.000154734               0.001219281               0.999999984              -0.000128791               0.001231320               0.999999984              -0.000096061               0.001240602               0.999999984              -0.000056442               0.001247205               0.999999984              -0.000010626               0.001251651               0.999999984               0.000040422               0.001254561               0.999999984               0.000095378               0.001256783               0.999999984              -0.000297742               0.001284414               0.999999984              -0.000204615               0.001250329               0.999999984              -0.000167338               0.001230213               0.999999984              -0.000152662               0.001224402               0.999999984              -0.000147335               0.001229316               0.999999984              -0.000145245               0.001241635               0.999999984              -0.000143348               0.001258718               0.999999984              -0.000140083               0.001278603               0.999999984              -0.000133952               0.001299838               0.999999984              -0.000123829               0.001321090               0.999999984              -0.000108840               0.001341379               0.999999984              -0.000088022               0.001359931               0.999999984              -0.000060858               0.001376357               0.999999984              -0.000026752               0.001390486               0.999999984               0.000014845               0.001402530               0.999999984               0.000063650               0.001412733               0.999999984               0.000118990               0.001421962               0.999999984              -0.000225930               0.001334366               0.999999984              -0.000151616               0.001325367               0.999999984              -0.000119471               0.001317002               0.999999984              -0.000105557               0.001316847               0.999999984              -0.000099717               0.001324767               0.999999984              -0.000097189               0.001339121               0.999999984              -0.000095272               0.001358134               0.999999984              -0.000092488               0.001380358               0.999999984              -0.000087854               0.001404702               0.999999984              -0.000080500               0.001430156               0.999999984              -0.000069456               0.001455772               0.999999984              -0.000053777               0.001480641               0.999999984              -0.000032770               0.001504206               0.999999984              -0.000005283               0.001526042               0.999999984               0.000029734               0.001546011               0.999999984               0.000073171               0.001564076               0.999999984               0.000125882               0.001580575               0.999999984              -0.000151898               0.001370631               0.999999984              -0.000100294               0.001381630               0.999999984              -0.000076551               0.001384192               0.999999984              -0.000065532               0.001390096               0.999999984              -0.000060524               0.001401727               0.999999984              -0.000058169               0.001418777               0.999999984              -0.000056403               0.001440265               0.999999984              -0.000054225               0.001465124               0.999999984              -0.000050986               0.001492486               0.999999984              -0.000046042               0.001521647               0.999999984              -0.000038726               0.001551812               0.999999984              -0.000028280               0.001582323               0.999999984              -0.000013670               0.001612526               0.999999984               0.000006021               0.001641843               0.999999984               0.000031826               0.001669869               0.999999984               0.000065193               0.001696128               0.999999984               0.000108255               0.001720098               0.999999984              -0.000076339               0.001392686               0.999999984              -0.000049939               0.001416492               0.999999984              -0.000037291               0.001426742               0.999999984              -0.000031197               0.001437354               0.999999984              -0.000028335               0.001452057               0.999999984              -0.000026789               0.001471492               0.999999984              -0.000025702               0.001495122               0.999999984              -0.000024545               0.001522178               0.999999984              -0.000022819               0.001551937               0.999999984              -0.000020212               0.001583788               0.999999984              -0.000016533               0.001617271               0.999999984              -0.000011229               0.001651787               0.999999984              -0.000003642               0.001686674               0.999999984               0.000006749               0.001721401               0.999999984               0.000020518               0.001755362               0.999999984               0.000038721               0.001787812               0.999999984               0.000063140               0.001817690               0.999999984               0.000000000               0.001400100               0.999999984               0.000000000               0.001428321               0.999999984              -0.000000000               0.001441302               0.999999984               0.000000000               0.001453637               0.999999984              -0.000000000               0.001469559               0.999999984               0.000000000               0.001489933               0.999999984               0.000000000               0.001514361               0.999999984               0.000000000               0.001542236               0.999999984              -0.000000000               0.001572972               0.999999984              -0.000000000               0.001605961               0.999999984              -0.000000000               0.001640673               0.999999984               0.000000000               0.001676690               0.999999984               0.000000000               0.001713300               0.999999984              -0.000000000               0.001749874               0.999999984               0.000000000               0.001785853               0.999999984               0.000000000               0.001820540               0.999999984              -0.000000000               0.001852737               0.999999984              -0.000805126              -0.000000000               0.999999984              -0.000856760               0.000000000               0.999999984              -0.000879055               0.000000000               0.999999984              -0.000891459               0.000000000               0.999999984              -0.000901220              -0.000000000               0.999999984              -0.000910960              -0.000000000               0.999999984              -0.000921651               0.000000000               0.999999984              -0.000933495              -0.000000000               0.999999984              -0.000946615               0.000000000               0.999999984              -0.000960696              -0.000000000               0.999999984              -0.000975497               0.000000000               0.999999984              -0.000990800               0.000000000               0.999999984              -0.001006078              -0.000000000               0.999999984              -0.001020859              -0.000000000               0.999999984              -0.001034474               0.000000000               0.999999984              -0.001046124               0.000000000               0.999999984              -0.001054786               0.000000000               0.999999984              -0.000800704              -0.000133830               0.999999984              -0.000848272              -0.000107858               0.999999984              -0.000867957              -0.000096124               0.999999984              -0.000878723              -0.000091565               0.999999984              -0.000887445              -0.000090439               0.999999984              -0.000896402              -0.000091141               0.999999984              -0.000906372              -0.000092665               0.999999984              -0.000917587              -0.000094598               0.999999984              -0.000930020              -0.000096533               0.999999984              -0.000943406              -0.000097912               0.999999984              -0.000957275              -0.000098448               0.999999984              -0.000971195              -0.000097773               0.999999984              -0.000984734              -0.000095376               0.999999984              -0.000997354              -0.000090802               0.999999984              -0.001008535              -0.000083057               0.999999984              -0.001017589              -0.000071386               0.999999984              -0.001023808              -0.000054833               0.999999984              -0.000787417              -0.000266394               0.999999984              -0.000823176              -0.000215234               0.999999984              -0.000835719              -0.000193028               0.999999984              -0.000842145              -0.000184925               0.999999984              -0.000847975              -0.000183534               0.999999984              -0.000854822              -0.000185407               0.999999984              -0.000863097              -0.000188950               0.999999984              -0.000872667              -0.000193226               0.999999984              -0.000883179              -0.000197179               0.999999984              -0.000894104              -0.000199828               0.999999984              -0.000904909              -0.000200605               0.999999984              -0.000915082              -0.000198878               0.999999984              -0.000923950              -0.000193891               0.999999984              -0.000931073              -0.000184740               0.999999984              -0.000936103              -0.000170319               0.999999984              -0.000938733              -0.000149408               0.999999984              -0.000938780              -0.000120841               0.999999984              -0.000765604              -0.000396417               0.999999984              -0.000782837              -0.000321734               0.999999984              -0.000784975              -0.000291351               0.999999984              -0.000785481              -0.000281476               0.999999984              -0.000787593              -0.000281013               0.999999984              -0.000791776              -0.000285038               0.999999984              -0.000797769              -0.000291286               0.999999984              -0.000804936              -0.000298157               0.999999984              -0.000812562              -0.000304025               0.999999984              -0.000819782              -0.000307550               0.999999984              -0.000825746              -0.000308129               0.999999984              -0.000829835              -0.000304948               0.999999984              -0.000831646              -0.000297213               0.999999984              -0.000830835              -0.000284194               0.999999984              -0.000827310              -0.000264825               0.999999984              -0.000821339              -0.000238418               0.999999984              -0.000813187              -0.000204263               0.999999984              -0.000735788              -0.000522750               0.999999984              -0.000729415              -0.000427122               0.999999984              -0.000719847              -0.000391397               0.999999984              -0.000714440              -0.000381762               0.999999984              -0.000713219              -0.000383413               0.999999984              -0.000714980              -0.000390426               0.999999984              -0.000718732              -0.000399526               0.999999984              -0.000723108              -0.000408809               0.999999984              -0.000726814              -0.000416237               0.999999984              -0.000728937              -0.000420164               0.999999984              -0.000728673              -0.000419952               0.999999984              -0.000725546              -0.000414970               0.999999984              -0.000719268              -0.000404643               0.999999984              -0.000709798              -0.000388474               0.999999984              -0.000697405              -0.000366072               0.999999984              -0.000682509              -0.000337479               0.999999984              -0.000665773              -0.000303067               0.999999984              -0.000698426              -0.000644326               0.999999984              -0.000665481              -0.000531508               0.999999984              -0.000645192              -0.000493180               0.999999984              -0.000635272              -0.000485246               0.999999984              -0.000631809              -0.000489933               0.999999984              -0.000632015              -0.000500042               0.999999984              -0.000633583              -0.000511798               0.999999984              -0.000634650              -0.000523000               0.999999984              -0.000633907              -0.000531163               0.999999984              -0.000630216              -0.000534827               0.999999984              -0.000623060              -0.000533429               0.999999984              -0.000612125              -0.000526545               0.999999984              -0.000597372              -0.000513942               0.999999984              -0.000579095              -0.000495603               0.999999984              -0.000557768              -0.000471619               0.999999984              -0.000534046              -0.000442934               0.999999984              -0.000508705              -0.000410671               0.999999984              -0.000654385              -0.000759886               0.999999984              -0.000594270              -0.000634824               0.999999984              -0.000565682              -0.000596371               0.999999984              -0.000553635              -0.000590859               0.999999984              -0.000549612              -0.000598619               0.999999984              -0.000548879              -0.000611563               0.999999984              -0.000548400              -0.000625328               0.999999984              -0.000546072              -0.000637509               0.999999984              -0.000540265              -0.000645699               0.999999984              -0.000530114              -0.000648532               0.999999984              -0.000515216              -0.000645789               0.999999984              -0.000495653              -0.000637227               0.999999984              -0.000471665              -0.000623160               0.999999984              -0.000443845              -0.000603811               0.999999984              -0.000413005              -0.000579885               0.999999984              -0.000380036              -0.000552802               0.999999984              -0.000345772              -0.000523837               0.999999984              -0.000604352              -0.000868311               0.999999984              -0.000519137              -0.000736865               0.999999984              -0.000486010              -0.000699831               0.999999984              -0.000474470              -0.000696812               0.999999984              -0.000471141              -0.000707177               0.999999984              -0.000470013              -0.000722124               0.999999984              -0.000467439              -0.000737018               0.999999984              -0.000461073              -0.000749543               0.999999984              -0.000449410              -0.000757183               0.999999984              -0.000431869              -0.000758948               0.999999984              -0.000408188              -0.000755023               0.999999984              -0.000378888              -0.000745378               0.999999984              -0.000344663              -0.000730508               0.999999984              -0.000306593              -0.000711374               0.999999984              -0.000265707              -0.000688985               0.999999984              -0.000223151              -0.000664687               0.999999984              -0.000179798              -0.000639666               0.999999984              -0.000550033              -0.000967538               0.999999984              -0.000442801              -0.000837521               0.999999984              -0.000410278              -0.000802096               0.999999984              -0.000401115              -0.000800825               0.999999984              -0.000399220              -0.000813057               0.999999984              -0.000397584              -0.000829418               0.999999984              -0.000392302              -0.000845078               0.999999984              -0.000381241              -0.000857308               0.999999984              -0.000362868              -0.000864050               0.999999984              -0.000336586              -0.000864798               0.999999984              -0.000302843              -0.000859839               0.999999984              -0.000262613              -0.000849536               0.999999984              -0.000217215              -0.000834824               0.999999984              -0.000168168              -0.000817034               0.999999984              -0.000116919              -0.000797364               0.999999984              -0.000064752              -0.000776928               0.999999984              -0.000012466              -0.000756397               0.999999984              -0.000493875              -0.001061280               0.999999984              -0.000379048              -0.000949836               0.999999984              -0.000343621              -0.000910229               0.999999984              -0.000333474              -0.000903400               0.999999984              -0.000331462              -0.000911373               0.999999984              -0.000330442              -0.000925667               0.999999984              -0.000326951              -0.000941313               0.999999984              -0.000318930              -0.000955638               0.999999984              -0.000304634              -0.000966811               0.999999984              -0.000283093              -0.000973705               0.999999984              -0.000254216              -0.000976132               0.999999984              -0.000218431              -0.000974216               0.999999984              -0.000176496              -0.000968392               0.999999984              -0.000129707              -0.000959479               0.999999984              -0.000079466              -0.000948396               0.999999984              -0.000027097              -0.000936229               0.999999984               0.000025948              -0.000923626               0.999999984              -0.000432314              -0.001146663               0.999999984              -0.000318090              -0.001058471               0.999999984              -0.000279940              -0.001021096               0.999999984              -0.000267975              -0.001011239               0.999999984              -0.000265174              -0.001016186               0.999999984              -0.000264256              -0.001028641               0.999999984              -0.000261856              -0.001044379               0.999999984              -0.000256044              -0.001060595               0.999999984              -0.000245242              -0.001075345               0.999999984              -0.000228187              -0.001087390               0.999999984              -0.000204195              -0.001096195               0.999999984              -0.000173302              -0.001101559               0.999999984              -0.000135511              -0.001103624               0.999999984              -0.000091735              -0.001102773               0.999999984              -0.000043216              -0.001099728               0.999999984               0.000008845              -0.001095437               0.999999984               0.000062773              -0.001090515               0.999999984              -0.000366723              -0.001221497               0.999999984              -0.000259973              -0.001160008               0.999999984              -0.000220876              -0.001129588               0.999999984              -0.000207076              -0.001120196               0.999999984              -0.000203000              -0.001123990               0.999999984              -0.000201607              -0.001135586               0.999999984              -0.000199723              -0.001151630               0.999999984              -0.000195488              -0.001169654               0.999999984              -0.000187363              -0.001187762               0.999999984              -0.000174061              -0.001204609               0.999999984              -0.000154734              -0.001219281               0.999999984              -0.000128791              -0.001231320               0.999999984              -0.000096061              -0.001240602               0.999999984              -0.000056442              -0.001247205               0.999999984              -0.000010626              -0.001251651               0.999999984               0.000040422              -0.001254561               0.999999984               0.000095378              -0.001256783               0.999999984              -0.000297742              -0.001284414               0.999999984              -0.000204615              -0.001250329               0.999999984              -0.000167338              -0.001230213               0.999999984              -0.000152662              -0.001224402               0.999999984              -0.000147335              -0.001229316               0.999999984              -0.000145245              -0.001241635               0.999999984              -0.000143348              -0.001258718               0.999999984              -0.000140083              -0.001278603               0.999999984              -0.000133952              -0.001299838               0.999999984              -0.000123829              -0.001321090               0.999999984              -0.000108840              -0.001341379               0.999999984              -0.000088022              -0.001359931               0.999999984              -0.000060858              -0.001376357               0.999999984              -0.000026752              -0.001390486               0.999999984               0.000014845              -0.001402530               0.999999984               0.000063650              -0.001412733               0.999999984               0.000118990              -0.001421962               0.999999984              -0.000225930              -0.001334366               0.999999984              -0.000151616              -0.001325367               0.999999984              -0.000119471              -0.001317002               0.999999984              -0.000105557              -0.001316847               0.999999984              -0.000099717              -0.001324767               0.999999984              -0.000097189              -0.001339121               0.999999984              -0.000095272              -0.001358134               0.999999984              -0.000092488              -0.001380358               0.999999984              -0.000087854              -0.001404702               0.999999984              -0.000080500              -0.001430156               0.999999984              -0.000069456              -0.001455772               0.999999984              -0.000053777              -0.001480641               0.999999984              -0.000032770              -0.001504206               0.999999984              -0.000005283              -0.001526042               0.999999984               0.000029734              -0.001546011               0.999999984               0.000073171              -0.001564076               0.999999984               0.000125882              -0.001580575               0.999999984              -0.000151898              -0.001370631               0.999999984              -0.000100294              -0.001381630               0.999999984              -0.000076551              -0.001384192               0.999999984              -0.000065532              -0.001390096               0.999999984              -0.000060524              -0.001401727               0.999999984              -0.000058169              -0.001418777               0.999999984              -0.000056403              -0.001440265               0.999999984              -0.000054225              -0.001465124               0.999999984              -0.000050986              -0.001492486               0.999999984              -0.000046042              -0.001521647               0.999999984              -0.000038726              -0.001551812               0.999999984              -0.000028280              -0.001582323               0.999999984              -0.000013670              -0.001612526               0.999999984               0.000006021              -0.001641843               0.999999984               0.000031826              -0.001669869               0.999999984               0.000065193              -0.001696128               0.999999984               0.000108255              -0.001720098               0.999999984              -0.000076339              -0.001392686               0.999999984              -0.000049939              -0.001416492               0.999999984              -0.000037291              -0.001426742               0.999999984              -0.000031197              -0.001437354               0.999999984              -0.000028335              -0.001452057               0.999999984              -0.000026789              -0.001471492               0.999999984              -0.000025702              -0.001495122               0.999999984              -0.000024545              -0.001522178               0.999999984              -0.000022819              -0.001551937               0.999999984              -0.000020212              -0.001583788               0.999999984              -0.000016533              -0.001617271               0.999999984              -0.000011229              -0.001651787               0.999999984              -0.000003642              -0.001686674               0.999999984               0.000006749              -0.001721401               0.999999984               0.000020518              -0.001755362               0.999999984               0.000038721              -0.001787812               0.999999984               0.000063140              -0.001817690               0.999999984               0.000000000              -0.001400100               0.999999984              -0.000000000              -0.001428321               0.999999984              -0.000000000              -0.001441302               0.999999984               0.000000000              -0.001453637               0.999999984              -0.000000000              -0.001469559               0.999999984               0.000000000              -0.001489933               0.999999984              -0.000000000              -0.001514361               0.999999984               0.000000000              -0.001542236               0.999999984              -0.000000000              -0.001572972               0.999999984              -0.000000000              -0.001605961               0.999999984               0.000000000              -0.001640673               0.999999984              -0.000000000              -0.001676690               0.999999984               0.000000000              -0.001713300               0.999999984               0.000000000              -0.001749874               0.999999984              -0.000000000              -0.001785853               0.999999984              -0.000000000              -0.001820540               0.999999984              -0.000000000              -0.001852737               0.999999984               0.000805126              -0.000000000               0.999999984               0.000856760              -0.000000000               0.999999984               0.000879055              -0.000000000               0.999999984               0.000891459               0.000000000               0.999999984               0.000901220              -0.000000000               0.999999984               0.000910960              -0.000000000               0.999999984               0.000921651              -0.000000000               0.999999984               0.000933495               0.000000000               0.999999984               0.000946615               0.000000000               0.999999984               0.000960696               0.000000000               0.999999984               0.000975497               0.000000000               0.999999984               0.000990800              -0.000000000               0.999999984               0.001006078              -0.000000000               0.999999984               0.001020859              -0.000000000               0.999999984               0.001034474               0.000000000               0.999999984               0.001046124               0.000000000               0.999999984               0.001054786               0.000000000               0.999999984               0.000800704              -0.000133830               0.999999984               0.000848272              -0.000107858               0.999999984               0.000867957              -0.000096124               0.999999984               0.000878723              -0.000091565               0.999999984               0.000887445              -0.000090439               0.999999984               0.000896402              -0.000091141               0.999999984               0.000906372              -0.000092665               0.999999984               0.000917587              -0.000094598               0.999999984               0.000930020              -0.000096533               0.999999984               0.000943406              -0.000097912               0.999999984               0.000957275              -0.000098448               0.999999984               0.000971195              -0.000097773               0.999999984               0.000984734              -0.000095376               0.999999984               0.000997354              -0.000090802               0.999999984               0.001008535              -0.000083057               0.999999984               0.001017589              -0.000071386               0.999999984               0.001023808              -0.000054833               0.999999984               0.000787417              -0.000266394               0.999999984               0.000823176              -0.000215234               0.999999984               0.000835719              -0.000193028               0.999999984               0.000842145              -0.000184925               0.999999984               0.000847975              -0.000183534               0.999999984               0.000854822              -0.000185407               0.999999984               0.000863097              -0.000188950               0.999999984               0.000872667              -0.000193226               0.999999984               0.000883179              -0.000197179               0.999999984               0.000894104              -0.000199828               0.999999984               0.000904909              -0.000200605               0.999999984               0.000915082              -0.000198878               0.999999984               0.000923950              -0.000193891               0.999999984               0.000931073              -0.000184740               0.999999984               0.000936103              -0.000170319               0.999999984               0.000938733              -0.000149408               0.999999984               0.000938780              -0.000120841               0.999999984               0.000765604              -0.000396417               0.999999984               0.000782837              -0.000321734               0.999999984               0.000784975              -0.000291351               0.999999984               0.000785481              -0.000281476               0.999999984               0.000787593              -0.000281013               0.999999984               0.000791776              -0.000285038               0.999999984               0.000797769              -0.000291286               0.999999984               0.000804936              -0.000298157               0.999999984               0.000812562              -0.000304025               0.999999984               0.000819782              -0.000307550               0.999999984               0.000825746              -0.000308129               0.999999984               0.000829835              -0.000304948               0.999999984               0.000831646              -0.000297213               0.999999984               0.000830835              -0.000284194               0.999999984               0.000827310              -0.000264825               0.999999984               0.000821339              -0.000238418               0.999999984               0.000813187              -0.000204263               0.999999984               0.000735788              -0.000522750               0.999999984               0.000729415              -0.000427122               0.999999984               0.000719847              -0.000391397               0.999999984               0.000714440              -0.000381762               0.999999984               0.000713219              -0.000383413               0.999999984               0.000714980              -0.000390426               0.999999984               0.000718732              -0.000399526               0.999999984               0.000723108              -0.000408809               0.999999984               0.000726814              -0.000416237               0.999999984               0.000728937              -0.000420164               0.999999984               0.000728673              -0.000419952               0.999999984               0.000725546              -0.000414970               0.999999984               0.000719268              -0.000404643               0.999999984               0.000709798              -0.000388474               0.999999984               0.000697405              -0.000366072               0.999999984               0.000682509              -0.000337479               0.999999984               0.000665773              -0.000303067               0.999999984               0.000698426              -0.000644326               0.999999984               0.000665481              -0.000531508               0.999999984               0.000645192              -0.000493180               0.999999984               0.000635272              -0.000485246               0.999999984               0.000631809              -0.000489933               0.999999984               0.000632015              -0.000500042               0.999999984               0.000633583              -0.000511798               0.999999984               0.000634650              -0.000523000               0.999999984               0.000633907              -0.000531163               0.999999984               0.000630216              -0.000534827               0.999999984               0.000623060              -0.000533429               0.999999984               0.000612125              -0.000526545               0.999999984               0.000597372              -0.000513942               0.999999984               0.000579095              -0.000495603               0.999999984               0.000557768              -0.000471619               0.999999984               0.000534046              -0.000442934               0.999999984               0.000508705              -0.000410671               0.999999984               0.000654385              -0.000759886               0.999999984               0.000594270              -0.000634824               0.999999984               0.000565682              -0.000596371               0.999999984               0.000553635              -0.000590859               0.999999984               0.000549612              -0.000598619               0.999999984               0.000548879              -0.000611563               0.999999984               0.000548400              -0.000625328               0.999999984               0.000546072              -0.000637509               0.999999984               0.000540265              -0.000645699               0.999999984               0.000530114              -0.000648532               0.999999984               0.000515216              -0.000645789               0.999999984               0.000495653              -0.000637227               0.999999984               0.000471665              -0.000623160               0.999999984               0.000443845              -0.000603811               0.999999984               0.000413005              -0.000579885               0.999999984               0.000380036              -0.000552802               0.999999984               0.000345772              -0.000523837               0.999999984               0.000604352              -0.000868311               0.999999984               0.000519137              -0.000736865               0.999999984               0.000486010              -0.000699831               0.999999984               0.000474470              -0.000696812               0.999999984               0.000471141              -0.000707177               0.999999984               0.000470013              -0.000722124               0.999999984               0.000467439              -0.000737018               0.999999984               0.000461073              -0.000749543               0.999999984               0.000449410              -0.000757183               0.999999984               0.000431869              -0.000758948               0.999999984               0.000408188              -0.000755023               0.999999984               0.000378888              -0.000745378               0.999999984               0.000344663              -0.000730508               0.999999984               0.000306593              -0.000711374               0.999999984               0.000265707              -0.000688985               0.999999984               0.000223151              -0.000664687               0.999999984               0.000179798              -0.000639666               0.999999984               0.000550033              -0.000967538               0.999999984               0.000442801              -0.000837521               0.999999984               0.000410278              -0.000802096               0.999999984               0.000401115              -0.000800825               0.999999984               0.000399220              -0.000813057               0.999999984               0.000397584              -0.000829418               0.999999984               0.000392302              -0.000845078               0.999999984               0.000381241              -0.000857308               0.999999984               0.000362868              -0.000864050               0.999999984               0.000336586              -0.000864798               0.999999984               0.000302843              -0.000859839               0.999999984               0.000262613              -0.000849536               0.999999984               0.000217215              -0.000834824               0.999999984               0.000168168              -0.000817034               0.999999984               0.000116919              -0.000797364               0.999999984               0.000064752              -0.000776928               0.999999984               0.000012466              -0.000756397               0.999999984               0.000493875              -0.001061280               0.999999984               0.000379048              -0.000949836               0.999999984               0.000343621              -0.000910229               0.999999984               0.000333474              -0.000903400               0.999999984               0.000331462              -0.000911373               0.999999984               0.000330442              -0.000925667               0.999999984               0.000326951              -0.000941313               0.999999984               0.000318930              -0.000955638               0.999999984               0.000304634              -0.000966811               0.999999984               0.000283093              -0.000973705               0.999999984               0.000254216              -0.000976132               0.999999984               0.000218431              -0.000974216               0.999999984               0.000176496              -0.000968392               0.999999984               0.000129707              -0.000959479               0.999999984               0.000079466              -0.000948396               0.999999984               0.000027097              -0.000936229               0.999999984              -0.000025948              -0.000923626               0.999999984               0.000432314              -0.001146663               0.999999984               0.000318090              -0.001058471               0.999999984               0.000279940              -0.001021096               0.999999984               0.000267975              -0.001011239               0.999999984               0.000265174              -0.001016186               0.999999984               0.000264256              -0.001028641               0.999999984               0.000261856              -0.001044379               0.999999984               0.000256044              -0.001060595               0.999999984               0.000245242              -0.001075345               0.999999984               0.000228187              -0.001087390               0.999999984               0.000204195              -0.001096195               0.999999984               0.000173302              -0.001101559               0.999999984               0.000135511              -0.001103624               0.999999984               0.000091735              -0.001102773               0.999999984               0.000043216              -0.001099728               0.999999984              -0.000008845              -0.001095437               0.999999984              -0.000062773              -0.001090515               0.999999984               0.000366723              -0.001221497               0.999999984               0.000259973              -0.001160008               0.999999984               0.000220876              -0.001129588               0.999999984               0.000207076              -0.001120196               0.999999984               0.000203000              -0.001123990               0.999999984               0.000201607              -0.001135586               0.999999984               0.000199723              -0.001151630               0.999999984               0.000195488              -0.001169654               0.999999984               0.000187363              -0.001187762               0.999999984               0.000174061              -0.001204609               0.999999984               0.000154734              -0.001219281               0.999999984               0.000128791              -0.001231320               0.999999984               0.000096061              -0.001240602               0.999999984               0.000056442              -0.001247205               0.999999984               0.000010626              -0.001251651               0.999999984              -0.000040422              -0.001254561               0.999999984              -0.000095378              -0.001256783               0.999999984               0.000297742              -0.001284414               0.999999984               0.000204615              -0.001250329               0.999999984               0.000167338              -0.001230213               0.999999984               0.000152662              -0.001224402               0.999999984               0.000147335              -0.001229316               0.999999984               0.000145245              -0.001241635               0.999999984               0.000143348              -0.001258718               0.999999984               0.000140083              -0.001278603               0.999999984               0.000133952              -0.001299838               0.999999984               0.000123829              -0.001321090               0.999999984               0.000108840              -0.001341379               0.999999984               0.000088022              -0.001359931               0.999999984               0.000060858              -0.001376357               0.999999984               0.000026752              -0.001390486               0.999999984              -0.000014845              -0.001402530               0.999999984              -0.000063650              -0.001412733               0.999999984              -0.000118990              -0.001421962               0.999999984               0.000225930              -0.001334366               0.999999984               0.000151616              -0.001325367               0.999999984               0.000119471              -0.001317002               0.999999984               0.000105557              -0.001316847               0.999999984               0.000099717              -0.001324767               0.999999984               0.000097189              -0.001339121               0.999999984               0.000095272              -0.001358134               0.999999984               0.000092488              -0.001380358               0.999999984               0.000087854              -0.001404702               0.999999984               0.000080500              -0.001430156               0.999999984               0.000069456              -0.001455772               0.999999984               0.000053777              -0.001480641               0.999999984               0.000032770              -0.001504206               0.999999984               0.000005283              -0.001526042               0.999999984              -0.000029734              -0.001546011               0.999999984              -0.000073171              -0.001564076               0.999999984              -0.000125882              -0.001580575               0.999999984               0.000151898              -0.001370631               0.999999984               0.000100294              -0.001381630               0.999999984               0.000076551              -0.001384192               0.999999984               0.000065532              -0.001390096               0.999999984               0.000060524              -0.001401727               0.999999984               0.000058169              -0.001418777               0.999999984               0.000056403              -0.001440265               0.999999984               0.000054225              -0.001465124               0.999999984               0.000050986              -0.001492486               0.999999984               0.000046042              -0.001521647               0.999999984               0.000038726              -0.001551812               0.999999984               0.000028280              -0.001582323               0.999999984               0.000013670              -0.001612526               0.999999984              -0.000006021              -0.001641843               0.999999984              -0.000031826              -0.001669869               0.999999984              -0.000065193              -0.001696128               0.999999984              -0.000108255              -0.001720098               0.999999984               0.000076339              -0.001392686               0.999999984               0.000049939              -0.001416492               0.999999984               0.000037291              -0.001426742               0.999999984               0.000031197              -0.001437354               0.999999984               0.000028335              -0.001452057               0.999999984               0.000026789              -0.001471492               0.999999984               0.000025702              -0.001495122               0.999999984               0.000024545              -0.001522178               0.999999984               0.000022819              -0.001551937               0.999999984               0.000020212              -0.001583788               0.999999984               0.000016533              -0.001617271               0.999999984               0.000011229              -0.001651787               0.999999984               0.000003642              -0.001686674               0.999999984              -0.000006749              -0.001721401               0.999999984              -0.000020518              -0.001755362               0.999999984              -0.000038721              -0.001787812               0.999999984              -0.000063140              -0.001817690               0.999999984               0.000000000              -0.001400100               0.999999984              -0.000000000              -0.001428321               0.999999984              -0.000000000              -0.001441302               0.999999984               0.000000000              -0.001453637               0.999999984              -0.000000000              -0.001469559               0.999999984               0.000000000              -0.001489933               0.999999984              -0.000000000              -0.001514361               0.999999984               0.000000000              -0.001542236               0.999999984              -0.000000000              -0.001572972               0.999999984              -0.000000000              -0.001605961               0.999999984               0.000000000              -0.001640673               0.999999984              -0.000000000              -0.001676690               0.999999984               0.000000000              -0.001713300               0.999999984               0.000000000              -0.001749874               0.999999984              -0.000000000              -0.001785853               0.999999984              -0.000000000              -0.001820540               0.999999984              -0.000000000              -0.001852737               0.999999984               0.000805126              -0.000000000               0.999999984               0.000856760              -0.000000000               0.999999984               0.000879055              -0.000000000               0.999999984               0.000891459               0.000000000               0.999999984               0.000901220              -0.000000000               0.999999984               0.000910960              -0.000000000               0.999999984               0.000921651              -0.000000000               0.999999984               0.000933495               0.000000000               0.999999984               0.000946615               0.000000000               0.999999984               0.000960696               0.000000000               0.999999984               0.000975497               0.000000000               0.999999984               0.000990800              -0.000000000               0.999999984               0.001006078              -0.000000000               0.999999984               0.001020859              -0.000000000               0.999999984               0.001034474               0.000000000               0.999999984               0.001046124               0.000000000               0.999999984               0.001054786               0.000000000               0.999999984               0.000800704               0.000133830               0.999999984               0.000848272               0.000107858               0.999999984               0.000867957               0.000096124               0.999999984               0.000878723               0.000091565               0.999999984               0.000887445               0.000090439               0.999999984               0.000896402               0.000091141               0.999999984               0.000906372               0.000092665               0.999999984               0.000917587               0.000094598               0.999999984               0.000930020               0.000096533               0.999999984               0.000943406               0.000097912               0.999999984               0.000957275               0.000098448               0.999999984               0.000971195               0.000097773               0.999999984               0.000984734               0.000095376               0.999999984               0.000997354               0.000090802               0.999999984               0.001008535               0.000083057               0.999999984               0.001017589               0.000071386               0.999999984               0.001023808               0.000054833               0.999999984               0.000787417               0.000266394               0.999999984               0.000823176               0.000215234               0.999999984               0.000835719               0.000193028               0.999999984               0.000842145               0.000184925               0.999999984               0.000847975               0.000183534               0.999999984               0.000854822               0.000185407               0.999999984               0.000863097               0.000188950               0.999999984               0.000872667               0.000193226               0.999999984               0.000883179               0.000197179               0.999999984               0.000894104               0.000199828               0.999999984               0.000904909               0.000200605               0.999999984               0.000915082               0.000198878               0.999999984               0.000923950               0.000193891               0.999999984               0.000931073               0.000184740               0.999999984               0.000936103               0.000170319               0.999999984               0.000938733               0.000149408               0.999999984               0.000938780               0.000120841               0.999999984               0.000765604               0.000396417               0.999999984               0.000782837               0.000321734               0.999999984               0.000784975               0.000291351               0.999999984               0.000785481               0.000281476               0.999999984               0.000787593               0.000281013               0.999999984               0.000791776               0.000285038               0.999999984               0.000797769               0.000291286               0.999999984               0.000804936               0.000298157               0.999999984               0.000812562               0.000304025               0.999999984               0.000819782               0.000307550               0.999999984               0.000825746               0.000308129               0.999999984               0.000829835               0.000304948               0.999999984               0.000831646               0.000297213               0.999999984               0.000830835               0.000284194               0.999999984               0.000827310               0.000264825               0.999999984               0.000821339               0.000238418               0.999999984               0.000813187               0.000204263               0.999999984               0.000735788               0.000522750               0.999999984               0.000729415               0.000427122               0.999999984               0.000719847               0.000391397               0.999999984               0.000714440               0.000381762               0.999999984               0.000713219               0.000383413               0.999999984               0.000714980               0.000390426               0.999999984               0.000718732               0.000399526               0.999999984               0.000723108               0.000408809               0.999999984               0.000726814               0.000416237               0.999999984               0.000728937               0.000420164               0.999999984               0.000728673               0.000419952               0.999999984               0.000725546               0.000414970               0.999999984               0.000719268               0.000404643               0.999999984               0.000709798               0.000388474               0.999999984               0.000697405               0.000366072               0.999999984               0.000682509               0.000337479               0.999999984               0.000665773               0.000303067               0.999999984               0.000698426               0.000644326               0.999999984               0.000665481               0.000531508               0.999999984               0.000645192               0.000493180               0.999999984               0.000635272               0.000485246               0.999999984               0.000631809               0.000489933               0.999999984               0.000632015               0.000500042               0.999999984               0.000633583               0.000511798               0.999999984               0.000634650               0.000523000               0.999999984               0.000633907               0.000531163               0.999999984               0.000630216               0.000534827               0.999999984               0.000623060               0.000533429               0.999999984               0.000612125               0.000526545               0.999999984               0.000597372               0.000513942               0.999999984               0.000579095               0.000495603               0.999999984               0.000557768               0.000471619               0.999999984               0.000534046               0.000442934               0.999999984               0.000508705               0.000410671               0.999999984               0.000654385               0.000759886               0.999999984               0.000594270               0.000634824               0.999999984               0.000565682               0.000596371               0.999999984               0.000553635               0.000590859               0.999999984               0.000549612               0.000598619               0.999999984               0.000548879               0.000611563               0.999999984               0.000548400               0.000625328               0.999999984               0.000546072               0.000637509               0.999999984               0.000540265               0.000645699               0.999999984               0.000530114               0.000648532               0.999999984               0.000515216               0.000645789               0.999999984               0.000495653               0.000637227               0.999999984               0.000471665               0.000623160               0.999999984               0.000443845               0.000603811               0.999999984               0.000413005               0.000579885               0.999999984               0.000380036               0.000552802               0.999999984               0.000345772               0.000523837               0.999999984               0.000604352               0.000868311               0.999999984               0.000519137               0.000736865               0.999999984               0.000486010               0.000699831               0.999999984               0.000474470               0.000696812               0.999999984               0.000471141               0.000707177               0.999999984               0.000470013               0.000722124               0.999999984               0.000467439               0.000737018               0.999999984               0.000461073               0.000749543               0.999999984               0.000449410               0.000757183               0.999999984               0.000431869               0.000758948               0.999999984               0.000408188               0.000755023               0.999999984               0.000378888               0.000745378               0.999999984               0.000344663               0.000730508               0.999999984               0.000306593               0.000711374               0.999999984               0.000265707               0.000688985               0.999999984               0.000223151               0.000664687               0.999999984               0.000179798               0.000639666               0.999999984               0.000550033               0.000967538               0.999999984               0.000442801               0.000837521               0.999999984               0.000410278               0.000802096               0.999999984               0.000401115               0.000800825               0.999999984               0.000399220               0.000813057               0.999999984               0.000397584               0.000829418               0.999999984               0.000392302               0.000845078               0.999999984               0.000381241               0.000857308               0.999999984               0.000362868               0.000864050               0.999999984               0.000336586               0.000864798               0.999999984               0.000302843               0.000859839               0.999999984               0.000262613               0.000849536               0.999999984               0.000217215               0.000834824               0.999999984               0.000168168               0.000817034               0.999999984               0.000116919               0.000797364               0.999999984               0.000064752               0.000776928               0.999999984               0.000012466               0.000756397               0.999999984               0.000493875               0.001061280               0.999999984               0.000379048               0.000949836               0.999999984               0.000343621               0.000910229               0.999999984               0.000333474               0.000903400               0.999999984               0.000331462               0.000911373               0.999999984               0.000330442               0.000925667               0.999999984               0.000326951               0.000941313               0.999999984               0.000318930               0.000955638               0.999999984               0.000304634               0.000966811               0.999999984               0.000283093               0.000973705               0.999999984               0.000254216               0.000976132               0.999999984               0.000218431               0.000974216               0.999999984               0.000176496               0.000968392               0.999999984               0.000129707               0.000959479               0.999999984               0.000079466               0.000948396               0.999999984               0.000027097               0.000936229               0.999999984              -0.000025948               0.000923626               0.999999984               0.000432314               0.001146663               0.999999984               0.000318090               0.001058471               0.999999984               0.000279940               0.001021096               0.999999984               0.000267975               0.001011239               0.999999984               0.000265174               0.001016186               0.999999984               0.000264256               0.001028641               0.999999984               0.000261856               0.001044379               0.999999984               0.000256044               0.001060595               0.999999984               0.000245242               0.001075345               0.999999984               0.000228187               0.001087390               0.999999984               0.000204195               0.001096195               0.999999984               0.000173302               0.001101559               0.999999984               0.000135511               0.001103624               0.999999984               0.000091735               0.001102773               0.999999984               0.000043216               0.001099728               0.999999984              -0.000008845               0.001095437               0.999999984              -0.000062773               0.001090515               0.999999984               0.000366723               0.001221497               0.999999984               0.000259973               0.001160008               0.999999984               0.000220876               0.001129588               0.999999984               0.000207076               0.001120196               0.999999984               0.000203000               0.001123990               0.999999984               0.000201607               0.001135586               0.999999984               0.000199723               0.001151630               0.999999984               0.000195488               0.001169654               0.999999984               0.000187363               0.001187762               0.999999984               0.000174061               0.001204609               0.999999984               0.000154734               0.001219281               0.999999984               0.000128791               0.001231320               0.999999984               0.000096061               0.001240602               0.999999984               0.000056442               0.001247205               0.999999984               0.000010626               0.001251651               0.999999984              -0.000040422               0.001254561               0.999999984              -0.000095378               0.001256783               0.999999984               0.000297742               0.001284414               0.999999984               0.000204615               0.001250329               0.999999984               0.000167338               0.001230213               0.999999984               0.000152662               0.001224402               0.999999984               0.000147335               0.001229316               0.999999984               0.000145245               0.001241635               0.999999984               0.000143348               0.001258718               0.999999984               0.000140083               0.001278603               0.999999984               0.000133952               0.001299838               0.999999984               0.000123829               0.001321090               0.999999984               0.000108840               0.001341379               0.999999984               0.000088022               0.001359931               0.999999984               0.000060858               0.001376357               0.999999984               0.000026752               0.001390486               0.999999984              -0.000014845               0.001402530               0.999999984              -0.000063650               0.001412733               0.999999984              -0.000118990               0.001421962               0.999999984               0.000225930               0.001334366               0.999999984               0.000151616               0.001325367               0.999999984               0.000119471               0.001317002               0.999999984               0.000105557               0.001316847               0.999999984               0.000099717               0.001324767               0.999999984               0.000097189               0.001339121               0.999999984               0.000095272               0.001358134               0.999999984               0.000092488               0.001380358               0.999999984               0.000087854               0.001404702               0.999999984               0.000080500               0.001430156               0.999999984               0.000069456               0.001455772               0.999999984               0.000053777               0.001480641               0.999999984               0.000032770               0.001504206               0.999999984               0.000005283               0.001526042               0.999999984              -0.000029734               0.001546011               0.999999984              -0.000073171               0.001564076               0.999999984              -0.000125882               0.001580575               0.999999984               0.000151898               0.001370631               0.999999984               0.000100294               0.001381630               0.999999984               0.000076551               0.001384192               0.999999984               0.000065532               0.001390096               0.999999984               0.000060524               0.001401727               0.999999984               0.000058169               0.001418777               0.999999984               0.000056403               0.001440265               0.999999984               0.000054225               0.001465124               0.999999984               0.000050986               0.001492486               0.999999984               0.000046042               0.001521647               0.999999984               0.000038726               0.001551812               0.999999984               0.000028280               0.001582323               0.999999984               0.000013670               0.001612526               0.999999984              -0.000006021               0.001641843               0.999999984              -0.000031826               0.001669869               0.999999984              -0.000065193               0.001696128               0.999999984              -0.000108255               0.001720098               0.999999984               0.000076339               0.001392686               0.999999984               0.000049939               0.001416492               0.999999984               0.000037291               0.001426742               0.999999984               0.000031197               0.001437354               0.999999984               0.000028335               0.001452057               0.999999984               0.000026789               0.001471492               0.999999984               0.000025702               0.001495122               0.999999984               0.000024545               0.001522178               0.999999984               0.000022819               0.001551937               0.999999984               0.000020212               0.001583788               0.999999984               0.000016533               0.001617271               0.999999984               0.000011229               0.001651787               0.999999984               0.000003642               0.001686674               0.999999984              -0.000006749               0.001721401               0.999999984              -0.000020518               0.001755362               0.999999984              -0.000038721               0.001787812               0.999999984              -0.000063140               0.001817690               0.999999984               0.000000000               0.001400100               0.999999984               0.000000000               0.001428321               0.999999984              -0.000000000               0.001441302               0.999999984               0.000000000               0.001453637               0.999999984              -0.000000000               0.001469559               0.999999984               0.000000000               0.001489933               0.999999984               0.000000000               0.001514361               0.999999984               0.000000000               0.001542236               0.999999984              -0.000000000               0.001572972               0.999999984              -0.000000000               0.001605961               0.999999984              -0.000000000               0.001640673               0.999999984               0.000000000               0.001676690               0.999999984               0.000000000               0.001713300               0.999999984              -0.000000000               0.001749874               0.999999984               0.000000000               0.001785853               0.999999984               0.000000000               0.001820540               0.999999984              -0.000000000               0.001852737               0.999999984 </DataArray>
<DataArray type="Float64"                                    Name="stress"                                                      NumberOfComponents="10" format="ascii">
              0.002249771               0.024387184               0.000000000              -0.002204728               0.008863889               0.006659161               0.000000000               0.000000000               0.000000000               0.000000000               0.002186270               0.018897387               0.000000000              -0.001542318               0.006813172               0.005270854               0.000000000               0.000000000               0.000000000               0.000000000               0.002838121               0.014422311               0.000000000              -0.000738492               0.005053553               0.004315061               0.000000000               0.000000000               0.000000000               0.000000000               0.002666743               0.011887496               0.000000000              -0.000485907               0.004124428               0.003638521               0.000000000               0.000000000               0.000000000               0.000000000               0.002262469               0.010272064              -0.000000000              -0.000435581               0.003569181               0.003133600               0.000000000               0.000000000               0.000000000               0.000000000               0.001828818               0.009146942               0.000000000              -0.000457560               0.003201470               0.002743910               0.000000000               0.000000000               0.000000000               0.000000000               0.001424487               0.008300569               0.000000000              -0.000503387               0.002934625               0.002431237               0.000000000               0.000000000               0.000000000               0.000000000               0.001060688               0.007625741               0.000000000              -0.000555458               0.002727041               0.002171583               0.000000000               0.000000000               0.000000000               0.000000000               0.000744851               0.007055602               0.000000000              -0.000602630               0.002552720               0.001950091               0.000000000               0.000000000               0.000000000               0.000000000               0.000482461               0.006540165               0.000000000              -0.000636596               0.002392232               0.001755636               0.000000000               0.000000000               0.000000000               0.000000000               0.000261626               0.006046739               0.000000000              -0.000657731               0.002234803               0.001577072               0.000000000               0.000000000               0.000000000               0.000000000               0.000085397               0.005553322              -0.000000000              -0.000662140               0.002071802               0.001409662               0.000000000               0.000000000               0.000000000               0.000000000              -0.000041237               0.005038973               0.000000000              -0.000645334               0.001894752               0.001249418               0.000000000               0.000000000               0.000000000               0.000000000              -0.000117849               0.004482603               0.000000000              -0.000604517               0.001695692               0.001091174               0.000000000               0.000000000               0.000000000               0.000000000              -0.000138360               0.003855001               0.000000000              -0.000533759               0.001462907               0.000929148               0.000000000               0.000000000               0.000000000               0.000000000              -0.000091308               0.003136933               0.000000000              -0.000426356               0.001187753               0.000761397               0.000000000               0.000000000               0.000000000               0.000000000              -0.000110146               0.002581268               0.000000000              -0.000363962               0.000981735               0.000617772               0.000000000               0.000000000               0.000000000               0.000000000               0.002325648               0.023877500              -0.001648233              -0.002112565               0.008663275               0.006550711               0.000000000               0.000000000               0.000000000               0.000000000               0.002134341               0.018572855              -0.000792359              -0.001521225               0.006697965               0.005176739               0.000000000               0.000000000               0.000000000               0.000000000               0.002648509               0.014290486               0.000054661              -0.000793118               0.005027820               0.004234702               0.000000000               0.000000000               0.000000000               0.000000000               0.002422906               0.011853903               0.000402245              -0.000573147               0.004142310               0.003569164               0.000000000               0.000000000               0.000000000               0.000000000               0.002007775               0.010291958               0.000536910              -0.000533578               0.003608478               0.003074900               0.000000000               0.000000000               0.000000000               0.000000000               0.001583714               0.009193356               0.000581874              -0.000555275               0.003249513               0.002694238               0.000000000               0.000000000               0.000000000               0.000000000               0.001197028               0.008365253               0.000587662              -0.000596770               0.002987313               0.002390543               0.000000000               0.000000000               0.000000000               0.000000000               0.000855721               0.007702063               0.000575280              -0.000641861               0.002781282               0.002139421               0.000000000               0.000000000               0.000000000               0.000000000               0.000562395               0.007132222               0.000549710              -0.000680628               0.002604260               0.001923632               0.000000000               0.000000000               0.000000000               0.000000000               0.000323949               0.006610958               0.000517613              -0.000704887               0.002438593               0.001733706               0.000000000               0.000000000               0.000000000               0.000000000               0.000136666               0.006111502               0.000484490              -0.000712686               0.002274709               0.001562023               0.000000000               0.000000000               0.000000000               0.000000000              -0.000003269               0.005613581               0.000447523              -0.000702922               0.002105482               0.001402560               0.000000000               0.000000000               0.000000000               0.000000000              -0.000095379               0.005100018               0.000404188              -0.000673268               0.001924411               0.001251144               0.000000000               0.000000000               0.000000000               0.000000000              -0.000143121               0.004552464               0.000344123              -0.000622727               0.001725048               0.001102321               0.000000000               0.000000000               0.000000000               0.000000000              -0.000142436               0.003954760               0.000258448              -0.000547757               0.001500826               0.000953069               0.000000000               0.000000000               0.000000000               0.000000000              -0.000086647               0.003293144               0.000142781              -0.000444135               0.001245748               0.000801614               0.000000000               0.000000000               0.000000000               0.000000000              -0.000099446               0.002793780               0.000087399              -0.000386514               0.001060089               0.000673575               0.000000000               0.000000000               0.000000000               0.000000000               0.002503816               0.022415148              -0.003054111              -0.001862959               0.008092627               0.006229668               0.000000000               0.000000000               0.000000000               0.000000000               0.001958717               0.017646081              -0.001467208              -0.001471238               0.006372381               0.004901143               0.000000000               0.000000000               0.000000000               0.000000000               0.002094903               0.013913682               0.000088402              -0.000953619               0.004955721               0.004002101               0.000000000               0.000000000               0.000000000               0.000000000               0.001739682               0.011752652               0.000706914              -0.000816699               0.004189744               0.003373046               0.000000000               0.000000000               0.000000000               0.000000000               0.001308150               0.010332830               0.000937698              -0.000801046               0.003711257               0.002910212               0.000000000               0.000000000               0.000000000               0.000000000               0.000912810               0.009310494               0.001010526              -0.000821506               0.003377302               0.002555796               0.000000000               0.000000000               0.000000000               0.000000000               0.000578529               0.008528108               0.001017242              -0.000849063               0.003125695               0.002276632               0.000000000               0.000000000               0.000000000               0.000000000               0.000305147               0.007885414               0.000989783              -0.000871245               0.002918860               0.002047615               0.000000000               0.000000000               0.000000000               0.000000000               0.000088797               0.007313766               0.000938998              -0.000880920               0.002731538               0.001850618               0.000000000               0.000000000               0.000000000               0.000000000              -0.000070678               0.006778439               0.000880911              -0.000873807               0.002550726               0.001676919               0.000000000               0.000000000               0.000000000               0.000000000              -0.000179524               0.006262672               0.000822720              -0.000850153               0.002370921               0.001520767               0.000000000               0.000000000               0.000000000               0.000000000              -0.000238148               0.005755086               0.000758138              -0.000808689               0.002187906               0.001379216               0.000000000               0.000000000               0.000000000               0.000000000              -0.000249779               0.005248601               0.000679301              -0.000749741               0.001999430               0.001249689               0.000000000               0.000000000               0.000000000               0.000000000              -0.000227672               0.004735915               0.000573252              -0.000677365               0.001804411               0.001127046               0.000000000               0.000000000               0.000000000               0.000000000              -0.000176653               0.004217152               0.000428037              -0.000593388               0.001603499               0.001010111               0.000000000               0.000000000               0.000000000               0.000000000              -0.000096840               0.003697396               0.000235105              -0.000498488               0.001398616               0.000900127               0.000000000               0.000000000               0.000000000               0.000000000              -0.000089491               0.003336180               0.000141229              -0.000450581               0.001262243               0.000811662               0.000000000               0.000000000               0.000000000               0.000000000               0.002668986               0.020196133              -0.004043594              -0.001523646               0.007239858               0.005716213               0.000000000               0.000000000               0.000000000               0.000000000               0.001634398               0.016253406              -0.001948356              -0.001418774               0.005890672               0.004471898               0.000000000               0.000000000               0.000000000               0.000000000               0.001249564               0.013344800               0.000077688              -0.001199510               0.004848059               0.003648548               0.000000000               0.000000000               0.000000000               0.000000000               0.000746009               0.011576565               0.000839908              -0.001167315               0.004247921               0.003080607               0.000000000               0.000000000               0.000000000               0.000000000               0.000323115               0.010348617               0.001108121              -0.001172407               0.003840307               0.002667900               0.000000000               0.000000000               0.000000000               0.000000000              -0.000004316               0.009429821               0.001186192              -0.001180344               0.003536690               0.002356346               0.000000000               0.000000000               0.000000000               0.000000000              -0.000247695               0.008691420               0.001187747              -0.001179311               0.003290214               0.002110904               0.000000000               0.000000000               0.000000000               0.000000000              -0.000416645               0.008056871               0.001148484              -0.001163348               0.003073379               0.001910031               0.000000000               0.000000000               0.000000000               0.000000000              -0.000522385               0.007475326               0.001082149              -0.001130308               0.002868520               0.001738212               0.000000000               0.000000000               0.000000000               0.000000000              -0.000565277               0.006924908               0.001009616              -0.001077590               0.002667476               0.001589886               0.000000000               0.000000000               0.000000000               0.000000000              -0.000555247               0.006398449               0.000937794              -0.001008021               0.002468802               0.001460781               0.000000000               0.000000000               0.000000000               0.000000000              -0.000506607               0.005891476               0.000856391              -0.000926410               0.002272609               0.001346199               0.000000000               0.000000000               0.000000000               0.000000000              -0.000424966               0.005407191               0.000757322              -0.000835259               0.002080799               0.001245539               0.000000000               0.000000000               0.000000000               0.000000000              -0.000321117               0.004951519               0.000627430              -0.000739357               0.001896942               0.001157585               0.000000000               0.000000000               0.000000000               0.000000000              -0.000213633               0.004533903               0.000458975              -0.000646849               0.001726902               0.001080053               0.000000000               0.000000000               0.000000000               0.000000000              -0.000107611               0.004175476               0.000249558              -0.000562287               0.001579240               0.001016953               0.000000000               0.000000000               0.000000000               0.000000000              -0.000076116               0.003964358               0.000145896              -0.000524087               0.001496135               0.000972048               0.000000000               0.000000000               0.000000000               0.000000000               0.002671146               0.017496079              -0.004528606              -0.001185331               0.006227077               0.005041747               0.000000000               0.000000000               0.000000000               0.000000000               0.001133771               0.014586980              -0.002212495              -0.001398206               0.005328347               0.003930140               0.000000000               0.000000000               0.000000000               0.000000000               0.000215882               0.012651305              -0.000009878              -0.001500454               0.004717211               0.003216757               0.000000000               0.000000000               0.000000000               0.000000000              -0.000387321               0.011307894               0.000764009              -0.001558728               0.004288836               0.002730108               0.000000000               0.000000000               0.000000000               0.000000000              -0.000748107               0.010281820               0.001019919              -0.001565764               0.003949160               0.002383396               0.000000000               0.000000000               0.000000000               0.000000000              -0.000961660               0.009454448               0.001088061              -0.001542425               0.003665593               0.002123168               0.000000000               0.000000000               0.000000000               0.000000000              -0.001077845               0.008744743               0.001087461              -0.001497281               0.003413979               0.001916697               0.000000000               0.000000000               0.000000000               0.000000000              -0.001108109               0.008110715               0.001051306              -0.001429377               0.003180003               0.001750626               0.000000000               0.000000000               0.000000000               0.000000000              -0.001075936               0.007516307               0.000985831              -0.001343011               0.002953081               0.001610070               0.000000000               0.000000000               0.000000000               0.000000000              -0.000994017               0.006955178               0.000911931              -0.001242151               0.002732420               0.001490269               0.000000000               0.000000000               0.000000000               0.000000000              -0.000871860               0.006427945               0.000836125              -0.001130438               0.002519439               0.001389001               0.000000000               0.000000000               0.000000000               0.000000000              -0.000722680               0.005937942               0.000748680              -0.001013246               0.002317043               0.001303797               0.000000000               0.000000000               0.000000000               0.000000000              -0.000557386               0.005492709               0.000643166              -0.000895606               0.002129420               0.001233814               0.000000000               0.000000000               0.000000000               0.000000000              -0.000391280               0.005100670               0.000511975              -0.000784312               0.001961644               0.001177331               0.000000000               0.000000000               0.000000000               0.000000000              -0.000238078               0.004777341               0.000357051              -0.000686445               0.001821246               0.001134801               0.000000000               0.000000000               0.000000000               0.000000000              -0.000106961               0.004544724               0.000185849              -0.000608199               0.001717626               0.001109427               0.000000000               0.000000000               0.000000000               0.000000000              -0.000058531               0.004435794               0.000103391              -0.000576422               0.001670724               0.001094302               0.000000000               0.000000000               0.000000000               0.000000000               0.002385485               0.014585424              -0.004519294              -0.000928623               0.005171299               0.004242676               0.000000000               0.000000000               0.000000000               0.000000000               0.000449530               0.012824115              -0.002289495              -0.001434438               0.004752808               0.003318369               0.000000000               0.000000000               0.000000000               0.000000000              -0.000897320               0.011892185              -0.000198915              -0.001823014               0.004571693               0.002748680               0.000000000               0.000000000               0.000000000               0.000000000              -0.001490411               0.010939700               0.000491166              -0.001926362               0.004288651               0.002362289               0.000000000               0.000000000               0.000000000               0.000000000              -0.001724971               0.010084373               0.000711107              -0.001907406               0.003997226               0.002089820               0.000000000               0.000000000               0.000000000               0.000000000              -0.001783787               0.009327012               0.000773867              -0.001834792               0.003720570               0.001885778               0.000000000               0.000000000               0.000000000               0.000000000              -0.001738900               0.008639793               0.000786108              -0.001732058               0.003457255               0.001725197               0.000000000               0.000000000               0.000000000               0.000000000              -0.001623323               0.008000234               0.000766144              -0.001608772               0.003202975               0.001594203               0.000000000               0.000000000               0.000000000               0.000000000              -0.001457601               0.007397035               0.000715724              -0.001471226               0.002956062               0.001484836               0.000000000               0.000000000               0.000000000               0.000000000              -0.001258370               0.006839371               0.000655853              -0.001326807               0.002722036               0.001395229               0.000000000               0.000000000               0.000000000               0.000000000              -0.001043142               0.006332260               0.000591492              -0.001182708               0.002504968               0.001322260               0.000000000               0.000000000               0.000000000               0.000000000              -0.000819076               0.005880298               0.000516410              -0.001042188               0.002307476               0.001265288               0.000000000               0.000000000               0.000000000               0.000000000              -0.000599839               0.005491682               0.000426659              -0.000911398               0.002134341               0.001222944               0.000000000               0.000000000               0.000000000               0.000000000              -0.000401445               0.005171181               0.000319503              -0.000796937               0.001989355               0.001192418               0.000000000               0.000000000               0.000000000               0.000000000              -0.000232390               0.004930278               0.000206519              -0.000703429               0.001877886               0.001174457               0.000000000               0.000000000               0.000000000               0.000000000              -0.000099333               0.004780831               0.000100700              -0.000634852               0.001805212               0.001170360               0.000000000               0.000000000               0.000000000               0.000000000              -0.000049524               0.004722041               0.000054070              -0.000608825               0.001776940               0.001168115               0.000000000               0.000000000               0.000000000               0.000000000               0.001743663               0.011705345              -0.004098519              -0.000809296               0.004171507               0.003362211               0.000000000               0.000000000               0.000000000               0.000000000              -0.000374402               0.011101582              -0.002236541              -0.001528096               0.004209855               0.002681759               0.000000000               0.000000000               0.000000000               0.000000000              -0.001962115               0.011091646              -0.000497265              -0.002122244               0.004404593               0.002282349               0.000000000               0.000000000               0.000000000               0.000000000              -0.002428681               0.010464483               0.000059518              -0.002218810               0.004227730               0.002008919               0.000000000               0.000000000               0.000000000               0.000000000              -0.002475538               0.009741824               0.000254676              -0.002146049               0.003962592               0.001816543               0.000000000               0.000000000               0.000000000               0.000000000              -0.002356501               0.009035315               0.000333021              -0.002013097               0.003682774               0.001669677               0.000000000               0.000000000               0.000000000               0.000000000              -0.002154459               0.008363257               0.000373676              -0.001853325               0.003405500               0.001552175               0.000000000               0.000000000               0.000000000               0.000000000              -0.001898556               0.007731666               0.000386046              -0.001678412               0.003136667               0.001458255               0.000000000               0.000000000               0.000000000               0.000000000              -0.001613639               0.007142646               0.000368808              -0.001497942               0.002880172               0.001382231               0.000000000               0.000000000               0.000000000               0.000000000              -0.001316769               0.006613255               0.000341461              -0.001320442               0.002644544               0.001324102               0.000000000               0.000000000               0.000000000               0.000000000              -0.001029723               0.006150796               0.000307948              -0.001154993               0.002435242               0.001280250               0.000000000               0.000000000               0.000000000               0.000000000              -0.000762675               0.005755167               0.000264477              -0.001005396               0.002253502               0.001248106               0.000000000               0.000000000               0.000000000               0.000000000              -0.000523827               0.005430932               0.000210474              -0.000875299               0.002102059               0.001226760               0.000000000               0.000000000               0.000000000               0.000000000              -0.000325491               0.005183681               0.000144493              -0.000770017               0.001984549               0.001214531               0.000000000               0.000000000               0.000000000               0.000000000              -0.000173554               0.005017018               0.000082424              -0.000692208               0.001903059               0.001210850               0.000000000               0.000000000               0.000000000               0.000000000              -0.000069105               0.004924119               0.000036404              -0.000641428               0.001855166               0.001213738               0.000000000               0.000000000               0.000000000               0.000000000              -0.000033571               0.004890533               0.000019997              -0.000623904               0.001838129               0.001214225               0.000000000               0.000000000               0.000000000               0.000000000               0.000767512               0.009033817              -0.003379147              -0.000841411               0.003291711               0.002450300               0.000000000               0.000000000               0.000000000               0.000000000              -0.001291832               0.009516327              -0.002115121              -0.001673975               0.003730069               0.002056093               0.000000000               0.000000000               0.000000000               0.000000000              -0.002868112               0.010251821              -0.000896002              -0.002357014               0.004202911               0.001845897               0.000000000               0.000000000               0.000000000               0.000000000              -0.003105782               0.009872279              -0.000459573              -0.002398697               0.004090292               0.001691595               0.000000000               0.000000000               0.000000000               0.000000000              -0.002946362               0.009257715              -0.000257920              -0.002262095               0.003839906               0.001577811               0.000000000               0.000000000               0.000000000               0.000000000              -0.002658578               0.008603589              -0.000141479              -0.002072410               0.003558638               0.001486227               0.000000000               0.000000000               0.000000000               0.000000000              -0.002313290               0.007968674              -0.000055182              -0.001863563               0.003277386               0.001413822               0.000000000               0.000000000               0.000000000               0.000000000              -0.001935517               0.007367324               0.000003163              -0.001646730               0.003004660               0.001357930               0.000000000               0.000000000               0.000000000               0.000000000              -0.001551681               0.006814410               0.000031076              -0.001433678               0.002749340               0.001315662               0.000000000               0.000000000               0.000000000               0.000000000              -0.001182954               0.006334298               0.000050904              -0.001235392               0.002523209               0.001287817               0.000000000               0.000000000               0.000000000               0.000000000              -0.000850924               0.005927657               0.000062239              -0.001060051               0.002329216               0.001269165               0.000000000               0.000000000               0.000000000               0.000000000              -0.000572265               0.005591054               0.000059475              -0.000913479               0.002168159               0.001254680               0.000000000               0.000000000               0.000000000               0.000000000              -0.000350713               0.005328106               0.000048579              -0.000797529               0.002041861               0.001244332               0.000000000               0.000000000               0.000000000               0.000000000              -0.000186466               0.005145542               0.000029820              -0.000713116               0.001952869               0.001239753               0.000000000               0.000000000               0.000000000               0.000000000              -0.000078183               0.005037408               0.000011355              -0.000658993               0.001898783               0.001239791               0.000000000               0.000000000               0.000000000               0.000000000              -0.000021938               0.004983736               0.000002962              -0.000631192               0.001871626               0.001240434               0.000000000               0.000000000               0.000000000               0.000000000              -0.000007492               0.004966222               0.000002760              -0.000623586               0.001863253               0.001239667               0.000000000               0.000000000               0.000000000               0.000000000              -0.000403769               0.006768518              -0.002489672              -0.000997477               0.002588642               0.001591164               0.000000000               0.000000000               0.000000000               0.000000000              -0.002187794               0.008097392              -0.001974951              -0.001832593               0.003309967               0.001477374               0.000000000               0.000000000               0.000000000               0.000000000              -0.003572834               0.009413560              -0.001370008              -0.002516502               0.003976656               0.001460154               0.000000000               0.000000000               0.000000000               0.000000000              -0.003564584               0.009286532              -0.001008359              -0.002497529               0.003927989               0.001430460               0.000000000               0.000000000               0.000000000               0.000000000              -0.003228967               0.008809745              -0.000773191              -0.002312075               0.003707244               0.001395169               0.000000000               0.000000000               0.000000000               0.000000000              -0.002806183               0.008246953              -0.000603880              -0.002083183               0.003443351               0.001360168               0.000000000               0.000000000               0.000000000               0.000000000              -0.002351723               0.007679573              -0.000471683              -0.001841838               0.003173778               0.001331940               0.000000000               0.000000000               0.000000000               0.000000000              -0.001884246               0.007128749              -0.000367604              -0.001597682               0.002908786               0.001311105               0.000000000               0.000000000               0.000000000               0.000000000              -0.001422862               0.006625692              -0.000285121              -0.001361781               0.002662469               0.001300688               0.000000000               0.000000000               0.000000000               0.000000000              -0.001000277               0.006192295              -0.000211960              -0.001149138               0.002447124               0.001297986               0.000000000               0.000000000               0.000000000               0.000000000              -0.000643248               0.005820980              -0.000150139              -0.000968838               0.002263253               0.001294415               0.000000000               0.000000000               0.000000000               0.000000000              -0.000366230               0.005512440              -0.000101889              -0.000826389               0.002112925               0.001286536               0.000000000               0.000000000               0.000000000               0.000000000              -0.000170532               0.005279065              -0.000063560              -0.000723831               0.002000948               0.001277117               0.000000000               0.000000000               0.000000000               0.000000000              -0.000049918               0.005121152              -0.000034918              -0.000658862               0.001926654               0.001267793               0.000000000               0.000000000               0.000000000               0.000000000               0.000008804               0.005032871              -0.000015620              -0.000625806               0.001886209               0.001260403               0.000000000               0.000000000               0.000000000               0.000000000               0.000021603               0.004996988              -0.000003769              -0.000616521               0.001871153               0.001254632               0.000000000               0.000000000               0.000000000               0.000000000               0.000017819               0.004987655               0.000000850              -0.000616773               0.001868126               0.001251353               0.000000000               0.000000000               0.000000000               0.000000000              -0.001784685               0.004671368              -0.001545913              -0.001253176               0.001974832               0.000721656               0.000000000               0.000000000               0.000000000               0.000000000              -0.002946371               0.006462559              -0.001813822              -0.001912705               0.002791733               0.000879028               0.000000000               0.000000000               0.000000000               0.000000000              -0.003993997               0.008195867              -0.001864878              -0.002522227               0.003572670               0.001050444               0.000000000               0.000000000               0.000000000               0.000000000              -0.003847022               0.008452253              -0.001590968              -0.002499159               0.003650442               0.001151283               0.000000000               0.000000000               0.000000000               0.000000000              -0.003428034               0.008241433              -0.001324810              -0.002315687               0.003519012               0.001203326               0.000000000               0.000000000               0.000000000               0.000000000              -0.002954466               0.007871973              -0.001103737              -0.002091917               0.003321270               0.001229354               0.000000000               0.000000000               0.000000000               0.000000000              -0.002468883               0.007457471              -0.000928333              -0.001858010               0.003105136               0.001247125               0.000000000               0.000000000               0.000000000               0.000000000              -0.001981095               0.007039041              -0.000780429              -0.001622787               0.002887253               0.001264466               0.000000000               0.000000000               0.000000000               0.000000000              -0.001504105               0.006632260              -0.000646744              -0.001393069               0.002675087               0.001282019               0.000000000               0.000000000               0.000000000               0.000000000              -0.001060086               0.006258788              -0.000522905              -0.001179878               0.002479534               0.001299657               0.000000000               0.000000000               0.000000000               0.000000000              -0.000675795               0.005924792              -0.000408250              -0.000994020               0.002306251               0.001312231               0.000000000               0.000000000               0.000000000               0.000000000              -0.000368751               0.005630352              -0.000301426              -0.000842074               0.002157456               0.001315383               0.000000000               0.000000000               0.000000000               0.000000000              -0.000149731               0.005386252              -0.000204036              -0.000729429               0.002038542               0.001309114               0.000000000               0.000000000               0.000000000               0.000000000              -0.000014116               0.005199595              -0.000121978              -0.000655241               0.001951595               0.001296354               0.000000000               0.000000000               0.000000000               0.000000000               0.000055063               0.005081769              -0.000057201              -0.000614571               0.001898763               0.001284192               0.000000000               0.000000000               0.000000000               0.000000000               0.000072179               0.005022693              -0.000016067              -0.000600768               0.001874470               0.001273702               0.000000000               0.000000000               0.000000000               0.000000000               0.000064982               0.005001026              -0.000001552              -0.000600759               0.001867245               0.001266486               0.000000000               0.000000000               0.000000000               0.000000000              -0.003556741               0.002768301              -0.000618083              -0.001679812               0.001482694              -0.000197118               0.000000000               0.000000000               0.000000000               0.000000000              -0.003806999               0.004811413              -0.001578272              -0.002029047               0.002280137               0.000251090               0.000000000               0.000000000               0.000000000               0.000000000              -0.004324623               0.006771952              -0.002254942              -0.002468222               0.003080035               0.000611813               0.000000000               0.000000000               0.000000000               0.000000000              -0.004044490               0.007399288              -0.002146230              -0.002441589               0.003280267               0.000838678               0.000000000               0.000000000               0.000000000               0.000000000              -0.003571330               0.007495569              -0.001892616              -0.002276190               0.003257227               0.000981038               0.000000000               0.000000000               0.000000000               0.000000000              -0.003068477               0.007368306              -0.001639540              -0.002071713               0.003146648               0.001074935               0.000000000               0.000000000               0.000000000               0.000000000              -0.002571162               0.007151131              -0.001424851              -0.001858073               0.003003044               0.001144971               0.000000000               0.000000000               0.000000000               0.000000000              -0.002084936               0.006886269              -0.001240000              -0.001642631               0.002842943               0.001200313               0.000000000               0.000000000               0.000000000               0.000000000              -0.001610104               0.006594866              -0.001068896              -0.001428144               0.002674314               0.001246170               0.000000000               0.000000000               0.000000000               0.000000000              -0.001155990               0.006303194              -0.000904338              -0.001221393               0.002508174               0.001286782               0.000000000               0.000000000               0.000000000               0.000000000              -0.000743434               0.006022434              -0.000745211              -0.001031590               0.002351321               0.001319731               0.000000000               0.000000000               0.000000000               0.000000000              -0.000392405               0.005756691              -0.000586798              -0.000866736               0.002207790               0.001341054               0.000000000               0.000000000               0.000000000               0.000000000              -0.000116923               0.005514381              -0.000431706              -0.000733142               0.002082489               0.001349347               0.000000000               0.000000000               0.000000000               0.000000000               0.000070273               0.005307231              -0.000289751              -0.000637050               0.001981409               0.001344359               0.000000000               0.000000000               0.000000000               0.000000000               0.000176057               0.005157330              -0.000164540              -0.000578643               0.001911974               0.001333330               0.000000000               0.000000000               0.000000000               0.000000000               0.000207798               0.005059836              -0.000065432              -0.000554554               0.001871446               0.001316893               0.000000000               0.000000000               0.000000000               0.000000000               0.000195466               0.005016040              -0.000021993              -0.000553704               0.001856565               0.001302861               0.000000000               0.000000000               0.000000000               0.000000000              -0.005590778               0.001205357               0.000210229              -0.002247209               0.001150847              -0.001096361               0.000000000               0.000000000               0.000000000               0.000000000              -0.004812304               0.003251396              -0.001252299              -0.002211034               0.001820797              -0.000390237               0.000000000               0.000000000               0.000000000               0.000000000              -0.004593396               0.005162403              -0.002424926              -0.002367819               0.002510056               0.000142237               0.000000000               0.000000000               0.000000000               0.000000000              -0.004096662               0.006049539              -0.002524432              -0.002292436               0.002780637               0.000488201               0.000000000               0.000000000               0.000000000               0.000000000              -0.003555833               0.006431220              -0.002338645              -0.002137335               0.002856163               0.000718828               0.000000000               0.000000000               0.000000000               0.000000000              -0.003028258               0.006562177              -0.002095899              -0.001955865               0.002839325               0.000883460               0.000000000               0.000000000               0.000000000               0.000000000              -0.002527732               0.006559841              -0.001866185              -0.001767876               0.002775883               0.001008007               0.000000000               0.000000000               0.000000000               0.000000000              -0.002048848               0.006472425              -0.001658428              -0.001577368               0.002683242               0.001105875               0.000000000               0.000000000               0.000000000               0.000000000              -0.001586775               0.006329019              -0.001464030              -0.001386165               0.002571707               0.001185542               0.000000000               0.000000000               0.000000000               0.000000000              -0.001139267               0.006151059              -0.001277928              -0.001196105               0.002449034               0.001252929               0.000000000               0.000000000               0.000000000               0.000000000              -0.000713761               0.005953906              -0.001094725              -0.001011896               0.002321914               0.001310018               0.000000000               0.000000000               0.000000000               0.000000000              -0.000328758               0.005748692              -0.000908491              -0.000841869               0.002196835               0.001354965               0.000000000               0.000000000               0.000000000               0.000000000               0.000003606               0.005545146              -0.000716796              -0.000691790               0.002078960               0.001387170               0.000000000               0.000000000               0.000000000               0.000000000               0.000261379               0.005358354              -0.000522000              -0.000571776               0.001976692               0.001404916               0.000000000               0.000000000               0.000000000               0.000000000               0.000423547               0.005200655              -0.000331431              -0.000491250               0.001897284               0.001406034               0.000000000               0.000000000               0.000000000               0.000000000               0.000486177               0.005081588              -0.000154361              -0.000452881               0.001844806               0.001391925               0.000000000               0.000000000               0.000000000               0.000000000               0.000479250               0.005027183              -0.000067595              -0.000448678               0.001825270               0.001376592               0.000000000               0.000000000               0.000000000               0.000000000              -0.007744019               0.000079389               0.000821238              -0.002913928               0.000997765              -0.001916163               0.000000000               0.000000000               0.000000000               0.000000000              -0.005903705               0.001877399              -0.000886678              -0.002448561               0.001441976              -0.001006584               0.000000000               0.000000000               0.000000000               0.000000000              -0.004828086               0.003509927              -0.002346408              -0.002249269               0.001919718              -0.000329551               0.000000000               0.000000000               0.000000000               0.000000000              -0.004037590               0.004523183              -0.002629620              -0.002079490               0.002200874               0.000121385               0.000000000               0.000000000               0.000000000               0.000000000              -0.003394655               0.005133141              -0.002543195              -0.001914635               0.002349240               0.000434606               0.000000000               0.000000000               0.000000000               0.000000000              -0.002832852               0.005496351              -0.002349527              -0.001749360               0.002415218               0.000665858               0.000000000               0.000000000               0.000000000               0.000000000              -0.002332642               0.005697156              -0.002138321              -0.001586882               0.002427993               0.000841111               0.000000000               0.000000000               0.000000000               0.000000000              -0.001871031               0.005793383              -0.001933334              -0.001425807               0.002406377               0.000980570               0.000000000               0.000000000               0.000000000               0.000000000              -0.001425166               0.005816874              -0.001737893              -0.001261544               0.002359453               0.001097909               0.000000000               0.000000000               0.000000000               0.000000000              -0.000985139               0.005783620              -0.001553181              -0.001092378               0.002291980               0.001199602               0.000000000               0.000000000               0.000000000               0.000000000              -0.000554844               0.005705128              -0.001369886              -0.000921206               0.002208758               0.001287553               0.000000000               0.000000000               0.000000000               0.000000000              -0.000143360               0.005594202              -0.001181557              -0.000753034               0.002115727               0.001362693               0.000000000               0.000000000               0.000000000               0.000000000               0.000238334               0.005465450              -0.000981193              -0.000593805               0.002019733               0.001425928               0.000000000               0.000000000               0.000000000               0.000000000               0.000571394               0.005334243              -0.000757537              -0.000452507               0.001928899               0.001476392               0.000000000               0.000000000               0.000000000               0.000000000               0.000824423               0.005204296              -0.000514280              -0.000341378               0.001848541               0.001507163               0.000000000               0.000000000               0.000000000               0.000000000               0.000972331               0.005092370              -0.000260213              -0.000271922               0.001788080               0.001516159               0.000000000               0.000000000               0.000000000               0.000000000               0.001012306               0.005042490              -0.000130107              -0.000250696               0.001764379               0.001513683               0.000000000               0.000000000               0.000000000               0.000000000              -0.009812862              -0.000624087               0.001104954              -0.003601810               0.000992567              -0.002609243               0.000000000               0.000000000               0.000000000               0.000000000              -0.006987109               0.000770695              -0.000545518              -0.002716500               0.001162390              -0.001554110               0.000000000               0.000000000               0.000000000               0.000000000              -0.005045450               0.001981502              -0.002017781              -0.002139728               0.001373733              -0.000765995               0.000000000               0.000000000               0.000000000               0.000000000              -0.003914284               0.002996984              -0.002402537              -0.001842476               0.001613141              -0.000229335               0.000000000               0.000000000               0.000000000               0.000000000              -0.003134942               0.003749408              -0.002408715              -0.001644276               0.001797881               0.000153605               0.000000000               0.000000000               0.000000000               0.000000000              -0.002527763               0.004287994              -0.002282024              -0.001483908               0.001923952               0.000440044               0.000000000               0.000000000               0.000000000               0.000000000              -0.002020630               0.004665605              -0.002115082              -0.001340935               0.002002163               0.000661229               0.000000000               0.000000000               0.000000000               0.000000000              -0.001569630               0.004932623              -0.001943865              -0.001205187               0.002045920               0.000840732               0.000000000               0.000000000               0.000000000               0.000000000              -0.001137857               0.005121250              -0.001778567              -0.001066851               0.002062683               0.000995832               0.000000000               0.000000000               0.000000000               0.000000000              -0.000709271               0.005242607              -0.001618972              -0.000921301               0.002054618               0.001133317               0.000000000               0.000000000               0.000000000               0.000000000              -0.000280697               0.005300103              -0.001457886              -0.000767773               0.002022607               0.001254834               0.000000000               0.000000000               0.000000000               0.000000000               0.000149302               0.005308623              -0.001292050              -0.000607589               0.001972053               0.001364464               0.000000000               0.000000000               0.000000000               0.000000000               0.000570932               0.005281156              -0.001109055              -0.000446045               0.001909049               0.001463004               0.000000000               0.000000000               0.000000000               0.000000000               0.000977472               0.005231328              -0.000894247              -0.000287364               0.001839546               0.001552182               0.000000000               0.000000000               0.000000000               0.000000000               0.001355183               0.005166039              -0.000642579              -0.000137561               0.001767850               0.001630288               0.000000000               0.000000000               0.000000000               0.000000000               0.001669617               0.005089354              -0.000344110              -0.000010063               0.001699789               0.001689725               0.000000000               0.000000000               0.000000000               0.000000000               0.001836993               0.005060939              -0.000187345               0.000056254               0.001668211               0.001724465               0.000000000               0.000000000               0.000000000               0.000000000              -0.011552620              -0.000995731               0.001014354              -0.004207763               0.001070670              -0.003137093               0.000000000               0.000000000               0.000000000               0.000000000              -0.007929455              -0.000022691              -0.000281196              -0.002970707               0.000982665              -0.001988042               0.000000000               0.000000000               0.000000000               0.000000000              -0.005236974               0.000746113              -0.001473481              -0.002057127               0.000934406              -0.001122721               0.000000000               0.000000000               0.000000000               0.000000000              -0.003774126               0.001681454              -0.001841038              -0.001625477               0.001102302              -0.000523175               0.000000000               0.000000000               0.000000000               0.000000000              -0.002850696               0.002498874              -0.001896881              -0.001381368               0.001293404              -0.000087964               0.000000000               0.000000000               0.000000000               0.000000000              -0.002194692               0.003154367              -0.001830788              -0.001217303               0.001457212               0.000239909               0.000000000               0.000000000               0.000000000               0.000000000              -0.001672531               0.003665849              -0.001722528              -0.001085428               0.001583746               0.000498318               0.000000000               0.000000000               0.000000000               0.000000000              -0.001217465               0.004066045              -0.001606531              -0.000964803               0.001676935               0.000712132               0.000000000               0.000000000               0.000000000               0.000000000              -0.000794464               0.004383912              -0.001490531              -0.000845912               0.001743259               0.000897348               0.000000000               0.000000000               0.000000000               0.000000000              -0.000380298               0.004632189              -0.001375328              -0.000721634               0.001784592               0.001062958               0.000000000               0.000000000               0.000000000               0.000000000               0.000044669               0.004819412              -0.001258761              -0.000585675               0.001801679               0.001216005               0.000000000               0.000000000               0.000000000               0.000000000               0.000487557               0.004953283              -0.001132744              -0.000436326               0.001796520               0.001360193               0.000000000               0.000000000               0.000000000               0.000000000               0.000947647               0.005038357              -0.000989048              -0.000274427               0.001770911               0.001496484               0.000000000               0.000000000               0.000000000               0.000000000               0.001435461               0.005088360              -0.000822215              -0.000097748               0.001728686               0.001630938               0.000000000               0.000000000               0.000000000               0.000000000               0.001953608               0.005104886              -0.000617236               0.000094491               0.001670115               0.001764606               0.000000000               0.000000000               0.000000000               0.000000000               0.002485338               0.005072356              -0.000345279               0.000297954               0.001591450               0.001889404               0.000000000               0.000000000               0.000000000               0.000000000               0.002852010               0.005078321              -0.000201322               0.000434709               0.001547854               0.001982563               0.000000000               0.000000000               0.000000000               0.000000000              -0.012720432              -0.001157500               0.000599618              -0.004625472               0.001155983              -0.003469489               0.000000000               0.000000000               0.000000000               0.000000000              -0.008578995              -0.000496461              -0.000109882              -0.003155063               0.000886195              -0.002268868               0.000000000               0.000000000               0.000000000               0.000000000              -0.005370978              -0.000055784              -0.000775312              -0.002007142               0.000650448              -0.001356694               0.000000000               0.000000000               0.000000000               0.000000000              -0.003666884               0.000787987              -0.001000151              -0.001473578               0.000753849              -0.000719729               0.000000000               0.000000000               0.000000000               0.000000000              -0.002636200               0.001621878              -0.001047493              -0.001191308               0.000937722              -0.000253586               0.000000000               0.000000000               0.000000000               0.000000000              -0.001932405               0.002341171              -0.001022862              -0.001017296               0.001119481               0.000102185               0.000000000               0.000000000               0.000000000               0.000000000              -0.001391085               0.002931520              -0.000973558              -0.000888095               0.001273195               0.000385100               0.000000000               0.000000000               0.000000000               0.000000000              -0.000932112               0.003413336              -0.000916306              -0.000776207               0.001396503               0.000620296               0.000000000               0.000000000               0.000000000               0.000000000              -0.000512007               0.003810310              -0.000856957              -0.000668290               0.001492854               0.000824564               0.000000000               0.000000000               0.000000000               0.000000000              -0.000100818               0.004143157              -0.000799320              -0.000555700               0.001566272               0.001010572               0.000000000               0.000000000               0.000000000               0.000000000               0.000322544               0.004421559              -0.000740008              -0.000431740               0.001617752               0.001186011               0.000000000               0.000000000               0.000000000               0.000000000               0.000773148               0.004641825              -0.000671200              -0.000290297               0.001644025               0.001353728               0.000000000               0.000000000               0.000000000               0.000000000               0.001270136               0.004810924              -0.000591121              -0.000125065               0.001645313               0.001520249               0.000000000               0.000000000               0.000000000               0.000000000               0.001829504               0.004939167              -0.000499036               0.000068667               0.001623483               0.001692151               0.000000000               0.000000000               0.000000000               0.000000000               0.002462270               0.005020862              -0.000383126               0.000295740               0.001575024               0.001870764               0.000000000               0.000000000               0.000000000               0.000000000               0.003180224               0.005033398              -0.000219345               0.000563404               0.001489981               0.002053385               0.000000000               0.000000000               0.000000000               0.000000000               0.003730416               0.005078198              -0.000133305               0.000764124               0.001438008               0.002202132               0.000000000               0.000000000               0.000000000               0.000000000              -0.013132605              -0.001200272               0.000000000              -0.004774690               0.001191465              -0.003583225               0.000000000               0.000000000               0.000000000               0.000000000              -0.008811684              -0.000654510               0.000000000              -0.003222566               0.000856013              -0.002366553               0.000000000               0.000000000               0.000000000               0.000000000              -0.005419804              -0.000335346               0.000000000              -0.001990507               0.000551716              -0.001438790               0.000000000               0.000000000               0.000000000               0.000000000              -0.003628284               0.000470434              -0.000000000              -0.001419409               0.000629944              -0.000789466               0.000000000               0.000000000               0.000000000               0.000000000              -0.002558311               0.001305244               0.000000000              -0.001122520               0.000809249              -0.000313271               0.000000000               0.000000000               0.000000000               0.000000000              -0.001830698               0.002043091               0.000000000              -0.000941896               0.000994989               0.000053093               0.000000000               0.000000000               0.000000000               0.000000000              -0.001281219               0.002657894              -0.000000000              -0.000812692               0.001156853               0.000344161               0.000000000               0.000000000               0.000000000               0.000000000              -0.000822565               0.003168697              -0.000000000              -0.000704548               0.001291071               0.000586523               0.000000000               0.000000000               0.000000000               0.000000000              -0.000400646               0.003596497              -0.000000000              -0.000599803               0.001398755               0.000798952               0.000000000               0.000000000               0.000000000               0.000000000               0.000013052               0.003957911               0.000000000              -0.000489843               0.001482572               0.000992728               0.000000000               0.000000000               0.000000000               0.000000000               0.000436556               0.004266239               0.000000000              -0.000369571               0.001545255               0.001175685               0.000000000               0.000000000               0.000000000               0.000000000               0.000892058               0.004517593               0.000000000              -0.000230177               0.001582575               0.001352398               0.000000000               0.000000000               0.000000000               0.000000000               0.001403331               0.004713229              -0.000000000              -0.000062904               0.001592029               0.001529124               0.000000000               0.000000000               0.000000000               0.000000000               0.001989442               0.004866270              -0.000000000               0.000137755               0.001576155               0.001713911               0.000000000               0.000000000               0.000000000               0.000000000               0.002665590               0.004974726               0.000000000               0.000377752               0.001532308               0.001910060               0.000000000               0.000000000               0.000000000               0.000000000               0.003456005               0.005012811              -0.000000000               0.000669394               0.001447789               0.002117183               0.000000000               0.000000000               0.000000000               0.000000000               0.004078748               0.005077588              -0.000000000               0.000894823               0.001394238               0.002289061               0.000000000               0.000000000               0.000000000               0.000000000               0.000000000               0.000000000               0.000000000               0.000000000               0.000000000               0.000000000               0.000000000               0.000000000               0.000000000               0.000000000               0.000000000               0.000000000               0.000000000               0.000000000               0.000000000               0.000000000               0.000000000               0.000000000               0.000000000               0.000000000               0.000000000               0.000000000               0.000000000               0.000000000               0.000000000               0.000000000               0.000000000               0.000000000               0.000000000               0.000000000               0.000000000               0.000000000               0.000000000               0.000000000               0.000000000               0.000000000               0.000000000               0.000000000               0.000000000               0.000000000               0.000000000               0.000000000               0.000000000               0.000000000               0.000000000               0.000000000               0.000000000               0.000000000               0.000000000               0.000000000               0.000000000               0.000000000               0.000000000               0.000000000               0.000000000               0.000000000               0.000000000               0.000000000               0.000000000               0.000000000               0.000000000               0.000000000               0.000000000               0.000000000               0.000000000               0.000000000               0.000000000               0.000000000               0.000000000               0.000000000               0.000000000               0.000000000               0.000000000               0.000000000               0.000000000               0.000000000               0.000000000               0.000000000               0.000000000               0.000000000               0.000000000               0.000000000               0.000000000               0.000000000               0.000000000               0.000000000               0.000000000               0.000000000               0.000000000               0.000000000               0.000000000               0.000000000               0.000000000               0.000000000               0.000000000               0.000000000               0.000000000               0.000000000               0.000000000               0.000000000               0.000000000               0.000000000               0.000000000               0.000000000               0.000000000               0.000000000               0.000000000               0.000000000               0.000000000               0.000000000               0.000000000               0.000000000               0.000000000               0.000000000               0.000000000               0.000000000               0.000000000               0.000000000               0.000000000               0.000000000               0.000000000               0.000000000               0.000000000               0.000000000               0.000000000               0.000000000               0.000000000               0.000000000               0.000000000               0.000000000               0.000000000               0.000000000               0.000000000               0.000000000               0.000000000               0.000000000               0.000000000               0.000000000               0.000000000               0.000000000               0.000000000               0.000000000               0.000000000               0.000000000               0.000000000               0.000000000               0.000000000               0.000000000               0.000000000               0.000000000               0.000000000               0.000000000               0.000000000               0.000000000               0.000000000               0.000000000               0.000000000               0.000000000               0.000000000               0.000000000               0.000000000               0.000000000               0.000000000               0.000000000               0.000000000               0.000000000               0.000000000               0.000000000               0.000000000               0.000000000               0.002325648               0.023877500               0.001648233              -0.002112565               0.008663275               0.006550711               0.000000000               0.000000000               0.000000000               0.000000000               0.002134341               0.018572855               0.000792359              -0.001521225               0.006697965               0.005176739               0.000000000               0.000000000               0.000000000               0.000000000               0.002648509               0.014290486              -0.000054661              -0.000793118               0.005027820               0.004234702               0.000000000               0.000000000               0.000000000               0.000000000               0.002422906               0.011853903              -0.000402245              -0.000573147               0.004142310               0.003569164               0.000000000               0.000000000               0.000000000               0.000000000               0.002007775               0.010291958              -0.000536910              -0.000533578               0.003608478               0.003074900               0.000000000               0.000000000               0.000000000               0.000000000               0.001583714               0.009193356              -0.000581874              -0.000555275               0.003249513               0.002694238               0.000000000               0.000000000               0.000000000               0.000000000               0.001197028               0.008365253              -0.000587662              -0.000596770               0.002987313               0.002390543               0.000000000               0.000000000               0.000000000               0.000000000               0.000855721               0.007702063              -0.000575280              -0.000641861               0.002781282               0.002139421               0.000000000               0.000000000               0.000000000               0.000000000               0.000562395               0.007132222              -0.000549710              -0.000680628               0.002604260               0.001923632               0.000000000               0.000000000               0.000000000               0.000000000               0.000323949               0.006610958              -0.000517613              -0.000704887               0.002438593               0.001733706               0.000000000               0.000000000               0.000000000               0.000000000               0.000136666               0.006111502              -0.000484490              -0.000712686               0.002274709               0.001562023               0.000000000               0.000000000               0.000000000               0.000000000              -0.000003269               0.005613581              -0.000447523              -0.000702922               0.002105482               0.001402560               0.000000000               0.000000000               0.000000000               0.000000000              -0.000095379               0.005100018              -0.000404188              -0.000673268               0.001924411               0.001251144               0.000000000               0.000000000               0.000000000               0.000000000              -0.000143121               0.004552464              -0.000344123              -0.000622727               0.001725048               0.001102321               0.000000000               0.000000000               0.000000000               0.000000000              -0.000142436               0.003954760              -0.000258448              -0.000547757               0.001500826               0.000953069               0.000000000               0.000000000               0.000000000               0.000000000              -0.000086647               0.003293144              -0.000142781              -0.000444135               0.001245748               0.000801614               0.000000000               0.000000000               0.000000000               0.000000000              -0.000099446               0.002793780              -0.000087399              -0.000386514               0.001060089               0.000673575               0.000000000               0.000000000               0.000000000               0.000000000               0.002503816               0.022415148               0.003054111              -0.001862959               0.008092627               0.006229668               0.000000000               0.000000000               0.000000000               0.000000000               0.001958717               0.017646081               0.001467208              -0.001471238               0.006372381               0.004901143               0.000000000               0.000000000               0.000000000               0.000000000               0.002094903               0.013913682              -0.000088402              -0.000953619               0.004955721               0.004002101               0.000000000               0.000000000               0.000000000               0.000000000               0.001739682               0.011752652              -0.000706914              -0.000816699               0.004189744               0.003373046               0.000000000               0.000000000               0.000000000               0.000000000               0.001308150               0.010332830              -0.000937698              -0.000801046               0.003711257               0.002910212               0.000000000               0.000000000               0.000000000               0.000000000               0.000912810               0.009310494              -0.001010526              -0.000821506               0.003377302               0.002555796               0.000000000               0.000000000               0.000000000               0.000000000               0.000578529               0.008528108              -0.001017242              -0.000849063               0.003125695               0.002276632               0.000000000               0.000000000               0.000000000               0.000000000               0.000305147               0.007885414              -0.000989783              -0.000871245               0.002918860               0.002047615               0.000000000               0.000000000               0.000000000               0.000000000               0.000088797               0.007313766              -0.000938998              -0.000880920               0.002731538               0.001850618               0.000000000               0.000000000               0.000000000               0.000000000              -0.000070678               0.006778439              -0.000880911              -0.000873807               0.002550726               0.001676919               0.000000000               0.000000000               0.000000000               0.000000000              -0.000179524               0.006262672              -0.000822720              -0.000850153               0.002370921               0.001520767               0.000000000               0.000000000               0.000000000               0.000000000              -0.000238148               0.005755086              -0.000758138              -0.000808689               0.002187906               0.001379216               0.000000000               0.000000000               0.000000000               0.000000000              -0.000249779               0.005248601              -0.000679301              -0.000749741               0.001999430               0.001249689               0.000000000               0.000000000               0.000000000               0.000000000              -0.000227672               0.004735915              -0.000573252              -0.000677365               0.001804411               0.001127046               0.000000000               0.000000000               0.000000000               0.000000000              -0.000176653               0.004217152              -0.000428037              -0.000593388               0.001603499               0.001010111               0.000000000               0.000000000               0.000000000               0.000000000              -0.000096840               0.003697396              -0.000235105              -0.000498488               0.001398616               0.000900127               0.000000000               0.000000000               0.000000000               0.000000000              -0.000089491               0.003336180              -0.000141229              -0.000450581               0.001262243               0.000811662               0.000000000               0.000000000               0.000000000               0.000000000               0.002668986               0.020196133               0.004043594              -0.001523646               0.007239858               0.005716213               0.000000000               0.000000000               0.000000000               0.000000000               0.001634398               0.016253406               0.001948356              -0.001418774               0.005890672               0.004471898               0.000000000               0.000000000               0.000000000               0.000000000               0.001249564               0.013344800              -0.000077688              -0.001199510               0.004848059               0.003648548               0.000000000               0.000000000               0.000000000               0.000000000               0.000746009               0.011576565              -0.000839908              -0.001167315               0.004247921               0.003080607               0.000000000               0.000000000               0.000000000               0.000000000               0.000323115               0.010348617              -0.001108121              -0.001172407               0.003840307               0.002667900               0.000000000               0.000000000               0.000000000               0.000000000              -0.000004316               0.009429821              -0.001186192              -0.001180344               0.003536690               0.002356346               0.000000000               0.000000000               0.000000000               0.000000000              -0.000247695               0.008691420              -0.001187747              -0.001179311               0.003290214               0.002110904               0.000000000               0.000000000               0.000000000               0.000000000              -0.000416645               0.008056871              -0.001148484              -0.001163348               0.003073379               0.001910031               0.000000000               0.000000000               0.000000000               0.000000000              -0.000522385               0.007475326              -0.001082149              -0.001130308               0.002868520               0.001738212               0.000000000               0.000000000               0.000000000               0.000000000              -0.000565277               0.006924908              -0.001009616              -0.001077590               0.002667476               0.001589886               0.000000000               0.000000000               0.000000000               0.000000000              -0.000555247               0.006398449              -0.000937794              -0.001008021               0.002468802               0.001460781               0.000000000               0.000000000               0.000000000               0.000000000              -0.000506607               0.005891476              -0.000856391              -0.000926410               0.002272609               0.001346199               0.000000000               0.000000000               0.000000000               0.000000000              -0.000424966               0.005407191              -0.000757322              -0.000835259               0.002080799               0.001245539               0.000000000               0.000000000               0.000000000               0.000000000              -0.000321117               0.004951519              -0.000627430              -0.000739357               0.001896942               0.001157585               0.000000000               0.000000000               0.000000000               0.000000000              -0.000213633               0.004533903              -0.000458975              -0.000646849               0.001726902               0.001080053               0.000000000               0.000000000               0.000000000               0.000000000              -0.000107611               0.004175476              -0.000249558              -0.000562287               0.001579240               0.001016953               0.000000000               0.000000000               0.000000000               0.000000000              -0.000076116               0.003964358              -0.000145896              -0.000524087               0.001496135               0.000972048               0.000000000               0.000000000               0.000000000               0.000000000               0.002671146               0.017496079               0.004528606              -0.001185331               0.006227077               0.005041747               0.000000000               0.000000000               0.000000000               0.000000000               0.001133771               0.014586980               0.002212495              -0.001398206               0.005328347               0.003930140               0.000000000               0.000000000               0.000000000               0.000000000               0.000215882               0.012651305               0.000009878              -0.001500454               0.004717211               0.003216757               0.000000000               0.000000000               0.000000000               0.000000000              -0.000387321               0.011307894              -0.000764009              -0.001558728               0.004288836               0.002730108               0.000000000               0.000000000               0.000000000               0.000000000              -0.000748107               0.010281820              -0.001019919              -0.001565764               0.003949160               0.002383396               0.000000000               0.000000000               0.000000000               0.000000000              -0.000961660               0.009454448              -0.001088061              -0.001542425               0.003665593               0.002123168               0.000000000               0.000000000               0.000000000               0.000000000              -0.001077845               0.008744743              -0.001087461              -0.001497281               0.003413979               0.001916697               0.000000000               0.000000000               0.000000000               0.000000000              -0.001108109               0.008110715              -0.001051306              -0.001429377               0.003180003               0.001750626               0.000000000               0.000000000               0.000000000               0.000000000              -0.001075936               0.007516307              -0.000985831              -0.001343011               0.002953081               0.001610070               0.000000000               0.000000000               0.000000000               0.000000000              -0.000994017               0.006955178              -0.000911931              -0.001242151               0.002732420               0.001490269               0.000000000               0.000000000               0.000000000               0.000000000              -0.000871860               0.006427945              -0.000836125              -0.001130438               0.002519439               0.001389001               0.000000000               0.000000000               0.000000000               0.000000000              -0.000722680               0.005937942              -0.000748680              -0.001013246               0.002317043               0.001303797               0.000000000               0.000000000               0.000000000               0.000000000              -0.000557386               0.005492709              -0.000643166              -0.000895606               0.002129420               0.001233814               0.000000000               0.000000000               0.000000000               0.000000000              -0.000391280               0.005100670              -0.000511975              -0.000784312               0.001961644               0.001177331               0.000000000               0.000000000               0.000000000               0.000000000              -0.000238078               0.004777341              -0.000357051              -0.000686445               0.001821246               0.001134801               0.000000000               0.000000000               0.000000000               0.000000000              -0.000106961               0.004544724              -0.000185849              -0.000608199               0.001717626               0.001109427               0.000000000               0.000000000               0.000000000               0.000000000              -0.000058531               0.004435794              -0.000103391              -0.000576422               0.001670724               0.001094302               0.000000000               0.000000000               0.000000000               0.000000000               0.002385485               0.014585424               0.004519294              -0.000928623               0.005171299               0.004242676               0.000000000               0.000000000               0.000000000               0.000000000               0.000449530               0.012824115               0.002289495              -0.001434438               0.004752808               0.003318369               0.000000000               0.000000000               0.000000000               0.000000000              -0.000897320               0.011892185               0.000198915              -0.001823014               0.004571693               0.002748680               0.000000000               0.000000000               0.000000000               0.000000000              -0.001490411               0.010939700              -0.000491166              -0.001926362               0.004288651               0.002362289               0.000000000               0.000000000               0.000000000               0.000000000              -0.001724971               0.010084373              -0.000711107              -0.001907406               0.003997226               0.002089820               0.000000000               0.000000000               0.000000000               0.000000000              -0.001783787               0.009327012              -0.000773867              -0.001834792               0.003720570               0.001885778               0.000000000               0.000000000               0.000000000               0.000000000              -0.001738900               0.008639793              -0.000786108              -0.001732058               0.003457255               0.001725197               0.000000000               0.000000000               0.000000000               0.000000000              -0.001623323               0.008000234              -0.000766144              -0.001608772               0.003202975               0.001594203               0.000000000               0.000000000               0.000000000               0.000000000              -0.001457601               0.007397035              -0.000715724              -0.001471226               0.002956062               0.001484836               0.000000000               0.000000000               0.000000000               0.000000000              -0.001258370               0.006839371              -0.000655853              -0.001326807               0.002722036               0.001395229               0.000000000               0.000000000               0.000000000               0.000000000              -0.001043142               0.006332260              -0.000591492              -0.001182708               0.002504968               0.001322260               0.000000000               0.000000000               0.000000000               0.000000000              -0.000819076               0.005880298              -0.000516410              -0.001042188               0.002307476               0.001265288               0.000000000               0.000000000               0.000000000               0.000000000              -0.000599839               0.005491682              -0.000426659              -0.000911398               0.002134341               0.001222944               0.000000000               0.000000000               0.000000000               0.000000000              -0.000401445               0.005171181              -0.000319503              -0.000796937               0.001989355               0.001192418               0.000000000               0.000000000               0.000000000               0.000000000              -0.000232390               0.004930278              -0.000206519              -0.000703429               0.001877886               0.001174457               0.000000000               0.000000000               0.000000000               0.000000000              -0.000099333               0.004780831              -0.000100700              -0.000634852               0.001805212               0.001170360               0.000000000               0.000000000               0.000000000               0.000000000              -0.000049524               0.004722041              -0.000054070              -0.000608825               0.001776940               0.001168115               0.000000000               0.000000000               0.000000000               0.000000000               0.001743663               0.011705345               0.004098519              -0.000809296               0.004171507               0.003362211               0.000000000               0.000000000               0.000000000               0.000000000              -0.000374402               0.011101582               0.002236541              -0.001528096               0.004209855               0.002681759               0.000000000               0.000000000               0.000000000               0.000000000              -0.001962115               0.011091646               0.000497265              -0.002122244               0.004404593               0.002282349               0.000000000               0.000000000               0.000000000               0.000000000              -0.002428681               0.010464483              -0.000059518              -0.002218810               0.004227730               0.002008919               0.000000000               0.000000000               0.000000000               0.000000000              -0.002475538               0.009741824              -0.000254676              -0.002146049               0.003962592               0.001816543               0.000000000               0.000000000               0.000000000               0.000000000              -0.002356501               0.009035315              -0.000333021              -0.002013097               0.003682774               0.001669677               0.000000000               0.000000000               0.000000000               0.000000000              -0.002154459               0.008363257              -0.000373676              -0.001853325               0.003405500               0.001552175               0.000000000               0.000000000               0.000000000               0.000000000              -0.001898556               0.007731666              -0.000386046              -0.001678412               0.003136667               0.001458255               0.000000000               0.000000000               0.000000000               0.000000000              -0.001613639               0.007142646              -0.000368808              -0.001497942               0.002880172               0.001382231               0.000000000               0.000000000               0.000000000               0.000000000              -0.001316769               0.006613255              -0.000341461              -0.001320442               0.002644544               0.001324102               0.000000000               0.000000000               0.000000000               0.000000000              -0.001029723               0.006150796              -0.000307948              -0.001154993               0.002435242               0.001280250               0.000000000               0.000000000               0.000000000               0.000000000              -0.000762675               0.005755167              -0.000264477              -0.001005396               0.002253502               0.001248106               0.000000000               0.000000000               0.000000000               0.000000000              -0.000523827               0.005430932              -0.000210474              -0.000875299               0.002102059               0.001226760               0.000000000               0.000000000               0.000000000               0.000000000              -0.000325491               0.005183681              -0.000144493              -0.000770017               0.001984549               0.001214531               0.000000000               0.000000000               0.000000000               0.000000000              -0.000173554               0.005017018              -0.000082424              -0.000692208               0.001903059               0.001210850               0.000000000               0.000000000               0.000000000               0.000000000              -0.000069105               0.004924119              -0.000036404              -0.000641428               0.001855166               0.001213738               0.000000000               0.000000000               0.000000000               0.000000000              -0.000033571               0.004890533              -0.000019997              -0.000623904               0.001838129               0.001214225               0.000000000               0.000000000               0.000000000               0.000000000               0.000767512               0.009033817               0.003379147              -0.000841411               0.003291711               0.002450300               0.000000000               0.000000000               0.000000000               0.000000000              -0.001291832               0.009516327               0.002115121              -0.001673975               0.003730069               0.002056093               0.000000000               0.000000000               0.000000000               0.000000000              -0.002868112               0.010251821               0.000896002              -0.002357014               0.004202911               0.001845897               0.000000000               0.000000000               0.000000000               0.000000000              -0.003105782               0.009872279               0.000459573              -0.002398697               0.004090292               0.001691595               0.000000000               0.000000000               0.000000000               0.000000000              -0.002946362               0.009257715               0.000257920              -0.002262095               0.003839906               0.001577811               0.000000000               0.000000000               0.000000000               0.000000000              -0.002658578               0.008603589               0.000141479              -0.002072410               0.003558638               0.001486227               0.000000000               0.000000000               0.000000000               0.000000000              -0.002313290               0.007968674               0.000055182              -0.001863563               0.003277386               0.001413822               0.000000000               0.000000000               0.000000000               0.000000000              -0.001935517               0.007367324              -0.000003163              -0.001646730               0.003004660               0.001357930               0.000000000               0.000000000               0.000000000               0.000000000              -0.001551681               0.006814410              -0.000031076              -0.001433678               0.002749340               0.001315662               0.000000000               0.000000000               0.000000000               0.000000000              -0.001182954               0.006334298              -0.000050904              -0.001235392               0.002523209               0.001287817               0.000000000               0.000000000               0.000000000               0.000000000              -0.000850924               0.005927657              -0.000062239              -0.001060051               0.002329216               0.001269165               0.000000000               0.000000000               0.000000000               0.000000000              -0.000572265               0.005591054              -0.000059475              -0.000913479               0.002168159               0.001254680               0.000000000               0.000000000               0.000000000               0.000000000              -0.000350713               0.005328106              -0.000048579              -0.000797529               0.002041861               0.001244332               0.000000000               0.000000000               0.000000000               0.000000000              -0.000186466               0.005145542              -0.000029820              -0.000713116               0.001952869               0.001239753               0.000000000               0.000000000               0.000000000               0.000000000              -0.000078183               0.005037408              -0.000011355              -0.000658993               0.001898783               0.001239791               0.000000000               0.000000000               0.000000000               0.000000000              -0.000021938               0.004983736              -0.000002962              -0.000631192               0.001871626               0.001240434               0.000000000               0.000000000               0.000000000               0.000000000              -0.000007492               0.004966222              -0.000002760              -0.000623586               0.001863253               0.001239667               0.000000000               0.000000000               0.000000000               0.000000000              -0.000403769               0.006768518               0.002489672              -0.000997477               0.002588642               0.001591164               0.000000000               0.000000000               0.000000000               0.000000000              -0.002187794               0.008097392               0.001974951              -0.001832593               0.003309967               0.001477374               0.000000000               0.000000000               0.000000000               0.000000000              -0.003572834               0.009413560               0.001370008              -0.002516502               0.003976656               0.001460154               0.000000000               0.000000000               0.000000000               0.000000000              -0.003564584               0.009286532               0.001008359              -0.002497529               0.003927989               0.001430460               0.000000000               0.000000000               0.000000000               0.000000000              -0.003228967               0.008809745               0.000773191              -0.002312075               0.003707244               0.001395169               0.000000000               0.000000000               0.000000000               0.000000000              -0.002806183               0.008246953               0.000603880              -0.002083183               0.003443351               0.001360168               0.000000000               0.000000000               0.000000000               0.000000000              -0.002351723               0.007679573               0.000471683              -0.001841838               0.003173778               0.001331940               0.000000000               0.000000000               0.000000000               0.000000000              -0.001884246               0.007128749               0.000367604              -0.001597682               0.002908786               0.001311105               0.000000000               0.000000000               0.000000000               0.000000000              -0.001422862               0.006625692               0.000285121              -0.001361781               0.002662469               0.001300688               0.000000000               0.000000000               0.000000000               0.000000000              -0.001000277               0.006192295               0.000211960              -0.001149138               0.002447124               0.001297986               0.000000000               0.000000000               0.000000000               0.000000000              -0.000643248               0.005820980               0.000150139              -0.000968838               0.002263253               0.001294415               0.000000000               0.000000000               0.000000000               0.000000000              -0.000366230               0.005512440               0.000101889              -0.000826389               0.002112925               0.001286536               0.000000000               0.000000000               0.000000000               0.000000000              -0.000170532               0.005279065               0.000063560              -0.000723831               0.002000948               0.001277117               0.000000000               0.000000000               0.000000000               0.000000000              -0.000049918               0.005121152               0.000034918              -0.000658862               0.001926654               0.001267793               0.000000000               0.000000000               0.000000000               0.000000000               0.000008804               0.005032871               0.000015620              -0.000625806               0.001886209               0.001260403               0.000000000               0.000000000               0.000000000               0.000000000               0.000021603               0.004996988               0.000003769              -0.000616521               0.001871153               0.001254632               0.000000000               0.000000000               0.000000000               0.000000000               0.000017819               0.004987655              -0.000000850              -0.000616773               0.001868126               0.001251353               0.000000000               0.000000000               0.000000000               0.000000000              -0.001784685               0.004671368               0.001545913              -0.001253176               0.001974832               0.000721656               0.000000000               0.000000000               0.000000000               0.000000000              -0.002946371               0.006462559               0.001813822              -0.001912705               0.002791733               0.000879028               0.000000000               0.000000000               0.000000000               0.000000000              -0.003993997               0.008195867               0.001864878              -0.002522227               0.003572670               0.001050444               0.000000000               0.000000000               0.000000000               0.000000000              -0.003847022               0.008452253               0.001590968              -0.002499159               0.003650442               0.001151283               0.000000000               0.000000000               0.000000000               0.000000000              -0.003428034               0.008241433               0.001324810              -0.002315687               0.003519012               0.001203326               0.000000000               0.000000000               0.000000000               0.000000000              -0.002954466               0.007871973               0.001103737              -0.002091917               0.003321270               0.001229354               0.000000000               0.000000000               0.000000000               0.000000000              -0.002468883               0.007457471               0.000928333              -0.001858010               0.003105136               0.001247125               0.000000000               0.000000000               0.000000000               0.000000000              -0.001981095               0.007039041               0.000780429              -0.001622787               0.002887253               0.001264466               0.000000000               0.000000000               0.000000000               0.000000000              -0.001504105               0.006632260               0.000646744              -0.001393069               0.002675087               0.001282019               0.000000000               0.000000000               0.000000000               0.000000000              -0.001060086               0.006258788               0.000522905              -0.001179878               0.002479534               0.001299657               0.000000000               0.000000000               0.000000000               0.000000000              -0.000675795               0.005924792               0.000408250              -0.000994020               0.002306251               0.001312231               0.000000000               0.000000000               0.000000000               0.000000000              -0.000368751               0.005630352               0.000301426              -0.000842074               0.002157456               0.001315383               0.000000000               0.000000000               0.000000000               0.000000000              -0.000149731               0.005386252               0.000204036              -0.000729429               0.002038542               0.001309114               0.000000000               0.000000000               0.000000000               0.000000000              -0.000014116               0.005199595               0.000121978              -0.000655241               0.001951595               0.001296354               0.000000000               0.000000000               0.000000000               0.000000000               0.000055063               0.005081769               0.000057201              -0.000614571               0.001898763               0.001284192               0.000000000               0.000000000               0.000000000               0.000000000               0.000072179               0.005022693               0.000016067              -0.000600768               0.001874470               0.001273702               0.000000000               0.000000000               0.000000000               0.000000000               0.000064982               0.005001026               0.000001552              -0.000600759               0.001867245               0.001266486               0.000000000               0.000000000               0.000000000               0.000000000              -0.003556741               0.002768301               0.000618083              -0.001679812               0.001482694              -0.000197118               0.000000000               0.000000000               0.000000000               0.000000000              -0.003806999               0.004811413               0.001578272              -0.002029047               0.002280137               0.000251090               0.000000000               0.000000000               0.000000000               0.000000000              -0.004324623               0.006771952               0.002254942              -0.002468222               0.003080035               0.000611813               0.000000000               0.000000000               0.000000000               0.000000000              -0.004044490               0.007399288               0.002146230              -0.002441589               0.003280267               0.000838678               0.000000000               0.000000000               0.000000000               0.000000000              -0.003571330               0.007495569               0.001892616              -0.002276190               0.003257227               0.000981038               0.000000000               0.000000000               0.000000000               0.000000000              -0.003068477               0.007368306               0.001639540              -0.002071713               0.003146648               0.001074935               0.000000000               0.000000000               0.000000000               0.000000000              -0.002571162               0.007151131               0.001424851              -0.001858073               0.003003044               0.001144971               0.000000000               0.000000000               0.000000000               0.000000000              -0.002084936               0.006886269               0.001240000              -0.001642631               0.002842943               0.001200313               0.000000000               0.000000000               0.000000000               0.000000000              -0.001610104               0.006594866               0.001068896              -0.001428144               0.002674314               0.001246170               0.000000000               0.000000000               0.000000000               0.000000000              -0.001155990               0.006303194               0.000904338              -0.001221393               0.002508174               0.001286782               0.000000000               0.000000000               0.000000000               0.000000000              -0.000743434               0.006022434               0.000745211              -0.001031590               0.002351321               0.001319731               0.000000000               0.000000000               0.000000000               0.000000000              -0.000392405               0.005756691               0.000586798              -0.000866736               0.002207790               0.001341054               0.000000000               0.000000000               0.000000000               0.000000000              -0.000116923               0.005514381               0.000431706              -0.000733142               0.002082489               0.001349347               0.000000000               0.000000000               0.000000000               0.000000000               0.000070273               0.005307231               0.000289751              -0.000637050               0.001981409               0.001344359               0.000000000               0.000000000               0.000000000               0.000000000               0.000176057               0.005157330               0.000164540              -0.000578643               0.001911974               0.001333330               0.000000000               0.000000000               0.000000000               0.000000000               0.000207798               0.005059836               0.000065432              -0.000554554               0.001871446               0.001316893               0.000000000               0.000000000               0.000000000               0.000000000               0.000195466               0.005016040               0.000021993              -0.000553704               0.001856565               0.001302861               0.000000000               0.000000000               0.000000000               0.000000000              -0.005590778               0.001205357              -0.000210229              -0.002247209               0.001150847              -0.001096361               0.000000000               0.000000000               0.000000000               0.000000000              -0.004812304               0.003251396               0.001252299              -0.002211034               0.001820797              -0.000390237               0.000000000               0.000000000               0.000000000               0.000000000              -0.004593396               0.005162403               0.002424926              -0.002367819               0.002510056               0.000142237               0.000000000               0.000000000               0.000000000               0.000000000              -0.004096662               0.006049539               0.002524432              -0.002292436               0.002780637               0.000488201               0.000000000               0.000000000               0.000000000               0.000000000              -0.003555833               0.006431220               0.002338645              -0.002137335               0.002856163               0.000718828               0.000000000               0.000000000               0.000000000               0.000000000              -0.003028258               0.006562177               0.002095899              -0.001955865               0.002839325               0.000883460               0.000000000               0.000000000               0.000000000               0.000000000              -0.002527732               0.006559841               0.001866185              -0.001767876               0.002775883               0.001008007               0.000000000               0.000000000               0.000000000               0.000000000              -0.002048848               0.006472425               0.001658428              -0.001577368               0.002683242               0.001105875               0.000000000               0.000000000               0.000000000               0.000000000              -0.001586775               0.006329019               0.001464030              -0.001386165               0.002571707               0.001185542               0.000000000               0.000000000               0.000000000               0.000000000              -0.001139267               0.006151059               0.001277928              -0.001196105               0.002449034               0.001252929               0.000000000               0.000000000               0.000000000               0.000000000              -0.000713761               0.005953906               0.001094725              -0.001011896               0.002321914               0.001310018               0.000000000               0.000000000               0.000000000               0.000000000              -0.000328758               0.005748692               0.000908491              -0.000841869               0.002196835               0.001354965               0.000000000               0.000000000               0.000000000               0.000000000               0.000003606               0.005545146               0.000716796              -0.000691790               0.002078960               0.001387170               0.000000000               0.000000000               0.000000000               0.000000000               0.000261379               0.005358354               0.000522000              -0.000571776               0.001976692               0.001404916               0.000000000               0.000000000               0.000000000               0.000000000               0.000423547               0.005200655               0.000331431              -0.000491250               0.001897284               0.001406034               0.000000000               0.000000000               0.000000000               0.000000000               0.000486177               0.005081588               0.000154361              -0.000452881               0.001844806               0.001391925               0.000000000               0.000000000               0.000000000               0.000000000               0.000479250               0.005027183               0.000067595              -0.000448678               0.001825270               0.001376592               0.000000000               0.000000000               0.000000000               0.000000000              -0.007744019               0.000079389              -0.000821238              -0.002913928               0.000997765              -0.001916163               0.000000000               0.000000000               0.000000000               0.000000000              -0.005903705               0.001877399               0.000886678              -0.002448561               0.001441976              -0.001006584               0.000000000               0.000000000               0.000000000               0.000000000              -0.004828086               0.003509927               0.002346408              -0.002249269               0.001919718              -0.000329551               0.000000000               0.000000000               0.000000000               0.000000000              -0.004037590               0.004523183               0.002629620              -0.002079490               0.002200874               0.000121385               0.000000000               0.000000000               0.000000000               0.000000000              -0.003394655               0.005133141               0.002543195              -0.001914635               0.002349240               0.000434606               0.000000000               0.000000000               0.000000000               0.000000000              -0.002832852               0.005496351               0.002349527              -0.001749360               0.002415218               0.000665858               0.000000000               0.000000000               0.000000000               0.000000000              -0.002332642               0.005697156               0.002138321              -0.001586882               0.002427993               0.000841111               0.000000000               0.000000000               0.000000000               0.000000000              -0.001871031               0.005793383               0.001933334              -0.001425807               0.002406377               0.000980570               0.000000000               0.000000000               0.000000000               0.000000000              -0.001425166               0.005816874               0.001737893              -0.001261544               0.002359453               0.001097909               0.000000000               0.000000000               0.000000000               0.000000000              -0.000985139               0.005783620               0.001553181              -0.001092378               0.002291980               0.001199602               0.000000000               0.000000000               0.000000000               0.000000000              -0.000554844               0.005705128               0.001369886              -0.000921206               0.002208758               0.001287553               0.000000000               0.000000000               0.000000000               0.000000000              -0.000143360               0.005594202               0.001181557              -0.000753034               0.002115727               0.001362693               0.000000000               0.000000000               0.000000000               0.000000000               0.000238334               0.005465450               0.000981193              -0.000593805               0.002019733               0.001425928               0.000000000               0.000000000               0.000000000               0.000000000               0.000571394               0.005334243               0.000757537              -0.000452507               0.001928899               0.001476392               0.000000000               0.000000000               0.000000000               0.000000000               0.000824423               0.005204296               0.000514280              -0.000341378               0.001848541               0.001507163               0.000000000               0.000000000               0.000000000               0.000000000               0.000972331               0.005092370               0.000260213              -0.000271922               0.001788080               0.001516159               0.000000000               0.000000000               0.000000000               0.000000000               0.001012306               0.005042490               0.000130107              -0.000250696               0.001764379               0.001513683               0.000000000               0.000000000               0.000000000               0.000000000              -0.009812862              -0.000624087              -0.001104954              -0.003601810               0.000992567              -0.002609243               0.000000000               0.000000000               0.000000000               0.000000000              -0.006987109               0.000770695               0.000545518              -0.002716500               0.001162390              -0.001554110               0.000000000               0.000000000               0.000000000               0.000000000              -0.005045450               0.001981502               0.002017781              -0.002139728               0.001373733              -0.000765995               0.000000000               0.000000000               0.000000000               0.000000000              -0.003914284               0.002996984               0.002402537              -0.001842476               0.001613141              -0.000229335               0.000000000               0.000000000               0.000000000               0.000000000              -0.003134942               0.003749408               0.002408715              -0.001644276               0.001797881               0.000153605               0.000000000               0.000000000               0.000000000               0.000000000              -0.002527763               0.004287994               0.002282024              -0.001483908               0.001923952               0.000440044               0.000000000               0.000000000               0.000000000               0.000000000              -0.002020630               0.004665605               0.002115082              -0.001340935               0.002002163               0.000661229               0.000000000               0.000000000               0.000000000               0.000000000              -0.001569630               0.004932623               0.001943865              -0.001205187               0.002045920               0.000840732               0.000000000               0.000000000               0.000000000               0.000000000              -0.001137857               0.005121250               0.001778567              -0.001066851               0.002062683               0.000995832               0.000000000               0.000000000               0.000000000               0.000000000              -0.000709271               0.005242607               0.001618972              -0.000921301               0.002054618               0.001133317               0.000000000               0.000000000               0.000000000               0.000000000              -0.000280697               0.005300103               0.001457886              -0.000767773               0.002022607               0.001254834               0.000000000               0.000000000               0.000000000               0.000000000               0.000149302               0.005308623               0.001292050              -0.000607589               0.001972053               0.001364464               0.000000000               0.000000000               0.000000000               0.000000000               0.000570932               0.005281156               0.001109055              -0.000446045               0.001909049               0.001463004               0.000000000               0.000000000               0.000000000               0.000000000               0.000977472               0.005231328               0.000894247              -0.000287364               0.001839546               0.001552182               0.000000000               0.000000000               0.000000000               0.000000000               0.001355183               0.005166039               0.000642579              -0.000137561               0.001767850               0.001630288               0.000000000               0.000000000               0.000000000               0.000000000               0.001669617               0.005089354               0.000344110              -0.000010063               0.001699789               0.001689725               0.000000000               0.000000000               0.000000000               0.000000000               0.001836993               0.005060939               0.000187345               0.000056254               0.001668211               0.001724465               0.000000000               0.000000000               0.000000000               0.000000000              -0.011552620              -0.000995731              -0.001014354              -0.004207763               0.001070670              -0.003137093               0.000000000               0.000000000               0.000000000               0.000000000              -0.007929455              -0.000022691               0.000281196              -0.002970707               0.000982665              -0.001988042               0.000000000               0.000000000               0.000000000               0.000000000              -0.005236974               0.000746113               0.001473481              -0.002057127               0.000934406              -0.001122721               0.000000000               0.000000000               0.000000000               0.000000000              -0.003774126               0.001681454               0.001841038              -0.001625477               0.001102302              -0.000523175               0.000000000               0.000000000               0.000000000               0.000000000              -0.002850696               0.002498874               0.001896881              -0.001381368               0.001293404              -0.000087964               0.000000000               0.000000000               0.000000000               0.000000000              -0.002194692               0.003154367               0.001830788              -0.001217303               0.001457212               0.000239909               0.000000000               0.000000000               0.000000000               0.000000000              -0.001672531               0.003665849               0.001722528              -0.001085428               0.001583746               0.000498318               0.000000000               0.000000000               0.000000000               0.000000000              -0.001217465               0.004066045               0.001606531              -0.000964803               0.001676935               0.000712132               0.000000000               0.000000000               0.000000000               0.000000000              -0.000794464               0.004383912               0.001490531              -0.000845912               0.001743259               0.000897348               0.000000000               0.000000000               0.000000000               0.000000000              -0.000380298               0.004632189               0.001375328              -0.000721634               0.001784592               0.001062958               0.000000000               0.000000000               0.000000000               0.000000000               0.000044669               0.004819412               0.001258761              -0.000585675               0.001801679               0.001216005               0.000000000               0.000000000               0.000000000               0.000000000               0.000487557               0.004953283               0.001132744              -0.000436326               0.001796520               0.001360193               0.000000000               0.000000000               0.000000000               0.000000000               0.000947647               0.005038357               0.000989048              -0.000274427               0.001770911               0.001496484               0.000000000               0.000000000               0.000000000               0.000000000               0.001435461               0.005088360               0.000822215              -0.000097748               0.001728686               0.001630938               0.000000000               0.000000000               0.000000000               0.000000000               0.001953608               0.005104886               0.000617236               0.000094491               0.001670115               0.001764606               0.000000000               0.000000000               0.000000000               0.000000000               0.002485338               0.005072356               0.000345279               0.000297954               0.001591450               0.001889404               0.000000000               0.000000000               0.000000000               0.000000000               0.002852010               0.005078321               0.000201322               0.000434709               0.001547854               0.001982563               0.000000000               0.000000000               0.000000000               0.000000000              -0.012720432              -0.001157500              -0.000599618              -0.004625472               0.001155983              -0.003469489               0.000000000               0.000000000               0.000000000               0.000000000              -0.008578995              -0.000496461               0.000109882              -0.003155063               0.000886195              -0.002268868               0.000000000               0.000000000               0.000000000               0.000000000              -0.005370978              -0.000055784               0.000775312              -0.002007142               0.000650448              -0.001356694               0.000000000               0.000000000               0.000000000               0.000000000              -0.003666884               0.000787987               0.001000151              -0.001473578               0.000753849              -0.000719729               0.000000000               0.000000000               0.000000000               0.000000000              -0.002636200               0.001621878               0.001047493              -0.001191308               0.000937722              -0.000253586               0.000000000               0.000000000               0.000000000               0.000000000              -0.001932405               0.002341171               0.001022862              -0.001017296               0.001119481               0.000102185               0.000000000               0.000000000               0.000000000               0.000000000              -0.001391085               0.002931520               0.000973558              -0.000888095               0.001273195               0.000385100               0.000000000               0.000000000               0.000000000               0.000000000              -0.000932112               0.003413336               0.000916306              -0.000776207               0.001396503               0.000620296               0.000000000               0.000000000               0.000000000               0.000000000              -0.000512007               0.003810310               0.000856957              -0.000668290               0.001492854               0.000824564               0.000000000               0.000000000               0.000000000               0.000000000              -0.000100818               0.004143157               0.000799320              -0.000555700               0.001566272               0.001010572               0.000000000               0.000000000               0.000000000               0.000000000               0.000322544               0.004421559               0.000740008              -0.000431740               0.001617752               0.001186011               0.000000000               0.000000000               0.000000000               0.000000000               0.000773148               0.004641825               0.000671200              -0.000290297               0.001644025               0.001353728               0.000000000               0.000000000               0.000000000               0.000000000               0.001270136               0.004810924               0.000591121              -0.000125065               0.001645313               0.001520249               0.000000000               0.000000000               0.000000000               0.000000000               0.001829504               0.004939167               0.000499036               0.000068667               0.001623483               0.001692151               0.000000000               0.000000000               0.000000000               0.000000000               0.002462270               0.005020862               0.000383126               0.000295740               0.001575024               0.001870764               0.000000000               0.000000000               0.000000000               0.000000000               0.003180224               0.005033398               0.000219345               0.000563404               0.001489981               0.002053385               0.000000000               0.000000000               0.000000000               0.000000000               0.003730416               0.005078198               0.000133305               0.000764124               0.001438008               0.002202132               0.000000000               0.000000000               0.000000000               0.000000000              -0.013132605              -0.001200272               0.000000000              -0.004774690               0.001191465              -0.003583225               0.000000000               0.000000000               0.000000000               0.000000000              -0.008811684              -0.000654510               0.000000000              -0.003222566               0.000856013              -0.002366553               0.000000000               0.000000000               0.000000000               0.000000000              -0.005419804              -0.000335346              -0.000000000              -0.001990507               0.000551716              -0.001438790               0.000000000               0.000000000               0.000000000               0.000000000              -0.003628284               0.000470434               0.000000000              -0.001419409               0.000629944              -0.000789466               0.000000000               0.000000000               0.000000000               0.000000000              -0.002558311               0.001305244               0.000000000              -0.001122520               0.000809249              -0.000313271               0.000000000               0.000000000               0.000000000               0.000000000              -0.001830698               0.002043091               0.000000000              -0.000941896               0.000994989               0.000053093               0.000000000               0.000000000               0.000000000               0.000000000              -0.001281219               0.002657894              -0.000000000              -0.000812692               0.001156853               0.000344161               0.000000000               0.000000000               0.000000000               0.000000000              -0.000822565               0.003168697              -0.000000000              -0.000704548               0.001291071               0.000586523               0.000000000               0.000000000               0.000000000               0.000000000              -0.000400646               0.003596497              -0.000000000              -0.000599803               0.001398755               0.000798952               0.000000000               0.000000000               0.000000000               0.000000000               0.000013052               0.003957911              -0.000000000              -0.000489843               0.001482572               0.000992728               0.000000000               0.000000000               0.000000000               0.000000000               0.000436556               0.004266239               0.000000000              -0.000369571               0.001545255               0.001175685               0.000000000               0.000000000               0.000000000               0.000000000               0.000892058               0.004517593               0.000000000              -0.000230177               0.001582575               0.001352398               0.000000000               0.000000000               0.000000000               0.000000000               0.001403331               0.004713229              -0.000000000              -0.000062904               0.001592029               0.001529124               0.000000000               0.000000000               0.000000000               0.000000000               0.001989442               0.004866270               0.000000000               0.000137755               0.001576155               0.001713911               0.000000000               0.000000000               0.000000000               0.000000000               0.002665590               0.004974726               0.000000000               0.000377752               0.001532308               0.001910060               0.000000000               0.000000000               0.000000000               0.000000000               0.003456005               0.005012811              -0.000000000               0.000669394               0.001447789               0.002117183               0.000000000               0.000000000               0.000000000               0.000000000               0.004078748               0.005077588              -0.000000000               0.000894823               0.001394238               0.002289061               0.000000000               0.000000000               0.000000000               0.000000000               0.002249771               0.024387184              -0.000000000              -0.002204728               0.008863889               0.006659161               0.000000000               0.000000000               0.000000000               0.000000000               0.002186270               0.018897387               0.000000000              -0.001542318               0.006813172               0.005270854               0.000000000               0.000000000               0.000000000               0.000000000               0.002838121               0.014422311              -0.000000000              -0.000738492               0.005053553               0.004315061               0.000000000               0.000000000               0.000000000               0.000000000               0.002666743               0.011887496               0.000000000              -0.000485907               0.004124428               0.003638521               0.000000000               0.000000000               0.000000000               0.000000000               0.002262469               0.010272064               0.000000000              -0.000435581               0.003569181               0.003133600               0.000000000               0.000000000               0.000000000               0.000000000               0.001828818               0.009146942              -0.000000000              -0.000457560               0.003201470               0.002743910               0.000000000               0.000000000               0.000000000               0.000000000               0.001424487               0.008300569              -0.000000000              -0.000503387               0.002934625               0.002431237               0.000000000               0.000000000               0.000000000               0.000000000               0.001060688               0.007625741              -0.000000000              -0.000555458               0.002727041               0.002171583               0.000000000               0.000000000               0.000000000               0.000000000               0.000744851               0.007055602              -0.000000000              -0.000602630               0.002552720               0.001950091               0.000000000               0.000000000               0.000000000               0.000000000               0.000482461               0.006540165              -0.000000000              -0.000636596               0.002392232               0.001755636               0.000000000               0.000000000               0.000000000               0.000000000               0.000261626               0.006046739               0.000000000              -0.000657731               0.002234803               0.001577072               0.000000000               0.000000000               0.000000000               0.000000000               0.000085397               0.005553322               0.000000000              -0.000662140               0.002071802               0.001409662               0.000000000               0.000000000               0.000000000               0.000000000              -0.000041237               0.005038973              -0.000000000              -0.000645334               0.001894752               0.001249418               0.000000000               0.000000000               0.000000000               0.000000000              -0.000117849               0.004482603              -0.000000000              -0.000604517               0.001695692               0.001091174               0.000000000               0.000000000               0.000000000               0.000000000              -0.000138360               0.003855001              -0.000000000              -0.000533759               0.001462907               0.000929148               0.000000000               0.000000000               0.000000000               0.000000000              -0.000091308               0.003136933              -0.000000000              -0.000426356               0.001187753               0.000761397               0.000000000               0.000000000               0.000000000               0.000000000              -0.000110146               0.002581268              -0.000000000              -0.000363962               0.000981735               0.000617772               0.000000000               0.000000000               0.000000000               0.000000000               0.002325648               0.023877500              -0.001648233              -0.002112565               0.008663275               0.006550711               0.000000000               0.000000000               0.000000000               0.000000000               0.002134341               0.018572855              -0.000792359              -0.001521225               0.006697965               0.005176739               0.000000000               0.000000000               0.000000000               0.000000000               0.002648509               0.014290486               0.000054661              -0.000793118               0.005027820               0.004234702               0.000000000               0.000000000               0.000000000               0.000000000               0.002422906               0.011853903               0.000402245              -0.000573147               0.004142310               0.003569164               0.000000000               0.000000000               0.000000000               0.000000000               0.002007775               0.010291958               0.000536910              -0.000533578               0.003608478               0.003074900               0.000000000               0.000000000               0.000000000               0.000000000               0.001583714               0.009193356               0.000581874              -0.000555275               0.003249513               0.002694238               0.000000000               0.000000000               0.000000000               0.000000000               0.001197028               0.008365253               0.000587662              -0.000596770               0.002987313               0.002390543               0.000000000               0.000000000               0.000000000               0.000000000               0.000855721               0.007702063               0.000575280              -0.000641861               0.002781282               0.002139421               0.000000000               0.000000000               0.000000000               0.000000000               0.000562395               0.007132222               0.000549710              -0.000680628               0.002604260               0.001923632               0.000000000               0.000000000               0.000000000               0.000000000               0.000323949               0.006610958               0.000517613              -0.000704887               0.002438593               0.001733706               0.000000000               0.000000000               0.000000000               0.000000000               0.000136666               0.006111502               0.000484490              -0.000712686               0.002274709               0.001562023               0.000000000               0.000000000               0.000000000               0.000000000              -0.000003269               0.005613581               0.000447523              -0.000702922               0.002105482               0.001402560               0.000000000               0.000000000               0.000000000               0.000000000              -0.000095379               0.005100018               0.000404188              -0.000673268               0.001924411               0.001251144               0.000000000               0.000000000               0.000000000               0.000000000              -0.000143121               0.004552464               0.000344123              -0.000622727               0.001725048               0.001102321               0.000000000               0.000000000               0.000000000               0.000000000              -0.000142436               0.003954760               0.000258448              -0.000547757               0.001500826               0.000953069               0.000000000               0.000000000               0.000000000               0.000000000              -0.000086647               0.003293144               0.000142781              -0.000444135               0.001245748               0.000801614               0.000000000               0.000000000               0.000000000               0.000000000              -0.000099446               0.002793780               0.000087399              -0.000386514               0.001060089               0.000673575               0.000000000               0.000000000               0.000000000               0.000000000               0.002503816               0.022415148              -0.003054111              -0.001862959               0.008092627               0.006229668               0.000000000               0.000000000               0.000000000               0.000000000               0.001958717               0.017646081              -0.001467208              -0.001471238               0.006372381               0.004901143               0.000000000               0.000000000               0.000000000               0.000000000               0.002094903               0.013913682               0.000088402              -0.000953619               0.004955721               0.004002101               0.000000000               0.000000000               0.000000000               0.000000000               0.001739682               0.011752652               0.000706914              -0.000816699               0.004189744               0.003373046               0.000000000               0.000000000               0.000000000               0.000000000               0.001308150               0.010332830               0.000937698              -0.000801046               0.003711257               0.002910212               0.000000000               0.000000000               0.000000000               0.000000000               0.000912810               0.009310494               0.001010526              -0.000821506               0.003377302               0.002555796               0.000000000               0.000000000               0.000000000               0.000000000               0.000578529               0.008528108               0.001017242              -0.000849063               0.003125695               0.002276632               0.000000000               0.000000000               0.000000000               0.000000000               0.000305147               0.007885414               0.000989783              -0.000871245               0.002918860               0.002047615               0.000000000               0.000000000               0.000000000               0.000000000               0.000088797               0.007313766               0.000938998              -0.000880920               0.002731538               0.001850618               0.000000000               0.000000000               0.000000000               0.000000000              -0.000070678               0.006778439               0.000880911              -0.000873807               0.002550726               0.001676919               0.000000000               0.000000000               0.000000000               0.000000000              -0.000179524               0.006262672               0.000822720              -0.000850153               0.002370921               0.001520767               0.000000000               0.000000000               0.000000000               0.000000000              -0.000238148               0.005755086               0.000758138              -0.000808689               0.002187906               0.001379216               0.000000000               0.000000000               0.000000000               0.000000000              -0.000249779               0.005248601               0.000679301              -0.000749741               0.001999430               0.001249689               0.000000000               0.000000000               0.000000000               0.000000000              -0.000227672               0.004735915               0.000573252              -0.000677365               0.001804411               0.001127046               0.000000000               0.000000000               0.000000000               0.000000000              -0.000176653               0.004217152               0.000428037              -0.000593388               0.001603499               0.001010111               0.000000000               0.000000000               0.000000000               0.000000000              -0.000096840               0.003697396               0.000235105              -0.000498488               0.001398616               0.000900127               0.000000000               0.000000000               0.000000000               0.000000000              -0.000089491               0.003336180               0.000141229              -0.000450581               0.001262243               0.000811662               0.000000000               0.000000000               0.000000000               0.000000000               0.002668986               0.020196133              -0.004043594              -0.001523646               0.007239858               0.005716213               0.000000000               0.000000000               0.000000000               0.000000000               0.001634398               0.016253406              -0.001948356              -0.001418774               0.005890672               0.004471898               0.000000000               0.000000000               0.000000000               0.000000000               0.001249564               0.013344800               0.000077688              -0.001199510               0.004848059               0.003648548               0.000000000               0.000000000               0.000000000               0.000000000               0.000746009               0.011576565               0.000839908              -0.001167315               0.004247921               0.003080607               0.000000000               0.000000000               0.000000000               0.000000000               0.000323115               0.010348617               0.001108121              -0.001172407               0.003840307               0.002667900               0.000000000               0.000000000               0.000000000               0.000000000              -0.000004316               0.009429821               0.001186192              -0.001180344               0.003536690               0.002356346               0.000000000               0.000000000               0.000000000               0.000000000              -0.000247695               0.008691420               0.001187747              -0.001179311               0.003290214               0.002110904               0.000000000               0.000000000               0.000000000               0.000000000              -0.000416645               0.008056871               0.001148484              -0.001163348               0.003073379               0.001910031               0.000000000               0.000000000               0.000000000               0.000000000              -0.000522385               0.007475326               0.001082149              -0.001130308               0.002868520               0.001738212               0.000000000               0.000000000               0.000000000               0.000000000              -0.000565277               0.006924908               0.001009616              -0.001077590               0.002667476               0.001589886               0.000000000               0.000000000               0.000000000               0.000000000              -0.000555247               0.006398449               0.000937794              -0.001008021               0.002468802               0.001460781               0.000000000               0.000000000               0.000000000               0.000000000              -0.000506607               0.005891476               0.000856391              -0.000926410               0.002272609               0.001346199               0.000000000               0.000000000               0.000000000               0.000000000              -0.000424966               0.005407191               0.000757322              -0.000835259               0.002080799               0.001245539               0.000000000               0.000000000               0.000000000               0.000000000              -0.000321117               0.004951519               0.000627430              -0.000739357               0.001896942               0.001157585               0.000000000               0.000000000               0.000000000               0.000000000              -0.000213633               0.004533903               0.000458975              -0.000646849               0.001726902               0.001080053               0.000000000               0.000000000               0.000000000               0.000000000              -0.000107611               0.004175476               0.000249558              -0.000562287               0.001579240               0.001016953               0.000000000               0.000000000               0.000000000               0.000000000              -0.000076116               0.003964358               0.000145896              -0.000524087               0.001496135               0.000972048               0.000000000               0.000000000               0.000000000               0.000000000               0.002671146               0.017496079              -0.004528606              -0.001185331               0.006227077               0.005041747               0.000000000               0.000000000               0.000000000               0.000000000               0.001133771               0.014586980              -0.002212495              -0.001398206               0.005328347               0.003930140               0.000000000               0.000000000               0.000000000               0.000000000               0.000215882               0.012651305              -0.000009878              -0.001500454               0.004717211               0.003216757               0.000000000               0.000000000               0.000000000               0.000000000              -0.000387321               0.011307894               0.000764009              -0.001558728               0.004288836               0.002730108               0.000000000               0.000000000               0.000000000               0.000000000              -0.000748107               0.010281820               0.001019919              -0.001565764               0.003949160               0.002383396               0.000000000               0.000000000               0.000000000               0.000000000              -0.000961660               0.009454448               0.001088061              -0.001542425               0.003665593               0.002123168               0.000000000               0.000000000               0.000000000               0.000000000              -0.001077845               0.008744743               0.001087461              -0.001497281               0.003413979               0.001916697               0.000000000               0.000000000               0.000000000               0.000000000              -0.001108109               0.008110715               0.001051306              -0.001429377               0.003180003               0.001750626               0.000000000               0.000000000               0.000000000               0.000000000              -0.001075936               0.007516307               0.000985831              -0.001343011               0.002953081               0.001610070               0.000000000               0.000000000               0.000000000               0.000000000              -0.000994017               0.006955178               0.000911931              -0.001242151               0.002732420               0.001490269               0.000000000               0.000000000               0.000000000               0.000000000              -0.000871860               0.006427945               0.000836125              -0.001130438               0.002519439               0.001389001               0.000000000               0.000000000               0.000000000               0.000000000              -0.000722680               0.005937942               0.000748680              -0.001013246               0.002317043               0.001303797               0.000000000               0.000000000               0.000000000               0.000000000              -0.000557386               0.005492709               0.000643166              -0.000895606               0.002129420               0.001233814               0.000000000               0.000000000               0.000000000               0.000000000              -0.000391280               0.005100670               0.000511975              -0.000784312               0.001961644               0.001177331               0.000000000               0.000000000               0.000000000               0.000000000              -0.000238078               0.004777341               0.000357051              -0.000686445               0.001821246               0.001134801               0.000000000               0.000000000               0.000000000               0.000000000              -0.000106961               0.004544724               0.000185849              -0.000608199               0.001717626               0.001109427               0.000000000               0.000000000               0.000000000               0.000000000              -0.000058531               0.004435794               0.000103391              -0.000576422               0.001670724               0.001094302               0.000000000               0.000000000               0.000000000               0.000000000               0.002385485               0.014585424              -0.004519294              -0.000928623               0.005171299               0.004242676               0.000000000               0.000000000               0.000000000               0.000000000               0.000449530               0.012824115              -0.002289495              -0.001434438               0.004752808               0.003318369               0.000000000               0.000000000               0.000000000               0.000000000              -0.000897320               0.011892185              -0.000198915              -0.001823014               0.004571693               0.002748680               0.000000000               0.000000000               0.000000000               0.000000000              -0.001490411               0.010939700               0.000491166              -0.001926362               0.004288651               0.002362289               0.000000000               0.000000000               0.000000000               0.000000000              -0.001724971               0.010084373               0.000711107              -0.001907406               0.003997226               0.002089820               0.000000000               0.000000000               0.000000000               0.000000000              -0.001783787               0.009327012               0.000773867              -0.001834792               0.003720570               0.001885778               0.000000000               0.000000000               0.000000000               0.000000000              -0.001738900               0.008639793               0.000786108              -0.001732058               0.003457255               0.001725197               0.000000000               0.000000000               0.000000000               0.000000000              -0.001623323               0.008000234               0.000766144              -0.001608772               0.003202975               0.001594203               0.000000000               0.000000000               0.000000000               0.000000000              -0.001457601               0.007397035               0.000715724              -0.001471226               0.002956062               0.001484836               0.000000000               0.000000000               0.000000000               0.000000000              -0.001258370               0.006839371               0.000655853              -0.001326807               0.002722036               0.001395229               0.000000000               0.000000000               0.000000000               0.000000000              -0.001043142               0.006332260               0.000591492              -0.001182708               0.002504968               0.001322260               0.000000000               0.000000000               0.000000000               0.000000000              -0.000819076               0.005880298               0.000516410              -0.001042188               0.002307476               0.001265288               0.000000000               0.000000000               0.000000000               0.000000000              -0.000599839               0.005491682               0.000426659              -0.000911398               0.002134341               0.001222944               0.000000000               0.000000000               0.000000000               0.000000000              -0.000401445               0.005171181               0.000319503              -0.000796937               0.001989355               0.001192418               0.000000000               0.000000000               0.000000000               0.000000000              -0.000232390               0.004930278               0.000206519              -0.000703429               0.001877886               0.001174457               0.000000000               0.000000000               0.000000000               0.000000000              -0.000099333               0.004780831               0.000100700              -0.000634852               0.001805212               0.001170360               0.000000000               0.000000000               0.000000000               0.000000000              -0.000049524               0.004722041               0.000054070              -0.000608825               0.001776940               0.001168115               0.000000000               0.000000000               0.000000000               0.000000000               0.001743663               0.011705345              -0.004098519              -0.000809296               0.004171507               0.003362211               0.000000000               0.000000000               0.000000000               0.000000000              -0.000374402               0.011101582              -0.002236541              -0.001528096               0.004209855               0.002681759               0.000000000               0.000000000               0.000000000               0.000000000              -0.001962115               0.011091646              -0.000497265              -0.002122244               0.004404593               0.002282349               0.000000000               0.000000000               0.000000000               0.000000000              -0.002428681               0.010464483               0.000059518              -0.002218810               0.004227730               0.002008919               0.000000000               0.000000000               0.000000000               0.000000000              -0.002475538               0.009741824               0.000254676              -0.002146049               0.003962592               0.001816543               0.000000000               0.000000000               0.000000000               0.000000000              -0.002356501               0.009035315               0.000333021              -0.002013097               0.003682774               0.001669677               0.000000000               0.000000000               0.000000000               0.000000000              -0.002154459               0.008363257               0.000373676              -0.001853325               0.003405500               0.001552175               0.000000000               0.000000000               0.000000000               0.000000000              -0.001898556               0.007731666               0.000386046              -0.001678412               0.003136667               0.001458255               0.000000000               0.000000000               0.000000000               0.000000000              -0.001613639               0.007142646               0.000368808              -0.001497942               0.002880172               0.001382231               0.000000000               0.000000000               0.000000000               0.000000000              -0.001316769               0.006613255               0.000341461              -0.001320442               0.002644544               0.001324102               0.000000000               0.000000000               0.000000000               0.000000000              -0.001029723               0.006150796               0.000307948              -0.001154993               0.002435242               0.001280250               0.000000000               0.000000000               0.000000000               0.000000000              -0.000762675               0.005755167               0.000264477              -0.001005396               0.002253502               0.001248106               0.000000000               0.000000000               0.000000000               0.000000000              -0.000523827               0.005430932               0.000210474              -0.000875299               0.002102059               0.001226760               0.000000000               0.000000000               0.000000000               0.000000000              -0.000325491               0.005183681               0.000144493              -0.000770017               0.001984549               0.001214531               0.000000000               0.000000000               0.000000000               0.000000000              -0.000173554               0.005017018               0.000082424              -0.000692208               0.001903059               0.001210850               0.000000000               0.000000000               0.000000000               0.000000000              -0.000069105               0.004924119               0.000036404              -0.000641428               0.001855166               0.001213738               0.000000000               0.000000000               0.000000000               0.000000000              -0.000033571               0.004890533               0.000019997              -0.000623904               0.001838129               0.001214225               0.000000000               0.000000000               0.000000000               0.000000000               0.000767512               0.009033817              -0.003379147              -0.000841411               0.003291711               0.002450300               0.000000000               0.000000000               0.000000000               0.000000000              -0.001291832               0.009516327              -0.002115121              -0.001673975               0.003730069               0.002056093               0.000000000               0.000000000               0.000000000               0.000000000              -0.002868112               0.010251821              -0.000896002              -0.002357014               0.004202911               0.001845897               0.000000000               0.000000000               0.000000000               0.000000000              -0.003105782               0.009872279              -0.000459573              -0.002398697               0.004090292               0.001691595               0.000000000               0.000000000               0.000000000               0.000000000              -0.002946362               0.009257715              -0.000257920              -0.002262095               0.003839906               0.001577811               0.000000000               0.000000000               0.000000000               0.000000000              -0.002658578               0.008603589              -0.000141479              -0.002072410               0.003558638               0.001486227               0.000000000               0.000000000               0.000000000               0.000000000              -0.002313290               0.007968674              -0.000055182              -0.001863563               0.003277386               0.001413822               0.000000000               0.000000000               0.000000000               0.000000000              -0.001935517               0.007367324               0.000003163              -0.001646730               0.003004660               0.001357930               0.000000000               0.000000000               0.000000000               0.000000000              -0.001551681               0.006814410               0.000031076              -0.001433678               0.002749340               0.001315662               0.000000000               0.000000000               0.000000000               0.000000000              -0.001182954               0.006334298               0.000050904              -0.001235392               0.002523209               0.001287817               0.000000000               0.000000000               0.000000000               0.000000000              -0.000850924               0.005927657               0.000062239              -0.001060051               0.002329216               0.001269165               0.000000000               0.000000000               0.000000000               0.000000000              -0.000572265               0.005591054               0.000059475              -0.000913479               0.002168159               0.001254680               0.000000000               0.000000000               0.000000000               0.000000000              -0.000350713               0.005328106               0.000048579              -0.000797529               0.002041861               0.001244332               0.000000000               0.000000000               0.000000000               0.000000000              -0.000186466               0.005145542               0.000029820              -0.000713116               0.001952869               0.001239753               0.000000000               0.000000000               0.000000000               0.000000000              -0.000078183               0.005037408               0.000011355              -0.000658993               0.001898783               0.001239791               0.000000000               0.000000000               0.000000000               0.000000000              -0.000021938               0.004983736               0.000002962              -0.000631192               0.001871626               0.001240434               0.000000000               0.000000000               0.000000000               0.000000000              -0.000007492               0.004966222               0.000002760              -0.000623586               0.001863253               0.001239667               0.000000000               0.000000000               0.000000000               0.000000000              -0.000403769               0.006768518              -0.002489672              -0.000997477               0.002588642               0.001591164               0.000000000               0.000000000               0.000000000               0.000000000              -0.002187794               0.008097392              -0.001974951              -0.001832593               0.003309967               0.001477374               0.000000000               0.000000000               0.000000000               0.000000000              -0.003572834               0.009413560              -0.001370008              -0.002516502               0.003976656               0.001460154               0.000000000               0.000000000               0.000000000               0.000000000              -0.003564584               0.009286532              -0.001008359              -0.002497529               0.003927989               0.001430460               0.000000000               0.000000000               0.000000000               0.000000000              -0.003228967               0.008809745              -0.000773191              -0.002312075               0.003707244               0.001395169               0.000000000               0.000000000               0.000000000               0.000000000              -0.002806183               0.008246953              -0.000603880              -0.002083183               0.003443351               0.001360168               0.000000000               0.000000000               0.000000000               0.000000000              -0.002351723               0.007679573              -0.000471683              -0.001841838               0.003173778               0.001331940               0.000000000               0.000000000               0.000000000               0.000000000              -0.001884246               0.007128749              -0.000367604              -0.001597682               0.002908786               0.001311105               0.000000000               0.000000000               0.000000000               0.000000000              -0.001422862               0.006625692              -0.000285121              -0.001361781               0.002662469               0.001300688               0.000000000               0.000000000               0.000000000               0.000000000              -0.001000277               0.006192295              -0.000211960              -0.001149138               0.002447124               0.001297986               0.000000000               0.000000000               0.000000000               0.000000000              -0.000643248               0.005820980              -0.000150139              -0.000968838               0.002263253               0.001294415               0.000000000               0.000000000               0.000000000               0.000000000              -0.000366230               0.005512440              -0.000101889              -0.000826389               0.002112925               0.001286536               0.000000000               0.000000000               0.000000000               0.000000000              -0.000170532               0.005279065              -0.000063560              -0.000723831               0.002000948               0.001277117               0.000000000               0.000000000               0.000000000               0.000000000              -0.000049918               0.005121152              -0.000034918              -0.000658862               0.001926654               0.001267793               0.000000000               0.000000000               0.000000000               0.000000000               0.000008804               0.005032871              -0.000015620              -0.000625806               0.001886209               0.001260403               0.000000000               0.000000000               0.000000000               0.000000000               0.000021603               0.004996988              -0.000003769              -0.000616521               0.001871153               0.001254632               0.000000000               0.000000000               0.000000000               0.000000000               0.000017819               0.004987655               0.000000850              -0.000616773               0.001868126               0.001251353               0.000000000               0.000000000               0.000000000               0.000000000              -0.001784685               0.004671368              -0.001545913              -0.001253176               0.001974832               0.000721656               0.000000000               0.000000000               0.000000000               0.000000000              -0.002946371               0.006462559              -0.001813822              -0.001912705               0.002791733               0.000879028               0.000000000               0.000000000               0.000000000               0.000000000              -0.003993997               0.008195867              -0.001864878              -0.002522227               0.003572670               0.001050444               0.000000000               0.000000000               0.000000000               0.000000000              -0.003847022               0.008452253              -0.001590968              -0.002499159               0.003650442               0.001151283               0.000000000               0.000000000               0.000000000               0.000000000              -0.003428034               0.008241433              -0.001324810              -0.002315687               0.003519012               0.001203326               0.000000000               0.000000000               0.000000000               0.000000000              -0.002954466               0.007871973              -0.001103737              -0.002091917               0.003321270               0.001229354               0.000000000               0.000000000               0.000000000               0.000000000              -0.002468883               0.007457471              -0.000928333              -0.001858010               0.003105136               0.001247125               0.000000000               0.000000000               0.000000000               0.000000000              -0.001981095               0.007039041              -0.000780429              -0.001622787               0.002887253               0.001264466               0.000000000               0.000000000               0.000000000               0.000000000              -0.001504105               0.006632260              -0.000646744              -0.001393069               0.002675087               0.001282019               0.000000000               0.000000000               0.000000000               0.000000000              -0.001060086               0.006258788              -0.000522905              -0.001179878               0.002479534               0.001299657               0.000000000               0.000000000               0.000000000               0.000000000              -0.000675795               0.005924792              -0.000408250              -0.000994020               0.002306251               0.001312231               0.000000000               0.000000000               0.000000000               0.000000000              -0.000368751               0.005630352              -0.000301426              -0.000842074               0.002157456               0.001315383               0.000000000               0.000000000               0.000000000               0.000000000              -0.000149731               0.005386252              -0.000204036              -0.000729429               0.002038542               0.001309114               0.000000000               0.000000000               0.000000000               0.000000000              -0.000014116               0.005199595              -0.000121978              -0.000655241               0.001951595               0.001296354               0.000000000               0.000000000               0.000000000               0.000000000               0.000055063               0.005081769              -0.000057201              -0.000614571               0.001898763               0.001284192               0.000000000               0.000000000               0.000000000               0.000000000               0.000072179               0.005022693              -0.000016067              -0.000600768               0.001874470               0.001273702               0.000000000               0.000000000               0.000000000               0.000000000               0.000064982               0.005001026              -0.000001552              -0.000600759               0.001867245               0.001266486               0.000000000               0.000000000               0.000000000               0.000000000              -0.003556741               0.002768301              -0.000618083              -0.001679812               0.001482694              -0.000197118               0.000000000               0.000000000               0.000000000               0.000000000              -0.003806999               0.004811413              -0.001578272              -0.002029047               0.002280137               0.000251090               0.000000000               0.000000000               0.000000000               0.000000000              -0.004324623               0.006771952              -0.002254942              -0.002468222               0.003080035               0.000611813               0.000000000               0.000000000               0.000000000               0.000000000              -0.004044490               0.007399288              -0.002146230              -0.002441589               0.003280267               0.000838678               0.000000000               0.000000000               0.000000000               0.000000000              -0.003571330               0.007495569              -0.001892616              -0.002276190               0.003257227               0.000981038               0.000000000               0.000000000               0.000000000               0.000000000              -0.003068477               0.007368306              -0.001639540              -0.002071713               0.003146648               0.001074935               0.000000000               0.000000000               0.000000000               0.000000000              -0.002571162               0.007151131              -0.001424851              -0.001858073               0.003003044               0.001144971               0.000000000               0.000000000               0.000000000               0.000000000              -0.002084936               0.006886269              -0.001240000              -0.001642631               0.002842943               0.001200313               0.000000000               0.000000000               0.000000000               0.000000000              -0.001610104               0.006594866              -0.001068896              -0.001428144               0.002674314               0.001246170               0.000000000               0.000000000               0.000000000               0.000000000              -0.001155990               0.006303194              -0.000904338              -0.001221393               0.002508174               0.001286782               0.000000000               0.000000000               0.000000000               0.000000000              -0.000743434               0.006022434              -0.000745211              -0.001031590               0.002351321               0.001319731               0.000000000               0.000000000               0.000000000               0.000000000              -0.000392405               0.005756691              -0.000586798              -0.000866736               0.002207790               0.001341054               0.000000000               0.000000000               0.000000000               0.000000000              -0.000116923               0.005514381              -0.000431706              -0.000733142               0.002082489               0.001349347               0.000000000               0.000000000               0.000000000               0.000000000               0.000070273               0.005307231              -0.000289751              -0.000637050               0.001981409               0.001344359               0.000000000               0.000000000               0.000000000               0.000000000               0.000176057               0.005157330              -0.000164540              -0.000578643               0.001911974               0.001333330               0.000000000               0.000000000               0.000000000               0.000000000               0.000207798               0.005059836              -0.000065432              -0.000554554               0.001871446               0.001316893               0.000000000               0.000000000               0.000000000               0.000000000               0.000195466               0.005016040              -0.000021993              -0.000553704               0.001856565               0.001302861               0.000000000               0.000000000               0.000000000               0.000000000              -0.005590778               0.001205357               0.000210229              -0.002247209               0.001150847              -0.001096361               0.000000000               0.000000000               0.000000000               0.000000000              -0.004812304               0.003251396              -0.001252299              -0.002211034               0.001820797              -0.000390237               0.000000000               0.000000000               0.000000000               0.000000000              -0.004593396               0.005162403              -0.002424926              -0.002367819               0.002510056               0.000142237               0.000000000               0.000000000               0.000000000               0.000000000              -0.004096662               0.006049539              -0.002524432              -0.002292436               0.002780637               0.000488201               0.000000000               0.000000000               0.000000000               0.000000000              -0.003555833               0.006431220              -0.002338645              -0.002137335               0.002856163               0.000718828               0.000000000               0.000000000               0.000000000               0.000000000              -0.003028258               0.006562177              -0.002095899              -0.001955865               0.002839325               0.000883460               0.000000000               0.000000000               0.000000000               0.000000000              -0.002527732               0.006559841              -0.001866185              -0.001767876               0.002775883               0.001008007               0.000000000               0.000000000               0.000000000               0.000000000              -0.002048848               0.006472425              -0.001658428              -0.001577368               0.002683242               0.001105875               0.000000000               0.000000000               0.000000000               0.000000000              -0.001586775               0.006329019              -0.001464030              -0.001386165               0.002571707               0.001185542               0.000000000               0.000000000               0.000000000               0.000000000              -0.001139267               0.006151059              -0.001277928              -0.001196105               0.002449034               0.001252929               0.000000000               0.000000000               0.000000000               0.000000000              -0.000713761               0.005953906              -0.001094725              -0.001011896               0.002321914               0.001310018               0.000000000               0.000000000               0.000000000               0.000000000              -0.000328758               0.005748692              -0.000908491              -0.000841869               0.002196835               0.001354965               0.000000000               0.000000000               0.000000000               0.000000000               0.000003606               0.005545146              -0.000716796              -0.000691790               0.002078960               0.001387170               0.000000000               0.000000000               0.000000000               0.000000000               0.000261379               0.005358354              -0.000522000              -0.000571776               0.001976692               0.001404916               0.000000000               0.000000000               0.000000000               0.000000000               0.000423547               0.005200655              -0.000331431              -0.000491250               0.001897284               0.001406034               0.000000000               0.000000000               0.000000000               0.000000000               0.000486177               0.005081588              -0.000154361              -0.000452881               0.001844806               0.001391925               0.000000000               0.000000000               0.000000000               0.000000000               0.000479250               0.005027183              -0.000067595              -0.000448678               0.001825270               0.001376592               0.000000000               0.000000000               0.000000000               0.000000000              -0.007744019               0.000079389               0.000821238              -0.002913928               0.000997765              -0.001916163               0.000000000               0.000000000               0.000000000               0.000000000              -0.005903705               0.001877399              -0.000886678              -0.002448561               0.001441976              -0.001006584               0.000000000               0.000000000               0.000000000               0.000000000              -0.004828086               0.003509927              -0.002346408              -0.002249269               0.001919718              -0.000329551               0.000000000               0.000000000               0.000000000               0.000000000              -0.004037590               0.004523183              -0.002629620              -0.002079490               0.002200874               0.000121385               0.000000000               0.000000000               0.000000000               0.000000000              -0.003394655               0.005133141              -0.002543195              -0.001914635               0.002349240               0.000434606               0.000000000               0.000000000               0.000000000               0.000000000              -0.002832852               0.005496351              -0.002349527              -0.001749360               0.002415218               0.000665858               0.000000000               0.000000000               0.000000000               0.000000000              -0.002332642               0.005697156              -0.002138321              -0.001586882               0.002427993               0.000841111               0.000000000               0.000000000               0.000000000               0.000000000              -0.001871031               0.005793383              -0.001933334              -0.001425807               0.002406377               0.000980570               0.000000000               0.000000000               0.000000000               0.000000000              -0.001425166               0.005816874              -0.001737893              -0.001261544               0.002359453               0.001097909               0.000000000               0.000000000               0.000000000               0.000000000              -0.000985139               0.005783620              -0.001553181              -0.001092378               0.002291980               0.001199602               0.000000000               0.000000000               0.000000000               0.000000000              -0.000554844               0.005705128              -0.001369886              -0.000921206               0.002208758               0.001287553               0.000000000               0.000000000               0.000000000               0.000000000              -0.000143360               0.005594202              -0.001181557              -0.000753034               0.002115727               0.001362693               0.000000000               0.000000000               0.000000000               0.000000000               0.000238334               0.005465450              -0.000981193              -0.000593805               0.002019733               0.001425928               0.000000000               0.000000000               0.000000000               0.000000000               0.000571394               0.005334243              -0.000757537              -0.000452507               0.001928899               0.001476392               0.000000000               0.000000000               0.000000000               0.000000000               0.000824423               0.005204296              -0.000514280              -0.000341378               0.001848541               0.001507163               0.000000000               0.000000000               0.000000000               0.000000000               0.000972331               0.005092370              -0.000260213              -0.000271922               0.001788080               0.001516159               0.000000000               0.000000000               0.000000000               0.000000000               0.001012306               0.005042490              -0.000130107              -0.000250696               0.001764379               0.001513683               0.000000000               0.000000000               0.000000000               0.000000000              -0.009812862              -0.000624087               0.001104954              -0.003601810               0.000992567              -0.002609243               0.000000000               0.000000000               0.000000000               0.000000000              -0.006987109               0.000770695              -0.000545518              -0.002716500               0.001162390              -0.001554110               0.000000000               0.000000000               0.000000000               0.000000000              -0.005045450               0.001981502              -0.002017781              -0.002139728               0.001373733              -0.000765995               0.000000000               0.000000000               0.000000000               0.000000000              -0.003914284               0.002996984              -0.002402537              -0.001842476               0.001613141              -0.000229335               0.000000000               0.000000000               0.000000000               0.000000000              -0.003134942               0.003749408              -0.002408715              -0.001644276               0.001797881               0.000153605               0.000000000               0.000000000               0.000000000               0.000000000              -0.002527763               0.004287994              -0.002282024              -0.001483908               0.001923952               0.000440044               0.000000000               0.000000000               0.000000000               0.000000000              -0.002020630               0.004665605              -0.002115082              -0.001340935               0.002002163               0.000661229               0.000000000               0.000000000               0.000000000               0.000000000              -0.001569630               0.004932623              -0.001943865              -0.001205187               0.002045920               0.000840732               0.000000000               0.000000000               0.000000000               0.000000000              -0.001137857               0.005121250              -0.001778567              -0.001066851               0.002062683               0.000995832               0.000000000               0.000000000               0.000000000               0.000000000              -0.000709271               0.005242607              -0.001618972              -0.000921301               0.002054618               0.001133317               0.000000000               0.000000000               0.000000000               0.000000000              -0.000280697               0.005300103              -0.001457886              -0.000767773               0.002022607               0.001254834               0.000000000               0.000000000               0.000000000               0.000000000               0.000149302               0.005308623              -0.001292050              -0.000607589               0.001972053               0.001364464               0.000000000               0.000000000               0.000000000               0.000000000               0.000570932               0.005281156              -0.001109055              -0.000446045               0.001909049               0.001463004               0.000000000               0.000000000               0.000000000               0.000000000               0.000977472               0.005231328              -0.000894247              -0.000287364               0.001839546               0.001552182               0.000000000               0.000000000               0.000000000               0.000000000               0.001355183               0.005166039              -0.000642579              -0.000137561               0.001767850               0.001630288               0.000000000               0.000000000               0.000000000               0.000000000               0.001669617               0.005089354              -0.000344110              -0.000010063               0.001699789               0.001689725               0.000000000               0.000000000               0.000000000               0.000000000               0.001836993               0.005060939              -0.000187345               0.000056254               0.001668211               0.001724465               0.000000000               0.000000000               0.000000000               0.000000000              -0.011552620              -0.000995731               0.001014354              -0.004207763               0.001070670              -0.003137093               0.000000000               0.000000000               0.000000000               0.000000000              -0.007929455              -0.000022691              -0.000281196              -0.002970707               0.000982665              -0.001988042               0.000000000               0.000000000               0.000000000               0.000000000              -0.005236974               0.000746113              -0.001473481              -0.002057127               0.000934406              -0.001122721               0.000000000               0.000000000               0.000000000               0.000000000              -0.003774126               0.001681454              -0.001841038              -0.001625477               0.001102302              -0.000523175               0.000000000               0.000000000               0.000000000               0.000000000              -0.002850696               0.002498874              -0.001896881              -0.001381368               0.001293404              -0.000087964               0.000000000               0.000000000               0.000000000               0.000000000              -0.002194692               0.003154367              -0.001830788              -0.001217303               0.001457212               0.000239909               0.000000000               0.000000000               0.000000000               0.000000000              -0.001672531               0.003665849              -0.001722528              -0.001085428               0.001583746               0.000498318               0.000000000               0.000000000               0.000000000               0.000000000              -0.001217465               0.004066045              -0.001606531              -0.000964803               0.001676935               0.000712132               0.000000000               0.000000000               0.000000000               0.000000000              -0.000794464               0.004383912              -0.001490531              -0.000845912               0.001743259               0.000897348               0.000000000               0.000000000               0.000000000               0.000000000              -0.000380298               0.004632189              -0.001375328              -0.000721634               0.001784592               0.001062958               0.000000000               0.000000000               0.000000000               0.000000000               0.000044669               0.004819412              -0.001258761              -0.000585675               0.001801679               0.001216005               0.000000000               0.000000000               0.000000000               0.000000000               0.000487557               0.004953283              -0.001132744              -0.000436326               0.001796520               0.001360193               0.000000000               0.000000000               0.000000000               0.000000000               0.000947647               0.005038357              -0.000989048              -0.000274427               0.001770911               0.001496484               0.000000000               0.000000000               0.000000000               0.000000000               0.001435461               0.005088360              -0.000822215              -0.000097748               0.001728686               0.001630938               0.000000000               0.000000000               0.000000000               0.000000000               0.001953608               0.005104886              -0.000617236               0.000094491               0.001670115               0.001764606               0.000000000               0.000000000               0.000000000               0.000000000               0.002485338               0.005072356              -0.000345279               0.000297954               0.001591450               0.001889404               0.000000000               0.000000000               0.000000000               0.000000000               0.002852010               0.005078321              -0.000201322               0.000434709               0.001547854               0.001982563               0.000000000               0.000000000               0.000000000               0.000000000              -0.012720432              -0.001157500               0.000599618              -0.004625472               0.001155983              -0.003469489               0.000000000               0.000000000               0.000000000               0.000000000              -0.008578995              -0.000496461              -0.000109882              -0.003155063               0.000886195              -0.002268868               0.000000000               0.000000000               0.000000000               0.000000000              -0.005370978              -0.000055784              -0.000775312              -0.002007142               0.000650448              -0.001356694               0.000000000               0.000000000               0.000000000               0.000000000              -0.003666884               0.000787987              -0.001000151              -0.001473578               0.000753849              -0.000719729               0.000000000               0.000000000               0.000000000               0.000000000              -0.002636200               0.001621878              -0.001047493              -0.001191308               0.000937722              -0.000253586               0.000000000               0.000000000               0.000000000               0.000000000              -0.001932405               0.002341171              -0.001022862              -0.001017296               0.001119481               0.000102185               0.000000000               0.000000000               0.000000000               0.000000000              -0.001391085               0.002931520              -0.000973558              -0.000888095               0.001273195               0.000385100               0.000000000               0.000000000               0.000000000               0.000000000              -0.000932112               0.003413336              -0.000916306              -0.000776207               0.001396503               0.000620296               0.000000000               0.000000000               0.000000000               0.000000000              -0.000512007               0.003810310              -0.000856957              -0.000668290               0.001492854               0.000824564               0.000000000               0.000000000               0.000000000               0.000000000              -0.000100818               0.004143157              -0.000799320              -0.000555700               0.001566272               0.001010572               0.000000000               0.000000000               0.000000000               0.000000000               0.000322544               0.004421559              -0.000740008              -0.000431740               0.001617752               0.001186011               0.000000000               0.000000000               0.000000000               0.000000000               0.000773148               0.004641825              -0.000671200              -0.000290297               0.001644025               0.001353728               0.000000000               0.000000000               0.000000000               0.000000000               0.001270136               0.004810924              -0.000591121              -0.000125065               0.001645313               0.001520249               0.000000000               0.000000000               0.000000000               0.000000000               0.001829504               0.004939167              -0.000499036               0.000068667               0.001623483               0.001692151               0.000000000               0.000000000               0.000000000               0.000000000               0.002462270               0.005020862              -0.000383126               0.000295740               0.001575024               0.001870764               0.000000000               0.000000000               0.000000000               0.000000000               0.003180224               0.005033398              -0.000219345               0.000563404               0.001489981               0.002053385               0.000000000               0.000000000               0.000000000               0.000000000               0.003730416               0.005078198              -0.000133305               0.000764124               0.001438008               0.002202132               0.000000000               0.000000000               0.000000000               0.000000000               0.000000000               0.000000000               0.000000000               0.000000000               0.000000000               0.000000000               0.000000000               0.000000000               0.000000000               0.000000000               0.000000000               0.000000000               0.000000000               0.000000000               0.000000000               0.000000000               0.000000000               0.000000000               0.000000000               0.000000000               0.000000000               0.000000000               0.000000000               0.000000000               0.000000000               0.000000000               0.000000000               0.000000000               0.000000000               0.000000000               0.000000000               0.000000000               0.000000000               0.000000000               0.000000000               0.000000000               0.000000000               0.000000000               0.000000000               0.000000000               0.000000000               0.000000000               0.000000000               0.000000000               0.000000000               0.000000000               0.000000000               0.000000000               0.000000000               0.000000000               0.000000000               0.000000000               0.000000000               0.000000000               0.000000000               0.000000000               0.000000000               0.000000000               0.000000000               0.000000000               0.000000000               0.000000000               0.000000000               0.000000000               0.000000000               0.000000000               0.000000000               0.000000000               0.000000000               0.000000000               0.000000000               0.000000000               0.000000000               0.000000000               0.000000000               0.000000000               0.000000000               0.000000000               0.000000000               0.000000000               0.000000000               0.000000000               0.000000000               0.000000000               0.000000000               0.000000000               0.000000000               0.000000000               0.000000000               0.000000000               0.000000000               0.000000000               0.000000000               0.000000000               0.000000000               0.000000000               0.000000000               0.000000000               0.000000000               0.000000000               0.000000000               0.000000000               0.000000000               0.000000000               0.000000000               0.000000000               0.000000000               0.000000000               0.000000000               0.000000000               0.000000000               0.000000000               0.000000000               0.000000000               0.000000000               0.000000000               0.000000000               0.000000000               0.000000000               0.000000000               0.000000000               0.000000000               0.000000000               0.000000000               0.000000000               0.000000000               0.000000000               0.000000000               0.000000000               0.000000000               0.000000000               0.000000000               0.000000000               0.000000000               0.000000000               0.000000000               0.000000000               0.000000000               0.000000000               0.000000000               0.000000000               0.000000000               0.000000000               0.000000000               0.000000000               0.000000000               0.000000000               0.000000000               0.000000000               0.000000000               0.000000000               0.000000000               0.000000000               0.000000000               0.000000000               0.000000000               0.000000000               0.000000000               0.000000000               0.000000000               0.000000000               0.000000000               0.000000000               0.000000000               0.000000000               0.000000000               0.000000000               0.000000000               0.000000000               0.000000000               0.000000000               0.000000000               0.000000000               0.000000000               0.000000000               0.000000000               0.000000000               0.000000000               0.000000000               0.000000000               0.000000000               0.000000000               0.000000000               0.000000000               0.000000000               0.000000000               0.000000000               0.000000000               0.000000000               0.000000000               0.000000000               0.000000000               0.000000000               0.000000000               0.000000000               0.000000000               0.000000000               0.000000000               0.000000000               0.000000000               0.000000000               0.000000000               0.000000000               0.000000000               0.000000000               0.000000000               0.000000000               0.000000000               0.000000000               0.000000000               0.000000000               0.000000000               0.000000000               0.000000000               0.000000000               0.000000000               0.000000000               0.000000000               0.000000000               0.000000000               0.000000000               0.000000000               0.000000000               0.000000000               0.000000000               0.000000000               0.000000000               0.000000000               0.000000000               0.000000000               0.000000000               0.000000000               0.000000000               0.000000000               0.000000000               0.000000000               0.000000000               0.000000000               0.000000000               0.000000000               0.000000000               0.000000000               0.000000000               0.000000000               0.000000000               0.000000000               0.000000000               0.000000000               0.000000000               0.000000000               0.000000000               0.000000000               0.000000000               0.000000000               0.000000000               0.000000000               0.000000000               0.000000000               0.000000000               0.000000000               0.000000000               0.000000000               0.000000000               0.000000000               0.000000000               0.000000000               0.000000000               0.000000000               0.000000000               0.000000000               0.000000000               0.000000000               0.000000000               0.000000000               0.000000000               0.000000000               0.000000000               0.000000000               0.000000000               0.000000000               0.000000000               0.000000000               0.000000000               0.000000000               0.000000000               0.000000000               0.000000000               0.000000000               0.000000000               0.000000000               0.000000000               0.000000000               0.000000000               0.000000000               0.000000000               0.000000000               0.000000000               0.000000000               0.000000000               0.000000000               0.000000000               0.000000000               0.000000000               0.000000000               0.000000000               0.000000000               0.000000000               0.000000000               0.000000000               0.000000000               0.000000000               0.000000000               0.000000000               0.000000000               0.000000000               0.000000000               0.000000000               0.000000000               0.000000000               0.000000000               0.000000000               0.000000000               0.000000000               0.000000000               0.000000000               0.000000000               0.000000000               0.000000000               0.000000000               0.000000000               0.000000000               0.000000000               0.000000000               0.000000000               0.000000000               0.000000000               0.000000000               0.000000000               0.000000000               0.000000000               0.002325648               0.023877500               0.001648233              -0.002112565               0.008663275               0.006550711               0.000000000               0.000000000               0.000000000               0.000000000               0.002134341               0.018572855               0.000792359              -0.001521225               0.006697965               0.005176739               0.000000000               0.000000000               0.000000000               0.000000000               0.002648509               0.014290486              -0.000054661              -0.000793118               0.005027820               0.004234702               0.000000000               0.000000000               0.000000000               0.000000000               0.002422906               0.011853903              -0.000402245              -0.000573147               0.004142310               0.003569164               0.000000000               0.000000000               0.000000000               0.000000000               0.002007775               0.010291958              -0.000536910              -0.000533578               0.003608478               0.003074900               0.000000000               0.000000000               0.000000000               0.000000000               0.001583714               0.009193356              -0.000581874              -0.000555275               0.003249513               0.002694238               0.000000000               0.000000000               0.000000000               0.000000000               0.001197028               0.008365253              -0.000587662              -0.000596770               0.002987313               0.002390543               0.000000000               0.000000000               0.000000000               0.000000000               0.000855721               0.007702063              -0.000575280              -0.000641861               0.002781282               0.002139421               0.000000000               0.000000000               0.000000000               0.000000000               0.000562395               0.007132222              -0.000549710              -0.000680628               0.002604260               0.001923632               0.000000000               0.000000000               0.000000000               0.000000000               0.000323949               0.006610958              -0.000517613              -0.000704887               0.002438593               0.001733706               0.000000000               0.000000000               0.000000000               0.000000000               0.000136666               0.006111502              -0.000484490              -0.000712686               0.002274709               0.001562023               0.000000000               0.000000000               0.000000000               0.000000000              -0.000003269               0.005613581              -0.000447523              -0.000702922               0.002105482               0.001402560               0.000000000               0.000000000               0.000000000               0.000000000              -0.000095379               0.005100018              -0.000404188              -0.000673268               0.001924411               0.001251144               0.000000000               0.000000000               0.000000000               0.000000000              -0.000143121               0.004552464              -0.000344123              -0.000622727               0.001725048               0.001102321               0.000000000               0.000000000               0.000000000               0.000000000              -0.000142436               0.003954760              -0.000258448              -0.000547757               0.001500826               0.000953069               0.000000000               0.000000000               0.000000000               0.000000000              -0.000086647               0.003293144              -0.000142781              -0.000444135               0.001245748               0.000801614               0.000000000               0.000000000               0.000000000               0.000000000              -0.000099446               0.002793780              -0.000087399              -0.000386514               0.001060089               0.000673575               0.000000000               0.000000000               0.000000000               0.000000000               0.002503816               0.022415148               0.003054111              -0.001862959               0.008092627               0.006229668               0.000000000               0.000000000               0.000000000               0.000000000               0.001958717               0.017646081               0.001467208              -0.001471238               0.006372381               0.004901143               0.000000000               0.000000000               0.000000000               0.000000000               0.002094903               0.013913682              -0.000088402              -0.000953619               0.004955721               0.004002101               0.000000000               0.000000000               0.000000000               0.000000000               0.001739682               0.011752652              -0.000706914              -0.000816699               0.004189744               0.003373046               0.000000000               0.000000000               0.000000000               0.000000000               0.001308150               0.010332830              -0.000937698              -0.000801046               0.003711257               0.002910212               0.000000000               0.000000000               0.000000000               0.000000000               0.000912810               0.009310494              -0.001010526              -0.000821506               0.003377302               0.002555796               0.000000000               0.000000000               0.000000000               0.000000000               0.000578529               0.008528108              -0.001017242              -0.000849063               0.003125695               0.002276632               0.000000000               0.000000000               0.000000000               0.000000000               0.000305147               0.007885414              -0.000989783              -0.000871245               0.002918860               0.002047615               0.000000000               0.000000000               0.000000000               0.000000000               0.000088797               0.007313766              -0.000938998              -0.000880920               0.002731538               0.001850618               0.000000000               0.000000000               0.000000000               0.000000000              -0.000070678               0.006778439              -0.000880911              -0.000873807               0.002550726               0.001676919               0.000000000               0.000000000               0.000000000               0.000000000              -0.000179524               0.006262672              -0.000822720              -0.000850153               0.002370921               0.001520767               0.000000000               0.000000000               0.000000000               0.000000000              -0.000238148               0.005755086              -0.000758138              -0.000808689               0.002187906               0.001379216               0.000000000               0.000000000               0.000000000               0.000000000              -0.000249779               0.005248601              -0.000679301              -0.000749741               0.001999430               0.001249689               0.000000000               0.000000000               0.000000000               0.000000000              -0.000227672               0.004735915              -0.000573252              -0.000677365               0.001804411               0.001127046               0.000000000               0.000000000               0.000000000               0.000000000              -0.000176653               0.004217152              -0.000428037              -0.000593388               0.001603499               0.001010111               0.000000000               0.000000000               0.000000000               0.000000000              -0.000096840               0.003697396              -0.000235105              -0.000498488               0.001398616               0.000900127               0.000000000               0.000000000               0.000000000               0.000000000              -0.000089491               0.003336180              -0.000141229              -0.000450581               0.001262243               0.000811662               0.000000000               0.000000000               0.000000000               0.000000000               0.002668986               0.020196133               0.004043594              -0.001523646               0.007239858               0.005716213               0.000000000               0.000000000               0.000000000               0.000000000               0.001634398               0.016253406               0.001948356              -0.001418774               0.005890672               0.004471898               0.000000000               0.000000000               0.000000000               0.000000000               0.001249564               0.013344800              -0.000077688              -0.001199510               0.004848059               0.003648548               0.000000000               0.000000000               0.000000000               0.000000000               0.000746009               0.011576565              -0.000839908              -0.001167315               0.004247921               0.003080607               0.000000000               0.000000000               0.000000000               0.000000000               0.000323115               0.010348617              -0.001108121              -0.001172407               0.003840307               0.002667900               0.000000000               0.000000000               0.000000000               0.000000000              -0.000004316               0.009429821              -0.001186192              -0.001180344               0.003536690               0.002356346               0.000000000               0.000000000               0.000000000               0.000000000              -0.000247695               0.008691420              -0.001187747              -0.001179311               0.003290214               0.002110904               0.000000000               0.000000000               0.000000000               0.000000000              -0.000416645               0.008056871              -0.001148484              -0.001163348               0.003073379               0.001910031               0.000000000               0.000000000               0.000000000               0.000000000              -0.000522385               0.007475326              -0.001082149              -0.001130308               0.002868520               0.001738212               0.000000000               0.000000000               0.000000000               0.000000000              -0.000565277               0.006924908              -0.001009616              -0.001077590               0.002667476               0.001589886               0.000000000               0.000000000               0.000000000               0.000000000              -0.000555247               0.006398449              -0.000937794              -0.001008021               0.002468802               0.001460781               0.000000000               0.000000000               0.000000000               0.000000000              -0.000506607               0.005891476              -0.000856391              -0.000926410               0.002272609               0.001346199               0.000000000               0.000000000               0.000000000               0.000000000              -0.000424966               0.005407191              -0.000757322              -0.000835259               0.002080799               0.001245539               0.000000000               0.000000000               0.000000000               0.000000000              -0.000321117               0.004951519              -0.000627430              -0.000739357               0.001896942               0.001157585               0.000000000               0.000000000               0.000000000               0.000000000              -0.000213633               0.004533903              -0.000458975              -0.000646849               0.001726902               0.001080053               0.000000000               0.000000000               0.000000000               0.000000000              -0.000107611               0.004175476              -0.000249558              -0.000562287               0.001579240               0.001016953               0.000000000               0.000000000               0.000000000               0.000000000              -0.000076116               0.003964358              -0.000145896              -0.000524087               0.001496135               0.000972048               0.000000000               0.000000000               0.000000000               0.000000000               0.002671146               0.017496079               0.004528606              -0.001185331               0.006227077               0.005041747               0.000000000               0.000000000               0.000000000               0.000000000               0.001133771               0.014586980               0.002212495              -0.001398206               0.005328347               0.003930140               0.000000000               0.000000000               0.000000000               0.000000000               0.000215882               0.012651305               0.000009878              -0.001500454               0.004717211               0.003216757               0.000000000               0.000000000               0.000000000               0.000000000              -0.000387321               0.011307894              -0.000764009              -0.001558728               0.004288836               0.002730108               0.000000000               0.000000000               0.000000000               0.000000000              -0.000748107               0.010281820              -0.001019919              -0.001565764               0.003949160               0.002383396               0.000000000               0.000000000               0.000000000               0.000000000              -0.000961660               0.009454448              -0.001088061              -0.001542425               0.003665593               0.002123168               0.000000000               0.000000000               0.000000000               0.000000000              -0.001077845               0.008744743              -0.001087461              -0.001497281               0.003413979               0.001916697               0.000000000               0.000000000               0.000000000               0.000000000              -0.001108109               0.008110715              -0.001051306              -0.001429377               0.003180003               0.001750626               0.000000000               0.000000000               0.000000000               0.000000000              -0.001075936               0.007516307              -0.000985831              -0.001343011               0.002953081               0.001610070               0.000000000               0.000000000               0.000000000               0.000000000              -0.000994017               0.006955178              -0.000911931              -0.001242151               0.002732420               0.001490269               0.000000000               0.000000000               0.000000000               0.000000000              -0.000871860               0.006427945              -0.000836125              -0.001130438               0.002519439               0.001389001               0.000000000               0.000000000               0.000000000               0.000000000              -0.000722680               0.005937942              -0.000748680              -0.001013246               0.002317043               0.001303797               0.000000000               0.000000000               0.000000000               0.000000000              -0.000557386               0.005492709              -0.000643166              -0.000895606               0.002129420               0.001233814               0.000000000               0.000000000               0.000000000               0.000000000              -0.000391280               0.005100670              -0.000511975              -0.000784312               0.001961644               0.001177331               0.000000000               0.000000000               0.000000000               0.000000000              -0.000238078               0.004777341              -0.000357051              -0.000686445               0.001821246               0.001134801               0.000000000               0.000000000               0.000000000               0.000000000              -0.000106961               0.004544724              -0.000185849              -0.000608199               0.001717626               0.001109427               0.000000000               0.000000000               0.000000000               0.000000000              -0.000058531               0.004435794              -0.000103391              -0.000576422               0.001670724               0.001094302               0.000000000               0.000000000               0.000000000               0.000000000               0.002385485               0.014585424               0.004519294              -0.000928623               0.005171299               0.004242676               0.000000000               0.000000000               0.000000000               0.000000000               0.000449530               0.012824115               0.002289495              -0.001434438               0.004752808               0.003318369               0.000000000               0.000000000               0.000000000               0.000000000              -0.000897320               0.011892185               0.000198915              -0.001823014               0.004571693               0.002748680               0.000000000               0.000000000               0.000000000               0.000000000              -0.001490411               0.010939700              -0.000491166              -0.001926362               0.004288651               0.002362289               0.000000000               0.000000000               0.000000000               0.000000000              -0.001724971               0.010084373              -0.000711107              -0.001907406               0.003997226               0.002089820               0.000000000               0.000000000               0.000000000               0.000000000              -0.001783787               0.009327012              -0.000773867              -0.001834792               0.003720570               0.001885778               0.000000000               0.000000000               0.000000000               0.000000000              -0.001738900               0.008639793              -0.000786108              -0.001732058               0.003457255               0.001725197               0.000000000               0.000000000               0.000000000               0.000000000              -0.001623323               0.008000234              -0.000766144              -0.001608772               0.003202975               0.001594203               0.000000000               0.000000000               0.000000000               0.000000000              -0.001457601               0.007397035              -0.000715724              -0.001471226               0.002956062               0.001484836               0.000000000               0.000000000               0.000000000               0.000000000              -0.001258370               0.006839371              -0.000655853              -0.001326807               0.002722036               0.001395229               0.000000000               0.000000000               0.000000000               0.000000000              -0.001043142               0.006332260              -0.000591492              -0.001182708               0.002504968               0.001322260               0.000000000               0.000000000               0.000000000               0.000000000              -0.000819076               0.005880298              -0.000516410              -0.001042188               0.002307476               0.001265288               0.000000000               0.000000000               0.000000000               0.000000000              -0.000599839               0.005491682              -0.000426659              -0.000911398               0.002134341               0.001222944               0.000000000               0.000000000               0.000000000               0.000000000              -0.000401445               0.005171181              -0.000319503              -0.000796937               0.001989355               0.001192418               0.000000000               0.000000000               0.000000000               0.000000000              -0.000232390               0.004930278              -0.000206519              -0.000703429               0.001877886               0.001174457               0.000000000               0.000000000               0.000000000               0.000000000              -0.000099333               0.004780831              -0.000100700              -0.000634852               0.001805212               0.001170360               0.000000000               0.000000000               0.000000000               0.000000000              -0.000049524               0.004722041              -0.000054070              -0.000608825               0.001776940               0.001168115               0.000000000               0.000000000               0.000000000               0.000000000               0.001743663               0.011705345               0.004098519              -0.000809296               0.004171507               0.003362211               0.000000000               0.000000000               0.000000000               0.000000000              -0.000374402               0.011101582               0.002236541              -0.001528096               0.004209855               0.002681759               0.000000000               0.000000000               0.000000000               0.000000000              -0.001962115               0.011091646               0.000497265              -0.002122244               0.004404593               0.002282349               0.000000000               0.000000000               0.000000000               0.000000000              -0.002428681               0.010464483              -0.000059518              -0.002218810               0.004227730               0.002008919               0.000000000               0.000000000               0.000000000               0.000000000              -0.002475538               0.009741824              -0.000254676              -0.002146049               0.003962592               0.001816543               0.000000000               0.000000000               0.000000000               0.000000000              -0.002356501               0.009035315              -0.000333021              -0.002013097               0.003682774               0.001669677               0.000000000               0.000000000               0.000000000               0.000000000              -0.002154459               0.008363257              -0.000373676              -0.001853325               0.003405500               0.001552175               0.000000000               0.000000000               0.000000000               0.000000000              -0.001898556               0.007731666              -0.000386046              -0.001678412               0.003136667               0.001458255               0.000000000               0.000000000               0.000000000               0.000000000              -0.001613639               0.007142646              -0.000368808              -0.001497942               0.002880172               0.001382231               0.000000000               0.000000000               0.000000000               0.000000000              -0.001316769               0.006613255              -0.000341461              -0.001320442               0.002644544               0.001324102               0.000000000               0.000000000               0.000000000               0.000000000              -0.001029723               0.006150796              -0.000307948              -0.001154993               0.002435242               0.001280250               0.000000000               0.000000000               0.000000000               0.000000000              -0.000762675               0.005755167              -0.000264477              -0.001005396               0.002253502               0.001248106               0.000000000               0.000000000               0.000000000               0.000000000              -0.000523827               0.005430932              -0.000210474              -0.000875299               0.002102059               0.001226760               0.000000000               0.000000000               0.000000000               0.000000000              -0.000325491               0.005183681              -0.000144493              -0.000770017               0.001984549               0.001214531               0.000000000               0.000000000               0.000000000               0.000000000              -0.000173554               0.005017018              -0.000082424              -0.000692208               0.001903059               0.001210850               0.000000000               0.000000000               0.000000000               0.000000000              -0.000069105               0.004924119              -0.000036404              -0.000641428               0.001855166               0.001213738               0.000000000               0.000000000               0.000000000               0.000000000              -0.000033571               0.004890533              -0.000019997              -0.000623904               0.001838129               0.001214225               0.000000000               0.000000000               0.000000000               0.000000000               0.000767512               0.009033817               0.003379147              -0.000841411               0.003291711               0.002450300               0.000000000               0.000000000               0.000000000               0.000000000              -0.001291832               0.009516327               0.002115121              -0.001673975               0.003730069               0.002056093               0.000000000               0.000000000               0.000000000               0.000000000              -0.002868112               0.010251821               0.000896002              -0.002357014               0.004202911               0.001845897               0.000000000               0.000000000               0.000000000               0.000000000              -0.003105782               0.009872279               0.000459573              -0.002398697               0.004090292               0.001691595               0.000000000               0.000000000               0.000000000               0.000000000              -0.002946362               0.009257715               0.000257920              -0.002262095               0.003839906               0.001577811               0.000000000               0.000000000               0.000000000               0.000000000              -0.002658578               0.008603589               0.000141479              -0.002072410               0.003558638               0.001486227               0.000000000               0.000000000               0.000000000               0.000000000              -0.002313290               0.007968674               0.000055182              -0.001863563               0.003277386               0.001413822               0.000000000               0.000000000               0.000000000               0.000000000              -0.001935517               0.007367324              -0.000003163              -0.001646730               0.003004660               0.001357930               0.000000000               0.000000000               0.000000000               0.000000000              -0.001551681               0.006814410              -0.000031076              -0.001433678               0.002749340               0.001315662               0.000000000               0.000000000               0.000000000               0.000000000              -0.001182954               0.006334298              -0.000050904              -0.001235392               0.002523209               0.001287817               0.000000000               0.000000000               0.000000000               0.000000000              -0.000850924               0.005927657              -0.000062239              -0.001060051               0.002329216               0.001269165               0.000000000               0.000000000               0.000000000               0.000000000              -0.000572265               0.005591054              -0.000059475              -0.000913479               0.002168159               0.001254680               0.000000000               0.000000000               0.000000000               0.000000000              -0.000350713               0.005328106              -0.000048579              -0.000797529               0.002041861               0.001244332               0.000000000               0.000000000               0.000000000               0.000000000              -0.000186466               0.005145542              -0.000029820              -0.000713116               0.001952869               0.001239753               0.000000000               0.000000000               0.000000000               0.000000000              -0.000078183               0.005037408              -0.000011355              -0.000658993               0.001898783               0.001239791               0.000000000               0.000000000               0.000000000               0.000000000              -0.000021938               0.004983736              -0.000002962              -0.000631192               0.001871626               0.001240434               0.000000000               0.000000000               0.000000000               0.000000000              -0.000007492               0.004966222              -0.000002760              -0.000623586               0.001863253               0.001239667               0.000000000               0.000000000               0.000000000               0.000000000              -0.000403769               0.006768518               0.002489672              -0.000997477               0.002588642               0.001591164               0.000000000               0.000000000               0.000000000               0.000000000              -0.002187794               0.008097392               0.001974951              -0.001832593               0.003309967               0.001477374               0.000000000               0.000000000               0.000000000               0.000000000              -0.003572834               0.009413560               0.001370008              -0.002516502               0.003976656               0.001460154               0.000000000               0.000000000               0.000000000               0.000000000              -0.003564584               0.009286532               0.001008359              -0.002497529               0.003927989               0.001430460               0.000000000               0.000000000               0.000000000               0.000000000              -0.003228967               0.008809745               0.000773191              -0.002312075               0.003707244               0.001395169               0.000000000               0.000000000               0.000000000               0.000000000              -0.002806183               0.008246953               0.000603880              -0.002083183               0.003443351               0.001360168               0.000000000               0.000000000               0.000000000               0.000000000              -0.002351723               0.007679573               0.000471683              -0.001841838               0.003173778               0.001331940               0.000000000               0.000000000               0.000000000               0.000000000              -0.001884246               0.007128749               0.000367604              -0.001597682               0.002908786               0.001311105               0.000000000               0.000000000               0.000000000               0.000000000              -0.001422862               0.006625692               0.000285121              -0.001361781               0.002662469               0.001300688               0.000000000               0.000000000               0.000000000               0.000000000              -0.001000277               0.006192295               0.000211960              -0.001149138               0.002447124               0.001297986               0.000000000               0.000000000               0.000000000               0.000000000              -0.000643248               0.005820980               0.000150139              -0.000968838               0.002263253               0.001294415               0.000000000               0.000000000               0.000000000               0.000000000              -0.000366230               0.005512440               0.000101889              -0.000826389               0.002112925               0.001286536               0.000000000               0.000000000               0.000000000               0.000000000              -0.000170532               0.005279065               0.000063560              -0.000723831               0.002000948               0.001277117               0.000000000               0.000000000               0.000000000               0.000000000              -0.000049918               0.005121152               0.000034918              -0.000658862               0.001926654               0.001267793               0.000000000               0.000000000               0.000000000               0.000000000               0.000008804               0.005032871               0.000015620              -0.000625806               0.001886209               0.001260403               0.000000000               0.000000000               0.000000000               0.000000000               0.000021603               0.004996988               0.000003769              -0.000616521               0.001871153               0.001254632               0.000000000               0.000000000               0.000000000               0.000000000               0.000017819               0.004987655              -0.000000850              -0.000616773               0.001868126               0.001251353               0.000000000               0.000000000               0.000000000               0.000000000              -0.001784685               0.004671368               0.001545913              -0.001253176               0.001974832               0.000721656               0.000000000               0.000000000               0.000000000               0.000000000              -0.002946371               0.006462559               0.001813822              -0.001912705               0.002791733               0.000879028               0.000000000               0.000000000               0.000000000               0.000000000              -0.003993997               0.008195867               0.001864878              -0.002522227               0.003572670               0.001050444               0.000000000               0.000000000               0.000000000               0.000000000              -0.003847022               0.008452253               0.001590968              -0.002499159               0.003650442               0.001151283               0.000000000               0.000000000               0.000000000               0.000000000              -0.003428034               0.008241433               0.001324810              -0.002315687               0.003519012               0.001203326               0.000000000               0.000000000               0.000000000               0.000000000              -0.002954466               0.007871973               0.001103737              -0.002091917               0.003321270               0.001229354               0.000000000               0.000000000               0.000000000               0.000000000              -0.002468883               0.007457471               0.000928333              -0.001858010               0.003105136               0.001247125               0.000000000               0.000000000               0.000000000               0.000000000              -0.001981095               0.007039041               0.000780429              -0.001622787               0.002887253               0.001264466               0.000000000               0.000000000               0.000000000               0.000000000              -0.001504105               0.006632260               0.000646744              -0.001393069               0.002675087               0.001282019               0.000000000               0.000000000               0.000000000               0.000000000              -0.001060086               0.006258788               0.000522905              -0.001179878               0.002479534               0.001299657               0.000000000               0.000000000               0.000000000               0.000000000              -0.000675795               0.005924792               0.000408250              -0.000994020               0.002306251               0.001312231               0.000000000               0.000000000               0.000000000               0.000000000              -0.000368751               0.005630352               0.000301426              -0.000842074               0.002157456               0.001315383               0.000000000               0.000000000               0.000000000               0.000000000              -0.000149731               0.005386252               0.000204036              -0.000729429               0.002038542               0.001309114               0.000000000               0.000000000               0.000000000               0.000000000              -0.000014116               0.005199595               0.000121978              -0.000655241               0.001951595               0.001296354               0.000000000               0.000000000               0.000000000               0.000000000               0.000055063               0.005081769               0.000057201              -0.000614571               0.001898763               0.001284192               0.000000000               0.000000000               0.000000000               0.000000000               0.000072179               0.005022693               0.000016067              -0.000600768               0.001874470               0.001273702               0.000000000               0.000000000               0.000000000               0.000000000               0.000064982               0.005001026               0.000001552              -0.000600759               0.001867245               0.001266486               0.000000000               0.000000000               0.000000000               0.000000000              -0.003556741               0.002768301               0.000618083              -0.001679812               0.001482694              -0.000197118               0.000000000               0.000000000               0.000000000               0.000000000              -0.003806999               0.004811413               0.001578272              -0.002029047               0.002280137               0.000251090               0.000000000               0.000000000               0.000000000               0.000000000              -0.004324623               0.006771952               0.002254942              -0.002468222               0.003080035               0.000611813               0.000000000               0.000000000               0.000000000               0.000000000              -0.004044490               0.007399288               0.002146230              -0.002441589               0.003280267               0.000838678               0.000000000               0.000000000               0.000000000               0.000000000              -0.003571330               0.007495569               0.001892616              -0.002276190               0.003257227               0.000981038               0.000000000               0.000000000               0.000000000               0.000000000              -0.003068477               0.007368306               0.001639540              -0.002071713               0.003146648               0.001074935               0.000000000               0.000000000               0.000000000               0.000000000              -0.002571162               0.007151131               0.001424851              -0.001858073               0.003003044               0.001144971               0.000000000               0.000000000               0.000000000               0.000000000              -0.002084936               0.006886269               0.001240000              -0.001642631               0.002842943               0.001200313               0.000000000               0.000000000               0.000000000               0.000000000              -0.001610104               0.006594866               0.001068896              -0.001428144               0.002674314               0.001246170               0.000000000               0.000000000               0.000000000               0.000000000              -0.001155990               0.006303194               0.000904338              -0.001221393               0.002508174               0.001286782               0.000000000               0.000000000               0.000000000               0.000000000              -0.000743434               0.006022434               0.000745211              -0.001031590               0.002351321               0.001319731               0.000000000               0.000000000               0.000000000               0.000000000              -0.000392405               0.005756691               0.000586798              -0.000866736               0.002207790               0.001341054               0.000000000               0.000000000               0.000000000               0.000000000              -0.000116923               0.005514381               0.000431706              -0.000733142               0.002082489               0.001349347               0.000000000               0.000000000               0.000000000               0.000000000               0.000070273               0.005307231               0.000289751              -0.000637050               0.001981409               0.001344359               0.000000000               0.000000000               0.000000000               0.000000000               0.000176057               0.005157330               0.000164540              -0.000578643               0.001911974               0.001333330               0.000000000               0.000000000               0.000000000               0.000000000               0.000207798               0.005059836               0.000065432              -0.000554554               0.001871446               0.001316893               0.000000000               0.000000000               0.000000000               0.000000000               0.000195466               0.005016040               0.000021993              -0.000553704               0.001856565               0.001302861               0.000000000               0.000000000               0.000000000               0.000000000              -0.005590778               0.001205357              -0.000210229              -0.002247209               0.001150847              -0.001096361               0.000000000               0.000000000               0.000000000               0.000000000              -0.004812304               0.003251396               0.001252299              -0.002211034               0.001820797              -0.000390237               0.000000000               0.000000000               0.000000000               0.000000000              -0.004593396               0.005162403               0.002424926              -0.002367819               0.002510056               0.000142237               0.000000000               0.000000000               0.000000000               0.000000000              -0.004096662               0.006049539               0.002524432              -0.002292436               0.002780637               0.000488201               0.000000000               0.000000000               0.000000000               0.000000000              -0.003555833               0.006431220               0.002338645              -0.002137335               0.002856163               0.000718828               0.000000000               0.000000000               0.000000000               0.000000000              -0.003028258               0.006562177               0.002095899              -0.001955865               0.002839325               0.000883460               0.000000000               0.000000000               0.000000000               0.000000000              -0.002527732               0.006559841               0.001866185              -0.001767876               0.002775883               0.001008007               0.000000000               0.000000000               0.000000000               0.000000000              -0.002048848               0.006472425               0.001658428              -0.001577368               0.002683242               0.001105875               0.000000000               0.000000000               0.000000000               0.000000000              -0.001586775               0.006329019               0.001464030              -0.001386165               0.002571707               0.001185542               0.000000000               0.000000000               0.000000000               0.000000000              -0.001139267               0.006151059               0.001277928              -0.001196105               0.002449034               0.001252929               0.000000000               0.000000000               0.000000000               0.000000000              -0.000713761               0.005953906               0.001094725              -0.001011896               0.002321914               0.001310018               0.000000000               0.000000000               0.000000000               0.000000000              -0.000328758               0.005748692               0.000908491              -0.000841869               0.002196835               0.001354965               0.000000000               0.000000000               0.000000000               0.000000000               0.000003606               0.005545146               0.000716796              -0.000691790               0.002078960               0.001387170               0.000000000               0.000000000               0.000000000               0.000000000               0.000261379               0.005358354               0.000522000              -0.000571776               0.001976692               0.001404916               0.000000000               0.000000000               0.000000000               0.000000000               0.000423547               0.005200655               0.000331431              -0.000491250               0.001897284               0.001406034               0.000000000               0.000000000               0.000000000               0.000000000               0.000486177               0.005081588               0.000154361              -0.000452881               0.001844806               0.001391925               0.000000000               0.000000000               0.000000000               0.000000000               0.000479250               0.005027183               0.000067595              -0.000448678               0.001825270               0.001376592               0.000000000               0.000000000               0.000000000               0.000000000              -0.007744019               0.000079389              -0.000821238              -0.002913928               0.000997765              -0.001916163               0.000000000               0.000000000               0.000000000               0.000000000              -0.005903705               0.001877399               0.000886678              -0.002448561               0.001441976              -0.001006584               0.000000000               0.000000000               0.000000000               0.000000000              -0.004828086               0.003509927               0.002346408              -0.002249269               0.001919718              -0.000329551               0.000000000               0.000000000               0.000000000               0.000000000              -0.004037590               0.004523183               0.002629620              -0.002079490               0.002200874               0.000121385               0.000000000               0.000000000               0.000000000               0.000000000              -0.003394655               0.005133141               0.002543195              -0.001914635               0.002349240               0.000434606               0.000000000               0.000000000               0.000000000               0.000000000              -0.002832852               0.005496351               0.002349527              -0.001749360               0.002415218               0.000665858               0.000000000               0.000000000               0.000000000               0.000000000              -0.002332642               0.005697156               0.002138321              -0.001586882               0.002427993               0.000841111               0.000000000               0.000000000               0.000000000               0.000000000              -0.001871031               0.005793383               0.001933334              -0.001425807               0.002406377               0.000980570               0.000000000               0.000000000               0.000000000               0.000000000              -0.001425166               0.005816874               0.001737893              -0.001261544               0.002359453               0.001097909               0.000000000               0.000000000               0.000000000               0.000000000              -0.000985139               0.005783620               0.001553181              -0.001092378               0.002291980               0.001199602               0.000000000               0.000000000               0.000000000               0.000000000              -0.000554844               0.005705128               0.001369886              -0.000921206               0.002208758               0.001287553               0.000000000               0.000000000               0.000000000               0.000000000              -0.000143360               0.005594202               0.001181557              -0.000753034               0.002115727               0.001362693               0.000000000               0.000000000               0.000000000               0.000000000               0.000238334               0.005465450               0.000981193              -0.000593805               0.002019733               0.001425928               0.000000000               0.000000000               0.000000000               0.000000000               0.000571394               0.005334243               0.000757537              -0.000452507               0.001928899               0.001476392               0.000000000               0.000000000               0.000000000               0.000000000               0.000824423               0.005204296               0.000514280              -0.000341378               0.001848541               0.001507163               0.000000000               0.000000000               0.000000000               0.000000000               0.000972331               0.005092370               0.000260213              -0.000271922               0.001788080               0.001516159               0.000000000               0.000000000               0.000000000               0.000000000               0.001012306               0.005042490               0.000130107              -0.000250696               0.001764379               0.001513683               0.000000000               0.000000000               0.000000000               0.000000000              -0.009812862              -0.000624087              -0.001104954              -0.003601810               0.000992567              -0.002609243               0.000000000               0.000000000               0.000000000               0.000000000              -0.006987109               0.000770695               0.000545518              -0.002716500               0.001162390              -0.001554110               0.000000000               0.000000000               0.000000000               0.000000000              -0.005045450               0.001981502               0.002017781              -0.002139728               0.001373733              -0.000765995               0.000000000               0.000000000               0.000000000               0.000000000              -0.003914284               0.002996984               0.002402537              -0.001842476               0.001613141              -0.000229335               0.000000000               0.000000000               0.000000000               0.000000000              -0.003134942               0.003749408               0.002408715              -0.001644276               0.001797881               0.000153605               0.000000000               0.000000000               0.000000000               0.000000000              -0.002527763               0.004287994               0.002282024              -0.001483908               0.001923952               0.000440044               0.000000000               0.000000000               0.000000000               0.000000000              -0.002020630               0.004665605               0.002115082              -0.001340935               0.002002163               0.000661229               0.000000000               0.000000000               0.000000000               0.000000000              -0.001569630               0.004932623               0.001943865              -0.001205187               0.002045920               0.000840732               0.000000000               0.000000000               0.000000000               0.000000000              -0.001137857               0.005121250               0.001778567              -0.001066851               0.002062683               0.000995832               0.000000000               0.000000000               0.000000000               0.000000000              -0.000709271               0.005242607               0.001618972              -0.000921301               0.002054618               0.001133317               0.000000000               0.000000000               0.000000000               0.000000000              -0.000280697               0.005300103               0.001457886              -0.000767773               0.002022607               0.001254834               0.000000000               0.000000000               0.000000000               0.000000000               0.000149302               0.005308623               0.001292050              -0.000607589               0.001972053               0.001364464               0.000000000               0.000000000               0.000000000               0.000000000               0.000570932               0.005281156               0.001109055              -0.000446045               0.001909049               0.001463004               0.000000000               0.000000000               0.000000000               0.000000000               0.000977472               0.005231328               0.000894247              -0.000287364               0.001839546               0.001552182               0.000000000               0.000000000               0.000000000               0.000000000               0.001355183               0.005166039               0.000642579              -0.000137561               0.001767850               0.001630288               0.000000000               0.000000000               0.000000000               0.000000000               0.001669617               0.005089354               0.000344110              -0.000010063               0.001699789               0.001689725               0.000000000               0.000000000               0.000000000               0.000000000               0.001836993               0.005060939               0.000187345               0.000056254               0.001668211               0.001724465               0.000000000               0.000000000               0.000000000               0.000000000              -0.011552620              -0.000995731              -0.001014354              -0.004207763               0.001070670              -0.003137093               0.000000000               0.000000000               0.000000000               0.000000000              -0.007929455              -0.000022691               0.000281196              -0.002970707               0.000982665              -0.001988042               0.000000000               0.000000000               0.000000000               0.000000000              -0.005236974               0.000746113               0.001473481              -0.002057127               0.000934406              -0.001122721               0.000000000               0.000000000               0.000000000               0.000000000              -0.003774126               0.001681454               0.001841038              -0.001625477               0.001102302              -0.000523175               0.000000000               0.000000000               0.000000000               0.000000000              -0.002850696               0.002498874               0.001896881              -0.001381368               0.001293404              -0.000087964               0.000000000               0.000000000               0.000000000               0.000000000              -0.002194692               0.003154367               0.001830788              -0.001217303               0.001457212               0.000239909               0.000000000               0.000000000               0.000000000               0.000000000              -0.001672531               0.003665849               0.001722528              -0.001085428               0.001583746               0.000498318               0.000000000               0.000000000               0.000000000               0.000000000              -0.001217465               0.004066045               0.001606531              -0.000964803               0.001676935               0.000712132               0.000000000               0.000000000               0.000000000               0.000000000              -0.000794464               0.004383912               0.001490531              -0.000845912               0.001743259               0.000897348               0.000000000               0.000000000               0.000000000               0.000000000              -0.000380298               0.004632189               0.001375328              -0.000721634               0.001784592               0.001062958               0.000000000               0.000000000               0.000000000               0.000000000               0.000044669               0.004819412               0.001258761              -0.000585675               0.001801679               0.001216005               0.000000000               0.000000000               0.000000000               0.000000000               0.000487557               0.004953283               0.001132744              -0.000436326               0.001796520               0.001360193               0.000000000               0.000000000               0.000000000               0.000000000               0.000947647               0.005038357               0.000989048              -0.000274427               0.001770911               0.001496484               0.000000000               0.000000000               0.000000000               0.000000000               0.001435461               0.005088360               0.000822215              -0.000097748               0.001728686               0.001630938               0.000000000               0.000000000               0.000000000               0.000000000               0.001953608               0.005104886               0.000617236               0.000094491               0.001670115               0.001764606               0.000000000               0.000000000               0.000000000               0.000000000               0.002485338               0.005072356               0.000345279               0.000297954               0.001591450               0.001889404               0.000000000               0.000000000               0.000000000               0.000000000               0.002852010               0.005078321               0.000201322               0.000434709               0.001547854               0.001982563               0.000000000               0.000000000               0.000000000               0.000000000              -0.012720432              -0.001157500              -0.000599618              -0.004625472               0.001155983              -0.003469489               0.000000000               0.000000000               0.000000000               0.000000000              -0.008578995              -0.000496461               0.000109882              -0.003155063               0.000886195              -0.002268868               0.000000000               0.000000000               0.000000000               0.000000000              -0.005370978              -0.000055784               0.000775312              -0.002007142               0.000650448              -0.001356694               0.000000000               0.000000000               0.000000000               0.000000000              -0.003666884               0.000787987               0.001000151              -0.001473578               0.000753849              -0.000719729               0.000000000               0.000000000               0.000000000               0.000000000              -0.002636200               0.001621878               0.001047493              -0.001191308               0.000937722              -0.000253586               0.000000000               0.000000000               0.000000000               0.000000000              -0.001932405               0.002341171               0.001022862              -0.001017296               0.001119481               0.000102185               0.000000000               0.000000000               0.000000000               0.000000000              -0.001391085               0.002931520               0.000973558              -0.000888095               0.001273195               0.000385100               0.000000000               0.000000000               0.000000000               0.000000000              -0.000932112               0.003413336               0.000916306              -0.000776207               0.001396503               0.000620296               0.000000000               0.000000000               0.000000000               0.000000000              -0.000512007               0.003810310               0.000856957              -0.000668290               0.001492854               0.000824564               0.000000000               0.000000000               0.000000000               0.000000000              -0.000100818               0.004143157               0.000799320              -0.000555700               0.001566272               0.001010572               0.000000000               0.000000000               0.000000000               0.000000000               0.000322544               0.004421559               0.000740008              -0.000431740               0.001617752               0.001186011               0.000000000               0.000000000               0.000000000               0.000000000               0.000773148               0.004641825               0.000671200              -0.000290297               0.001644025               0.001353728               0.000000000               0.000000000               0.000000000               0.000000000               0.001270136               0.004810924               0.000591121              -0.000125065               0.001645313               0.001520249               0.000000000               0.000000000               0.000000000               0.000000000               0.001829504               0.004939167               0.000499036               0.000068667               0.001623483               0.001692151               0.000000000               0.000000000               0.000000000               0.000000000               0.002462270               0.005020862               0.000383126               0.000295740               0.001575024               0.001870764               0.000000000               0.000000000               0.000000000               0.000000000               0.003180224               0.005033398               0.000219345               0.000563404               0.001489981               0.002053385               0.000000000               0.000000000               0.000000000               0.000000000               0.003730416               0.005078198               0.000133305               0.000764124               0.001438008               0.002202132               0.000000000               0.000000000               0.000000000               0.000000000               0.000000000               0.000000000               0.000000000               0.000000000               0.000000000               0.000000000               0.000000000               0.000000000               0.000000000               0.000000000               0.000000000               0.000000000               0.000000000               0.000000000               0.000000000               0.000000000               0.000000000               0.000000000               0.000000000               0.000000000               0.000000000               0.000000000               0.000000000               0.000000000               0.000000000               0.000000000               0.000000000               0.000000000               0.000000000               0.000000000               0.000000000               0.000000000               0.000000000               0.000000000               0.000000000               0.000000000               0.000000000               0.000000000               0.000000000               0.000000000               0.000000000               0.000000000               0.000000000               0.000000000               0.000000000               0.000000000               0.000000000               0.000000000               0.000000000               0.000000000               0.000000000               0.000000000               0.000000000               0.000000000               0.000000000               0.000000000               0.000000000               0.000000000               0.000000000               0.000000000               0.000000000               0.000000000               0.000000000               0.000000000               0.000000000               0.000000000               0.000000000               0.000000000               0.000000000               0.000000000               0.000000000               0.000000000               0.000000000               0.000000000               0.000000000               0.000000000               0.000000000               0.000000000               0.000000000               0.000000000               0.000000000               0.000000000               0.000000000               0.000000000               0.000000000               0.000000000               0.000000000               0.000000000               0.000000000               0.000000000               0.000000000               0.000000000               0.000000000               0.000000000               0.000000000               0.000000000               0.000000000               0.000000000               0.000000000               0.000000000               0.000000000               0.000000000               0.000000000               0.000000000               0.000000000               0.000000000               0.000000000               0.000000000               0.000000000               0.000000000               0.000000000               0.000000000               0.000000000               0.000000000               0.000000000               0.000000000               0.000000000               0.000000000               0.000000000               0.000000000               0.000000000               0.000000000               0.000000000               0.000000000               0.000000000               0.000000000               0.000000000               0.000000000               0.000000000               0.000000000               0.000000000               0.000000000               0.000000000               0.000000000               0.000000000               0.000000000               0.000000000               0.000000000               0.000000000               0.000000000               0.000000000               0.000000000               0.000000000               0.000000000               0.000000000               0.000000000               0.000000000               0.000000000               0.000000000               0.000000000               0.000000000               0.000000000               0.000000000               0.000000000               0.000000000               0.000000000               0.000000000               0.000000000               0.000000000               0.000000000               0.000000000               0.000000000               0.000000000               0.000000000               0.000000000               0.000000000               0.000000000               0.000000000               0.000000000               0.000000000 </DataArray>
</PointData>
</Piece>
</UnstructuredGrid> </VTKFile>
