<?xml version="1.0"?>
<VTKFile type="UnstructuredGrid" version="0.1">
<UnstructuredGrid>
<Piece NumberOfPoints="      1156" NumberOfCells="      1024">
<Points>
<DataArray type="Float64"                                    Name="coordinates"                                                      NumberOfComponents=" 3" format="ascii">
              0.133000000               0.000000000               0.000000000               0.155937500               0.000000000               0.000000000               0.178875000               0.000000000               0.000000000               0.201812500               0.000000000               0.000000000               0.224750000               0.000000000               0.000000000               0.247687500               0.000000000               0.000000000               0.270625000               0.000000000               0.000000000               0.293562500               0.000000000               0.000000000               0.316500000               0.000000000               0.000000000               0.339437500               0.000000000               0.000000000               0.362375000               0.000000000               0.000000000               0.385312500               0.000000000               0.000000000               0.408250000               0.000000000               0.000000000               0.431187500               0.000000000               0.000000000               0.454125000               0.000000000               0.000000000               0.477062500               0.000000000               0.000000000               0.500000000               0.000000000               0.000000000               0.132359569               0.013036280               0.000000000               0.155337096               0.016127762               0.000000000               0.178314623               0.019219245               0.000000000               0.201292150               0.022310727               0.000000000               0.224269676               0.025402210               0.000000000               0.247247203               0.028493692               0.000000000               0.270224730               0.031585175               0.000000000               0.293202257               0.034676657               0.000000000               0.316179784               0.037768140               0.000000000               0.339157311               0.040859622               0.000000000               0.362134838               0.043951105               0.000000000               0.385112365               0.047042587               0.000000000               0.408089892               0.050134070               0.000000000               0.431067419               0.053225552               0.000000000               0.454044946               0.056317035               0.000000000               0.477022473               0.059408517               0.000000000               0.500000000               0.062500000               0.000000000               0.130444442               0.025947013               0.000000000               0.153541665               0.032137825               0.000000000               0.176638887               0.038328636               0.000000000               0.199736109               0.044519448               0.000000000               0.222833332               0.050710260               0.000000000               0.245930554               0.056901071               0.000000000               0.269027776               0.063091883               0.000000000               0.292124999               0.069282695               0.000000000               0.315222221               0.075473506               0.000000000               0.338319444               0.081664318               0.000000000               0.361416666               0.087855130               0.000000000               0.384513888               0.094045942               0.000000000               0.407611111               0.100236753               0.000000000               0.430708333               0.106427565               0.000000000               0.453805555               0.112618377               0.000000000               0.476902778               0.118809188               0.000000000               0.500000000               0.125000000               0.000000000               0.127273065               0.038607862               0.000000000               0.150568498               0.047913621               0.000000000               0.173863932               0.057219379               0.000000000               0.197159365               0.066525138               0.000000000               0.220454798               0.075830897               0.000000000               0.243750232               0.085136655               0.000000000               0.267045665               0.094442414               0.000000000               0.290341099               0.103748172               0.000000000               0.313636532               0.113053931               0.000000000               0.336931966               0.122359690               0.000000000               0.360227399               0.131665448               0.000000000               0.383522833               0.140971207               0.000000000               0.406818266               0.150276966               0.000000000               0.430113700               0.159582724               0.000000000               0.453409133               0.168888483               0.000000000               0.476704567               0.178194241               0.000000000               0.500000000               0.187500000               0.000000000               0.122875978               0.050896897               0.000000000               0.146446229               0.063340840               0.000000000               0.170016481               0.075784784               0.000000000               0.193586732               0.088228728               0.000000000               0.217156983               0.100672672               0.000000000               0.240727235               0.113116616               0.000000000               0.264297486               0.125560560               0.000000000               0.287867738               0.138004504               0.000000000               0.311437989               0.150448448               0.000000000               0.335008240               0.162892392               0.000000000               0.358578492               0.175336336               0.000000000               0.382148743               0.187780280               0.000000000               0.405718994               0.200224224               0.000000000               0.429289246               0.212668168               0.000000000               0.452859497               0.225112112               0.000000000               0.476429749               0.237556056               0.000000000               0.500000000               0.250000000               0.000000000               0.117295528               0.062695766               0.000000000               0.141214558               0.078308531               0.000000000               0.165133587               0.093921295               0.000000000               0.189052617               0.109534060               0.000000000               0.212971646               0.125146824               0.000000000               0.236890676               0.140759589               0.000000000               0.260809705               0.156372354               0.000000000               0.284728735               0.171985118               0.000000000               0.308647764               0.187597883               0.000000000               0.332566794               0.203210648               0.000000000               0.356485823               0.218823412               0.000000000               0.380404853               0.234436177               0.000000000               0.404323882               0.250048941               0.000000000               0.428242912               0.265661706               0.000000000               0.452161941               0.281274471               0.000000000               0.476080971               0.296887235               0.000000000               0.500000000               0.312500000               0.000000000               0.110585458               0.073890841               0.000000000               0.134923867               0.092710163               0.000000000               0.159262276               0.111529486               0.000000000               0.183600685               0.130348808               0.000000000               0.207939094               0.149168131               0.000000000               0.232277503               0.167987453               0.000000000               0.256615912               0.186806776               0.000000000               0.280954320               0.205626098               0.000000000               0.305292729               0.224445420               0.000000000               0.329631138               0.243264743               0.000000000               0.353969547               0.262084065               0.000000000               0.378307956               0.280903388               0.000000000               0.402646365               0.299722710               0.000000000               0.426984773               0.318542033               0.000000000               0.451323182               0.337361355               0.000000000               0.475661591               0.356180678               0.000000000               0.500000000               0.375000000               0.000000000               0.102810390               0.084374307               0.000000000               0.127634741               0.106444663               0.000000000               0.152459092               0.128515018               0.000000000               0.177283442               0.150585374               0.000000000               0.202107793               0.172655730               0.000000000               0.226932143               0.194726086               0.000000000               0.251756494               0.216796442               0.000000000               0.276580845               0.238866798               0.000000000               0.301405195               0.260937153               0.000000000               0.326229546               0.283007509               0.000000000               0.351053896               0.305077865               0.000000000               0.375878247               0.327148221               0.000000000               0.400702598               0.349218577               0.000000000               0.425526948               0.371288933               0.000000000               0.450351299               0.393359288               0.000000000               0.475175649               0.415429644               0.000000000               0.500000000               0.437500000               0.000000000               0.094045202               0.094045202               0.000000000               0.119417377               0.119417377               0.000000000               0.144789552               0.144789552               0.000000000               0.170161727               0.170161727               0.000000000               0.195533901               0.195533901               0.000000000               0.220906076               0.220906076               0.000000000               0.246278251               0.246278251               0.000000000               0.271650426               0.271650426               0.000000000               0.297022601               0.297022601               0.000000000               0.322394776               0.322394776               0.000000000               0.347766951               0.347766951               0.000000000               0.373139126               0.373139126               0.000000000               0.398511300               0.398511300               0.000000000               0.423883475               0.423883475               0.000000000               0.449255650               0.449255650               0.000000000               0.474627825               0.474627825               0.000000000               0.500000000               0.500000000               0.000000000               0.084374307               0.102810390               0.000000000               0.106444663               0.127634741               0.000000000               0.128515018               0.152459092               0.000000000               0.150585374               0.177283442               0.000000000               0.172655730               0.202107793               0.000000000               0.194726086               0.226932143               0.000000000               0.216796442               0.251756494               0.000000000               0.238866798               0.276580845               0.000000000               0.260937153               0.301405195               0.000000000               0.283007509               0.326229546               0.000000000               0.305077865               0.351053896               0.000000000               0.327148221               0.375878247               0.000000000               0.349218577               0.400702598               0.000000000               0.371288933               0.425526948               0.000000000               0.393359288               0.450351299               0.000000000               0.415429644               0.475175649               0.000000000               0.437500000               0.500000000               0.000000000               0.073890841               0.110585458               0.000000000               0.092710163               0.134923867               0.000000000               0.111529486               0.159262276               0.000000000               0.130348808               0.183600685               0.000000000               0.149168131               0.207939094               0.000000000               0.167987453               0.232277503               0.000000000               0.186806776               0.256615912               0.000000000               0.205626098               0.280954320               0.000000000               0.224445420               0.305292729               0.000000000               0.243264743               0.329631138               0.000000000               0.262084065               0.353969547               0.000000000               0.280903388               0.378307956               0.000000000               0.299722710               0.402646365               0.000000000               0.318542033               0.426984773               0.000000000               0.337361355               0.451323182               0.000000000               0.356180678               0.475661591               0.000000000               0.375000000               0.500000000               0.000000000               0.062695766               0.117295528               0.000000000               0.078308531               0.141214558               0.000000000               0.093921295               0.165133587               0.000000000               0.109534060               0.189052617               0.000000000               0.125146824               0.212971646               0.000000000               0.140759589               0.236890676               0.000000000               0.156372354               0.260809705               0.000000000               0.171985118               0.284728735               0.000000000               0.187597883               0.308647764               0.000000000               0.203210648               0.332566794               0.000000000               0.218823412               0.356485823               0.000000000               0.234436177               0.380404853               0.000000000               0.250048941               0.404323882               0.000000000               0.265661706               0.428242912               0.000000000               0.281274471               0.452161941               0.000000000               0.296887235               0.476080971               0.000000000               0.312500000               0.500000000               0.000000000               0.050896897               0.122875978               0.000000000               0.063340840               0.146446229               0.000000000               0.075784784               0.170016481               0.000000000               0.088228728               0.193586732               0.000000000               0.100672672               0.217156983               0.000000000               0.113116616               0.240727235               0.000000000               0.125560560               0.264297486               0.000000000               0.138004504               0.287867738               0.000000000               0.150448448               0.311437989               0.000000000               0.162892392               0.335008240               0.000000000               0.175336336               0.358578492               0.000000000               0.187780280               0.382148743               0.000000000               0.200224224               0.405718994               0.000000000               0.212668168               0.429289246               0.000000000               0.225112112               0.452859497               0.000000000               0.237556056               0.476429749               0.000000000               0.250000000               0.500000000               0.000000000               0.038607862               0.127273065               0.000000000               0.047913621               0.150568498               0.000000000               0.057219379               0.173863932               0.000000000               0.066525138               0.197159365               0.000000000               0.075830897               0.220454798               0.000000000               0.085136655               0.243750232               0.000000000               0.094442414               0.267045665               0.000000000               0.103748172               0.290341099               0.000000000               0.113053931               0.313636532               0.000000000               0.122359690               0.336931966               0.000000000               0.131665448               0.360227399               0.000000000               0.140971207               0.383522833               0.000000000               0.150276966               0.406818266               0.000000000               0.159582724               0.430113700               0.000000000               0.168888483               0.453409133               0.000000000               0.178194241               0.476704567               0.000000000               0.187500000               0.500000000               0.000000000               0.025947013               0.130444442               0.000000000               0.032137825               0.153541665               0.000000000               0.038328636               0.176638887               0.000000000               0.044519448               0.199736109               0.000000000               0.050710260               0.222833332               0.000000000               0.056901071               0.245930554               0.000000000               0.063091883               0.269027776               0.000000000               0.069282695               0.292124999               0.000000000               0.075473506               0.315222221               0.000000000               0.081664318               0.338319444               0.000000000               0.087855130               0.361416666               0.000000000               0.094045942               0.384513888               0.000000000               0.100236753               0.407611111               0.000000000               0.106427565               0.430708333               0.000000000               0.112618377               0.453805555               0.000000000               0.118809188               0.476902778               0.000000000               0.125000000               0.500000000               0.000000000               0.013036280               0.132359569               0.000000000               0.016127762               0.155337096               0.000000000               0.019219245               0.178314623               0.000000000               0.022310727               0.201292150               0.000000000               0.025402210               0.224269676               0.000000000               0.028493692               0.247247203               0.000000000               0.031585175               0.270224730               0.000000000               0.034676657               0.293202257               0.000000000               0.037768140               0.316179784               0.000000000               0.040859622               0.339157311               0.000000000               0.043951105               0.362134838               0.000000000               0.047042587               0.385112365               0.000000000               0.050134070               0.408089892               0.000000000               0.053225552               0.431067419               0.000000000               0.056317035               0.454044946               0.000000000               0.059408517               0.477022473               0.000000000               0.062500000               0.500000000               0.000000000               0.000000000               0.133000000               0.000000000               0.000000000               0.155937500               0.000000000               0.000000000               0.178875000               0.000000000               0.000000000               0.201812500               0.000000000               0.000000000               0.224750000               0.000000000               0.000000000               0.247687500               0.000000000               0.000000000               0.270625000               0.000000000               0.000000000               0.293562500               0.000000000               0.000000000               0.316500000               0.000000000               0.000000000               0.339437500               0.000000000               0.000000000               0.362375000               0.000000000               0.000000000               0.385312500               0.000000000               0.000000000               0.408250000               0.000000000               0.000000000               0.431187500               0.000000000               0.000000000               0.454125000               0.000000000               0.000000000               0.477062500               0.000000000               0.000000000               0.500000000               0.000000000               0.133000000               0.000000000               0.000000000               0.155937500               0.000000000               0.000000000               0.178875000               0.000000000               0.000000000               0.201812500               0.000000000               0.000000000               0.224750000               0.000000000               0.000000000               0.247687500               0.000000000               0.000000000               0.270625000               0.000000000               0.000000000               0.293562500               0.000000000               0.000000000               0.316500000               0.000000000               0.000000000               0.339437500               0.000000000               0.000000000               0.362375000               0.000000000               0.000000000               0.385312500               0.000000000               0.000000000               0.408250000               0.000000000               0.000000000               0.431187500               0.000000000               0.000000000               0.454125000               0.000000000               0.000000000               0.477062500               0.000000000               0.000000000               0.500000000               0.000000000               0.000000000               0.132359569              -0.013036280               0.000000000               0.155337096              -0.016127762               0.000000000               0.178314623              -0.019219245               0.000000000               0.201292150              -0.022310727               0.000000000               0.224269676              -0.025402210               0.000000000               0.247247203              -0.028493692               0.000000000               0.270224730              -0.031585175               0.000000000               0.293202257              -0.034676657               0.000000000               0.316179784              -0.037768140               0.000000000               0.339157311              -0.040859622               0.000000000               0.362134838              -0.043951105               0.000000000               0.385112365              -0.047042587               0.000000000               0.408089892              -0.050134070               0.000000000               0.431067419              -0.053225552               0.000000000               0.454044946              -0.056317035               0.000000000               0.477022473              -0.059408517               0.000000000               0.500000000              -0.062500000               0.000000000               0.130444442              -0.025947013               0.000000000               0.153541665              -0.032137825               0.000000000               0.176638887              -0.038328636               0.000000000               0.199736109              -0.044519448               0.000000000               0.222833332              -0.050710260               0.000000000               0.245930554              -0.056901071               0.000000000               0.269027776              -0.063091883               0.000000000               0.292124999              -0.069282695               0.000000000               0.315222221              -0.075473506               0.000000000               0.338319444              -0.081664318               0.000000000               0.361416666              -0.087855130               0.000000000               0.384513888              -0.094045942               0.000000000               0.407611111              -0.100236753               0.000000000               0.430708333              -0.106427565               0.000000000               0.453805555              -0.112618377               0.000000000               0.476902778              -0.118809188               0.000000000               0.500000000              -0.125000000               0.000000000               0.127273065              -0.038607862               0.000000000               0.150568498              -0.047913621               0.000000000               0.173863932              -0.057219379               0.000000000               0.197159365              -0.066525138               0.000000000               0.220454798              -0.075830897               0.000000000               0.243750232              -0.085136655               0.000000000               0.267045665              -0.094442414               0.000000000               0.290341099              -0.103748172               0.000000000               0.313636532              -0.113053931               0.000000000               0.336931966              -0.122359690               0.000000000               0.360227399              -0.131665448               0.000000000               0.383522833              -0.140971207               0.000000000               0.406818266              -0.150276966               0.000000000               0.430113700              -0.159582724               0.000000000               0.453409133              -0.168888483               0.000000000               0.476704567              -0.178194241               0.000000000               0.500000000              -0.187500000               0.000000000               0.122875978              -0.050896897               0.000000000               0.146446229              -0.063340840               0.000000000               0.170016481              -0.075784784               0.000000000               0.193586732              -0.088228728               0.000000000               0.217156983              -0.100672672               0.000000000               0.240727235              -0.113116616               0.000000000               0.264297486              -0.125560560               0.000000000               0.287867738              -0.138004504               0.000000000               0.311437989              -0.150448448               0.000000000               0.335008240              -0.162892392               0.000000000               0.358578492              -0.175336336               0.000000000               0.382148743              -0.187780280               0.000000000               0.405718994              -0.200224224               0.000000000               0.429289246              -0.212668168               0.000000000               0.452859497              -0.225112112               0.000000000               0.476429749              -0.237556056               0.000000000               0.500000000              -0.250000000               0.000000000               0.117295528              -0.062695766               0.000000000               0.141214558              -0.078308531               0.000000000               0.165133587              -0.093921295               0.000000000               0.189052617              -0.109534060               0.000000000               0.212971646              -0.125146824               0.000000000               0.236890676              -0.140759589               0.000000000               0.260809705              -0.156372354               0.000000000               0.284728735              -0.171985118               0.000000000               0.308647764              -0.187597883               0.000000000               0.332566794              -0.203210648               0.000000000               0.356485823              -0.218823412               0.000000000               0.380404853              -0.234436177               0.000000000               0.404323882              -0.250048941               0.000000000               0.428242912              -0.265661706               0.000000000               0.452161941              -0.281274471               0.000000000               0.476080971              -0.296887235               0.000000000               0.500000000              -0.312500000               0.000000000               0.110585458              -0.073890841               0.000000000               0.134923867              -0.092710163               0.000000000               0.159262276              -0.111529486               0.000000000               0.183600685              -0.130348808               0.000000000               0.207939094              -0.149168131               0.000000000               0.232277503              -0.167987453               0.000000000               0.256615912              -0.186806776               0.000000000               0.280954320              -0.205626098               0.000000000               0.305292729              -0.224445420               0.000000000               0.329631138              -0.243264743               0.000000000               0.353969547              -0.262084065               0.000000000               0.378307956              -0.280903388               0.000000000               0.402646365              -0.299722710               0.000000000               0.426984773              -0.318542033               0.000000000               0.451323182              -0.337361355               0.000000000               0.475661591              -0.356180678               0.000000000               0.500000000              -0.375000000               0.000000000               0.102810390              -0.084374307               0.000000000               0.127634741              -0.106444663               0.000000000               0.152459092              -0.128515018               0.000000000               0.177283442              -0.150585374               0.000000000               0.202107793              -0.172655730               0.000000000               0.226932143              -0.194726086               0.000000000               0.251756494              -0.216796442               0.000000000               0.276580845              -0.238866798               0.000000000               0.301405195              -0.260937153               0.000000000               0.326229546              -0.283007509               0.000000000               0.351053896              -0.305077865               0.000000000               0.375878247              -0.327148221               0.000000000               0.400702598              -0.349218577               0.000000000               0.425526948              -0.371288933               0.000000000               0.450351299              -0.393359288               0.000000000               0.475175649              -0.415429644               0.000000000               0.500000000              -0.437500000               0.000000000               0.094045202              -0.094045202               0.000000000               0.119417377              -0.119417377               0.000000000               0.144789552              -0.144789552               0.000000000               0.170161727              -0.170161727               0.000000000               0.195533901              -0.195533901               0.000000000               0.220906076              -0.220906076               0.000000000               0.246278251              -0.246278251               0.000000000               0.271650426              -0.271650426               0.000000000               0.297022601              -0.297022601               0.000000000               0.322394776              -0.322394776               0.000000000               0.347766951              -0.347766951               0.000000000               0.373139126              -0.373139126               0.000000000               0.398511300              -0.398511300               0.000000000               0.423883475              -0.423883475               0.000000000               0.449255650              -0.449255650               0.000000000               0.474627825              -0.474627825               0.000000000               0.500000000              -0.500000000               0.000000000               0.084374307              -0.102810390               0.000000000               0.106444663              -0.127634741               0.000000000               0.128515018              -0.152459092               0.000000000               0.150585374              -0.177283442               0.000000000               0.172655730              -0.202107793               0.000000000               0.194726086              -0.226932143               0.000000000               0.216796442              -0.251756494               0.000000000               0.238866798              -0.276580845               0.000000000               0.260937153              -0.301405195               0.000000000               0.283007509              -0.326229546               0.000000000               0.305077865              -0.351053896               0.000000000               0.327148221              -0.375878247               0.000000000               0.349218577              -0.400702598               0.000000000               0.371288933              -0.425526948               0.000000000               0.393359288              -0.450351299               0.000000000               0.415429644              -0.475175649               0.000000000               0.437500000              -0.500000000               0.000000000               0.073890841              -0.110585458               0.000000000               0.092710163              -0.134923867               0.000000000               0.111529486              -0.159262276               0.000000000               0.130348808              -0.183600685               0.000000000               0.149168131              -0.207939094               0.000000000               0.167987453              -0.232277503               0.000000000               0.186806776              -0.256615912               0.000000000               0.205626098              -0.280954320               0.000000000               0.224445420              -0.305292729               0.000000000               0.243264743              -0.329631138               0.000000000               0.262084065              -0.353969547               0.000000000               0.280903388              -0.378307956               0.000000000               0.299722710              -0.402646365               0.000000000               0.318542033              -0.426984773               0.000000000               0.337361355              -0.451323182               0.000000000               0.356180678              -0.475661591               0.000000000               0.375000000              -0.500000000               0.000000000               0.062695766              -0.117295528               0.000000000               0.078308531              -0.141214558               0.000000000               0.093921295              -0.165133587               0.000000000               0.109534060              -0.189052617               0.000000000               0.125146824              -0.212971646               0.000000000               0.140759589              -0.236890676               0.000000000               0.156372354              -0.260809705               0.000000000               0.171985118              -0.284728735               0.000000000               0.187597883              -0.308647764               0.000000000               0.203210648              -0.332566794               0.000000000               0.218823412              -0.356485823               0.000000000               0.234436177              -0.380404853               0.000000000               0.250048941              -0.404323882               0.000000000               0.265661706              -0.428242912               0.000000000               0.281274471              -0.452161941               0.000000000               0.296887235              -0.476080971               0.000000000               0.312500000              -0.500000000               0.000000000               0.050896897              -0.122875978               0.000000000               0.063340840              -0.146446229               0.000000000               0.075784784              -0.170016481               0.000000000               0.088228728              -0.193586732               0.000000000               0.100672672              -0.217156983               0.000000000               0.113116616              -0.240727235               0.000000000               0.125560560              -0.264297486               0.000000000               0.138004504              -0.287867738               0.000000000               0.150448448              -0.311437989               0.000000000               0.162892392              -0.335008240               0.000000000               0.175336336              -0.358578492               0.000000000               0.187780280              -0.382148743               0.000000000               0.200224224              -0.405718994               0.000000000               0.212668168              -0.429289246               0.000000000               0.225112112              -0.452859497               0.000000000               0.237556056              -0.476429749               0.000000000               0.250000000              -0.500000000               0.000000000               0.038607862              -0.127273065               0.000000000               0.047913621              -0.150568498               0.000000000               0.057219379              -0.173863932               0.000000000               0.066525138              -0.197159365               0.000000000               0.075830897              -0.220454798               0.000000000               0.085136655              -0.243750232               0.000000000               0.094442414              -0.267045665               0.000000000               0.103748172              -0.290341099               0.000000000               0.113053931              -0.313636532               0.000000000               0.122359690              -0.336931966               0.000000000               0.131665448              -0.360227399               0.000000000               0.140971207              -0.383522833               0.000000000               0.150276966              -0.406818266               0.000000000               0.159582724              -0.430113700               0.000000000               0.168888483              -0.453409133               0.000000000               0.178194241              -0.476704567               0.000000000               0.187500000              -0.500000000               0.000000000               0.025947013              -0.130444442               0.000000000               0.032137825              -0.153541665               0.000000000               0.038328636              -0.176638887               0.000000000               0.044519448              -0.199736109               0.000000000               0.050710260              -0.222833332               0.000000000               0.056901071              -0.245930554               0.000000000               0.063091883              -0.269027776               0.000000000               0.069282695              -0.292124999               0.000000000               0.075473506              -0.315222221               0.000000000               0.081664318              -0.338319444               0.000000000               0.087855130              -0.361416666               0.000000000               0.094045942              -0.384513888               0.000000000               0.100236753              -0.407611111               0.000000000               0.106427565              -0.430708333               0.000000000               0.112618377              -0.453805555               0.000000000               0.118809188              -0.476902778               0.000000000               0.125000000              -0.500000000               0.000000000               0.013036280              -0.132359569               0.000000000               0.016127762              -0.155337096               0.000000000               0.019219245              -0.178314623               0.000000000               0.022310727              -0.201292150               0.000000000               0.025402210              -0.224269676               0.000000000               0.028493692              -0.247247203               0.000000000               0.031585175              -0.270224730               0.000000000               0.034676657              -0.293202257               0.000000000               0.037768140              -0.316179784               0.000000000               0.040859622              -0.339157311               0.000000000               0.043951105              -0.362134838               0.000000000               0.047042587              -0.385112365               0.000000000               0.050134070              -0.408089892               0.000000000               0.053225552              -0.431067419               0.000000000               0.056317035              -0.454044946               0.000000000               0.059408517              -0.477022473               0.000000000               0.062500000              -0.500000000               0.000000000               0.000000000              -0.133000000               0.000000000               0.000000000              -0.155937500               0.000000000               0.000000000              -0.178875000               0.000000000               0.000000000              -0.201812500               0.000000000               0.000000000              -0.224750000               0.000000000               0.000000000              -0.247687500               0.000000000               0.000000000              -0.270625000               0.000000000               0.000000000              -0.293562500               0.000000000               0.000000000              -0.316500000               0.000000000               0.000000000              -0.339437500               0.000000000               0.000000000              -0.362375000               0.000000000               0.000000000              -0.385312500               0.000000000               0.000000000              -0.408250000               0.000000000               0.000000000              -0.431187500               0.000000000               0.000000000              -0.454125000               0.000000000               0.000000000              -0.477062500               0.000000000               0.000000000              -0.500000000               0.000000000              -0.133000000               0.000000000               0.000000000              -0.155937500               0.000000000               0.000000000              -0.178875000               0.000000000               0.000000000              -0.201812500               0.000000000               0.000000000              -0.224750000               0.000000000               0.000000000              -0.247687500               0.000000000               0.000000000              -0.270625000               0.000000000               0.000000000              -0.293562500               0.000000000               0.000000000              -0.316500000               0.000000000               0.000000000              -0.339437500               0.000000000               0.000000000              -0.362375000               0.000000000               0.000000000              -0.385312500               0.000000000               0.000000000              -0.408250000               0.000000000               0.000000000              -0.431187500               0.000000000               0.000000000              -0.454125000               0.000000000               0.000000000              -0.477062500               0.000000000               0.000000000              -0.500000000               0.000000000               0.000000000              -0.132359569              -0.013036280               0.000000000              -0.155337096              -0.016127762               0.000000000              -0.178314623              -0.019219245               0.000000000              -0.201292150              -0.022310727               0.000000000              -0.224269676              -0.025402210               0.000000000              -0.247247203              -0.028493692               0.000000000              -0.270224730              -0.031585175               0.000000000              -0.293202257              -0.034676657               0.000000000              -0.316179784              -0.037768140               0.000000000              -0.339157311              -0.040859622               0.000000000              -0.362134838              -0.043951105               0.000000000              -0.385112365              -0.047042587               0.000000000              -0.408089892              -0.050134070               0.000000000              -0.431067419              -0.053225552               0.000000000              -0.454044946              -0.056317035               0.000000000              -0.477022473              -0.059408517               0.000000000              -0.500000000              -0.062500000               0.000000000              -0.130444442              -0.025947013               0.000000000              -0.153541665              -0.032137825               0.000000000              -0.176638887              -0.038328636               0.000000000              -0.199736109              -0.044519448               0.000000000              -0.222833332              -0.050710260               0.000000000              -0.245930554              -0.056901071               0.000000000              -0.269027776              -0.063091883               0.000000000              -0.292124999              -0.069282695               0.000000000              -0.315222221              -0.075473506               0.000000000              -0.338319444              -0.081664318               0.000000000              -0.361416666              -0.087855130               0.000000000              -0.384513888              -0.094045942               0.000000000              -0.407611111              -0.100236753               0.000000000              -0.430708333              -0.106427565               0.000000000              -0.453805555              -0.112618377               0.000000000              -0.476902778              -0.118809188               0.000000000              -0.500000000              -0.125000000               0.000000000              -0.127273065              -0.038607862               0.000000000              -0.150568498              -0.047913621               0.000000000              -0.173863932              -0.057219379               0.000000000              -0.197159365              -0.066525138               0.000000000              -0.220454798              -0.075830897               0.000000000              -0.243750232              -0.085136655               0.000000000              -0.267045665              -0.094442414               0.000000000              -0.290341099              -0.103748172               0.000000000              -0.313636532              -0.113053931               0.000000000              -0.336931966              -0.122359690               0.000000000              -0.360227399              -0.131665448               0.000000000              -0.383522833              -0.140971207               0.000000000              -0.406818266              -0.150276966               0.000000000              -0.430113700              -0.159582724               0.000000000              -0.453409133              -0.168888483               0.000000000              -0.476704567              -0.178194241               0.000000000              -0.500000000              -0.187500000               0.000000000              -0.122875978              -0.050896897               0.000000000              -0.146446229              -0.063340840               0.000000000              -0.170016481              -0.075784784               0.000000000              -0.193586732              -0.088228728               0.000000000              -0.217156983              -0.100672672               0.000000000              -0.240727235              -0.113116616               0.000000000              -0.264297486              -0.125560560               0.000000000              -0.287867738              -0.138004504               0.000000000              -0.311437989              -0.150448448               0.000000000              -0.335008240              -0.162892392               0.000000000              -0.358578492              -0.175336336               0.000000000              -0.382148743              -0.187780280               0.000000000              -0.405718994              -0.200224224               0.000000000              -0.429289246              -0.212668168               0.000000000              -0.452859497              -0.225112112               0.000000000              -0.476429749              -0.237556056               0.000000000              -0.500000000              -0.250000000               0.000000000              -0.117295528              -0.062695766               0.000000000              -0.141214558              -0.078308531               0.000000000              -0.165133587              -0.093921295               0.000000000              -0.189052617              -0.109534060               0.000000000              -0.212971646              -0.125146824               0.000000000              -0.236890676              -0.140759589               0.000000000              -0.260809705              -0.156372354               0.000000000              -0.284728735              -0.171985118               0.000000000              -0.308647764              -0.187597883               0.000000000              -0.332566794              -0.203210648               0.000000000              -0.356485823              -0.218823412               0.000000000              -0.380404853              -0.234436177               0.000000000              -0.404323882              -0.250048941               0.000000000              -0.428242912              -0.265661706               0.000000000              -0.452161941              -0.281274471               0.000000000              -0.476080971              -0.296887235               0.000000000              -0.500000000              -0.312500000               0.000000000              -0.110585458              -0.073890841               0.000000000              -0.134923867              -0.092710163               0.000000000              -0.159262276              -0.111529486               0.000000000              -0.183600685              -0.130348808               0.000000000              -0.207939094              -0.149168131               0.000000000              -0.232277503              -0.167987453               0.000000000              -0.256615912              -0.186806776               0.000000000              -0.280954320              -0.205626098               0.000000000              -0.305292729              -0.224445420               0.000000000              -0.329631138              -0.243264743               0.000000000              -0.353969547              -0.262084065               0.000000000              -0.378307956              -0.280903388               0.000000000              -0.402646365              -0.299722710               0.000000000              -0.426984773              -0.318542033               0.000000000              -0.451323182              -0.337361355               0.000000000              -0.475661591              -0.356180678               0.000000000              -0.500000000              -0.375000000               0.000000000              -0.102810390              -0.084374307               0.000000000              -0.127634741              -0.106444663               0.000000000              -0.152459092              -0.128515018               0.000000000              -0.177283442              -0.150585374               0.000000000              -0.202107793              -0.172655730               0.000000000              -0.226932143              -0.194726086               0.000000000              -0.251756494              -0.216796442               0.000000000              -0.276580845              -0.238866798               0.000000000              -0.301405195              -0.260937153               0.000000000              -0.326229546              -0.283007509               0.000000000              -0.351053896              -0.305077865               0.000000000              -0.375878247              -0.327148221               0.000000000              -0.400702598              -0.349218577               0.000000000              -0.425526948              -0.371288933               0.000000000              -0.450351299              -0.393359288               0.000000000              -0.475175649              -0.415429644               0.000000000              -0.500000000              -0.437500000               0.000000000              -0.094045202              -0.094045202               0.000000000              -0.119417377              -0.119417377               0.000000000              -0.144789552              -0.144789552               0.000000000              -0.170161727              -0.170161727               0.000000000              -0.195533901              -0.195533901               0.000000000              -0.220906076              -0.220906076               0.000000000              -0.246278251              -0.246278251               0.000000000              -0.271650426              -0.271650426               0.000000000              -0.297022601              -0.297022601               0.000000000              -0.322394776              -0.322394776               0.000000000              -0.347766951              -0.347766951               0.000000000              -0.373139126              -0.373139126               0.000000000              -0.398511300              -0.398511300               0.000000000              -0.423883475              -0.423883475               0.000000000              -0.449255650              -0.449255650               0.000000000              -0.474627825              -0.474627825               0.000000000              -0.500000000              -0.500000000               0.000000000              -0.084374307              -0.102810390               0.000000000              -0.106444663              -0.127634741               0.000000000              -0.128515018              -0.152459092               0.000000000              -0.150585374              -0.177283442               0.000000000              -0.172655730              -0.202107793               0.000000000              -0.194726086              -0.226932143               0.000000000              -0.216796442              -0.251756494               0.000000000              -0.238866798              -0.276580845               0.000000000              -0.260937153              -0.301405195               0.000000000              -0.283007509              -0.326229546               0.000000000              -0.305077865              -0.351053896               0.000000000              -0.327148221              -0.375878247               0.000000000              -0.349218577              -0.400702598               0.000000000              -0.371288933              -0.425526948               0.000000000              -0.393359288              -0.450351299               0.000000000              -0.415429644              -0.475175649               0.000000000              -0.437500000              -0.500000000               0.000000000              -0.073890841              -0.110585458               0.000000000              -0.092710163              -0.134923867               0.000000000              -0.111529486              -0.159262276               0.000000000              -0.130348808              -0.183600685               0.000000000              -0.149168131              -0.207939094               0.000000000              -0.167987453              -0.232277503               0.000000000              -0.186806776              -0.256615912               0.000000000              -0.205626098              -0.280954320               0.000000000              -0.224445420              -0.305292729               0.000000000              -0.243264743              -0.329631138               0.000000000              -0.262084065              -0.353969547               0.000000000              -0.280903388              -0.378307956               0.000000000              -0.299722710              -0.402646365               0.000000000              -0.318542033              -0.426984773               0.000000000              -0.337361355              -0.451323182               0.000000000              -0.356180678              -0.475661591               0.000000000              -0.375000000              -0.500000000               0.000000000              -0.062695766              -0.117295528               0.000000000              -0.078308531              -0.141214558               0.000000000              -0.093921295              -0.165133587               0.000000000              -0.109534060              -0.189052617               0.000000000              -0.125146824              -0.212971646               0.000000000              -0.140759589              -0.236890676               0.000000000              -0.156372354              -0.260809705               0.000000000              -0.171985118              -0.284728735               0.000000000              -0.187597883              -0.308647764               0.000000000              -0.203210648              -0.332566794               0.000000000              -0.218823412              -0.356485823               0.000000000              -0.234436177              -0.380404853               0.000000000              -0.250048941              -0.404323882               0.000000000              -0.265661706              -0.428242912               0.000000000              -0.281274471              -0.452161941               0.000000000              -0.296887235              -0.476080971               0.000000000              -0.312500000              -0.500000000               0.000000000              -0.050896897              -0.122875978               0.000000000              -0.063340840              -0.146446229               0.000000000              -0.075784784              -0.170016481               0.000000000              -0.088228728              -0.193586732               0.000000000              -0.100672672              -0.217156983               0.000000000              -0.113116616              -0.240727235               0.000000000              -0.125560560              -0.264297486               0.000000000              -0.138004504              -0.287867738               0.000000000              -0.150448448              -0.311437989               0.000000000              -0.162892392              -0.335008240               0.000000000              -0.175336336              -0.358578492               0.000000000              -0.187780280              -0.382148743               0.000000000              -0.200224224              -0.405718994               0.000000000              -0.212668168              -0.429289246               0.000000000              -0.225112112              -0.452859497               0.000000000              -0.237556056              -0.476429749               0.000000000              -0.250000000              -0.500000000               0.000000000              -0.038607862              -0.127273065               0.000000000              -0.047913621              -0.150568498               0.000000000              -0.057219379              -0.173863932               0.000000000              -0.066525138              -0.197159365               0.000000000              -0.075830897              -0.220454798               0.000000000              -0.085136655              -0.243750232               0.000000000              -0.094442414              -0.267045665               0.000000000              -0.103748172              -0.290341099               0.000000000              -0.113053931              -0.313636532               0.000000000              -0.122359690              -0.336931966               0.000000000              -0.131665448              -0.360227399               0.000000000              -0.140971207              -0.383522833               0.000000000              -0.150276966              -0.406818266               0.000000000              -0.159582724              -0.430113700               0.000000000              -0.168888483              -0.453409133               0.000000000              -0.178194241              -0.476704567               0.000000000              -0.187500000              -0.500000000               0.000000000              -0.025947013              -0.130444442               0.000000000              -0.032137825              -0.153541665               0.000000000              -0.038328636              -0.176638887               0.000000000              -0.044519448              -0.199736109               0.000000000              -0.050710260              -0.222833332               0.000000000              -0.056901071              -0.245930554               0.000000000              -0.063091883              -0.269027776               0.000000000              -0.069282695              -0.292124999               0.000000000              -0.075473506              -0.315222221               0.000000000              -0.081664318              -0.338319444               0.000000000              -0.087855130              -0.361416666               0.000000000              -0.094045942              -0.384513888               0.000000000              -0.100236753              -0.407611111               0.000000000              -0.106427565              -0.430708333               0.000000000              -0.112618377              -0.453805555               0.000000000              -0.118809188              -0.476902778               0.000000000              -0.125000000              -0.500000000               0.000000000              -0.013036280              -0.132359569               0.000000000              -0.016127762              -0.155337096               0.000000000              -0.019219245              -0.178314623               0.000000000              -0.022310727              -0.201292150               0.000000000              -0.025402210              -0.224269676               0.000000000              -0.028493692              -0.247247203               0.000000000              -0.031585175              -0.270224730               0.000000000              -0.034676657              -0.293202257               0.000000000              -0.037768140              -0.316179784               0.000000000              -0.040859622              -0.339157311               0.000000000              -0.043951105              -0.362134838               0.000000000              -0.047042587              -0.385112365               0.000000000              -0.050134070              -0.408089892               0.000000000              -0.053225552              -0.431067419               0.000000000              -0.056317035              -0.454044946               0.000000000              -0.059408517              -0.477022473               0.000000000              -0.062500000              -0.500000000               0.000000000               0.000000000              -0.133000000               0.000000000               0.000000000              -0.155937500               0.000000000               0.000000000              -0.178875000               0.000000000               0.000000000              -0.201812500               0.000000000               0.000000000              -0.224750000               0.000000000               0.000000000              -0.247687500               0.000000000               0.000000000              -0.270625000               0.000000000               0.000000000              -0.293562500               0.000000000               0.000000000              -0.316500000               0.000000000               0.000000000              -0.339437500               0.000000000               0.000000000              -0.362375000               0.000000000               0.000000000              -0.385312500               0.000000000               0.000000000              -0.408250000               0.000000000               0.000000000              -0.431187500               0.000000000               0.000000000              -0.454125000               0.000000000               0.000000000              -0.477062500               0.000000000               0.000000000              -0.500000000               0.000000000              -0.133000000               0.000000000               0.000000000              -0.155937500               0.000000000               0.000000000              -0.178875000               0.000000000               0.000000000              -0.201812500               0.000000000               0.000000000              -0.224750000               0.000000000               0.000000000              -0.247687500               0.000000000               0.000000000              -0.270625000               0.000000000               0.000000000              -0.293562500               0.000000000               0.000000000              -0.316500000               0.000000000               0.000000000              -0.339437500               0.000000000               0.000000000              -0.362375000               0.000000000               0.000000000              -0.385312500               0.000000000               0.000000000              -0.408250000               0.000000000               0.000000000              -0.431187500               0.000000000               0.000000000              -0.454125000               0.000000000               0.000000000              -0.477062500               0.000000000               0.000000000              -0.500000000               0.000000000               0.000000000              -0.132359569               0.013036280               0.000000000              -0.155337096               0.016127762               0.000000000              -0.178314623               0.019219245               0.000000000              -0.201292150               0.022310727               0.000000000              -0.224269676               0.025402210               0.000000000              -0.247247203               0.028493692               0.000000000              -0.270224730               0.031585175               0.000000000              -0.293202257               0.034676657               0.000000000              -0.316179784               0.037768140               0.000000000              -0.339157311               0.040859622               0.000000000              -0.362134838               0.043951105               0.000000000              -0.385112365               0.047042587               0.000000000              -0.408089892               0.050134070               0.000000000              -0.431067419               0.053225552               0.000000000              -0.454044946               0.056317035               0.000000000              -0.477022473               0.059408517               0.000000000              -0.500000000               0.062500000               0.000000000              -0.130444442               0.025947013               0.000000000              -0.153541665               0.032137825               0.000000000              -0.176638887               0.038328636               0.000000000              -0.199736109               0.044519448               0.000000000              -0.222833332               0.050710260               0.000000000              -0.245930554               0.056901071               0.000000000              -0.269027776               0.063091883               0.000000000              -0.292124999               0.069282695               0.000000000              -0.315222221               0.075473506               0.000000000              -0.338319444               0.081664318               0.000000000              -0.361416666               0.087855130               0.000000000              -0.384513888               0.094045942               0.000000000              -0.407611111               0.100236753               0.000000000              -0.430708333               0.106427565               0.000000000              -0.453805555               0.112618377               0.000000000              -0.476902778               0.118809188               0.000000000              -0.500000000               0.125000000               0.000000000              -0.127273065               0.038607862               0.000000000              -0.150568498               0.047913621               0.000000000              -0.173863932               0.057219379               0.000000000              -0.197159365               0.066525138               0.000000000              -0.220454798               0.075830897               0.000000000              -0.243750232               0.085136655               0.000000000              -0.267045665               0.094442414               0.000000000              -0.290341099               0.103748172               0.000000000              -0.313636532               0.113053931               0.000000000              -0.336931966               0.122359690               0.000000000              -0.360227399               0.131665448               0.000000000              -0.383522833               0.140971207               0.000000000              -0.406818266               0.150276966               0.000000000              -0.430113700               0.159582724               0.000000000              -0.453409133               0.168888483               0.000000000              -0.476704567               0.178194241               0.000000000              -0.500000000               0.187500000               0.000000000              -0.122875978               0.050896897               0.000000000              -0.146446229               0.063340840               0.000000000              -0.170016481               0.075784784               0.000000000              -0.193586732               0.088228728               0.000000000              -0.217156983               0.100672672               0.000000000              -0.240727235               0.113116616               0.000000000              -0.264297486               0.125560560               0.000000000              -0.287867738               0.138004504               0.000000000              -0.311437989               0.150448448               0.000000000              -0.335008240               0.162892392               0.000000000              -0.358578492               0.175336336               0.000000000              -0.382148743               0.187780280               0.000000000              -0.405718994               0.200224224               0.000000000              -0.429289246               0.212668168               0.000000000              -0.452859497               0.225112112               0.000000000              -0.476429749               0.237556056               0.000000000              -0.500000000               0.250000000               0.000000000              -0.117295528               0.062695766               0.000000000              -0.141214558               0.078308531               0.000000000              -0.165133587               0.093921295               0.000000000              -0.189052617               0.109534060               0.000000000              -0.212971646               0.125146824               0.000000000              -0.236890676               0.140759589               0.000000000              -0.260809705               0.156372354               0.000000000              -0.284728735               0.171985118               0.000000000              -0.308647764               0.187597883               0.000000000              -0.332566794               0.203210648               0.000000000              -0.356485823               0.218823412               0.000000000              -0.380404853               0.234436177               0.000000000              -0.404323882               0.250048941               0.000000000              -0.428242912               0.265661706               0.000000000              -0.452161941               0.281274471               0.000000000              -0.476080971               0.296887235               0.000000000              -0.500000000               0.312500000               0.000000000              -0.110585458               0.073890841               0.000000000              -0.134923867               0.092710163               0.000000000              -0.159262276               0.111529486               0.000000000              -0.183600685               0.130348808               0.000000000              -0.207939094               0.149168131               0.000000000              -0.232277503               0.167987453               0.000000000              -0.256615912               0.186806776               0.000000000              -0.280954320               0.205626098               0.000000000              -0.305292729               0.224445420               0.000000000              -0.329631138               0.243264743               0.000000000              -0.353969547               0.262084065               0.000000000              -0.378307956               0.280903388               0.000000000              -0.402646365               0.299722710               0.000000000              -0.426984773               0.318542033               0.000000000              -0.451323182               0.337361355               0.000000000              -0.475661591               0.356180678               0.000000000              -0.500000000               0.375000000               0.000000000              -0.102810390               0.084374307               0.000000000              -0.127634741               0.106444663               0.000000000              -0.152459092               0.128515018               0.000000000              -0.177283442               0.150585374               0.000000000              -0.202107793               0.172655730               0.000000000              -0.226932143               0.194726086               0.000000000              -0.251756494               0.216796442               0.000000000              -0.276580845               0.238866798               0.000000000              -0.301405195               0.260937153               0.000000000              -0.326229546               0.283007509               0.000000000              -0.351053896               0.305077865               0.000000000              -0.375878247               0.327148221               0.000000000              -0.400702598               0.349218577               0.000000000              -0.425526948               0.371288933               0.000000000              -0.450351299               0.393359288               0.000000000              -0.475175649               0.415429644               0.000000000              -0.500000000               0.437500000               0.000000000              -0.094045202               0.094045202               0.000000000              -0.119417377               0.119417377               0.000000000              -0.144789552               0.144789552               0.000000000              -0.170161727               0.170161727               0.000000000              -0.195533901               0.195533901               0.000000000              -0.220906076               0.220906076               0.000000000              -0.246278251               0.246278251               0.000000000              -0.271650426               0.271650426               0.000000000              -0.297022601               0.297022601               0.000000000              -0.322394776               0.322394776               0.000000000              -0.347766951               0.347766951               0.000000000              -0.373139126               0.373139126               0.000000000              -0.398511300               0.398511300               0.000000000              -0.423883475               0.423883475               0.000000000              -0.449255650               0.449255650               0.000000000              -0.474627825               0.474627825               0.000000000              -0.500000000               0.500000000               0.000000000              -0.084374307               0.102810390               0.000000000              -0.106444663               0.127634741               0.000000000              -0.128515018               0.152459092               0.000000000              -0.150585374               0.177283442               0.000000000              -0.172655730               0.202107793               0.000000000              -0.194726086               0.226932143               0.000000000              -0.216796442               0.251756494               0.000000000              -0.238866798               0.276580845               0.000000000              -0.260937153               0.301405195               0.000000000              -0.283007509               0.326229546               0.000000000              -0.305077865               0.351053896               0.000000000              -0.327148221               0.375878247               0.000000000              -0.349218577               0.400702598               0.000000000              -0.371288933               0.425526948               0.000000000              -0.393359288               0.450351299               0.000000000              -0.415429644               0.475175649               0.000000000              -0.437500000               0.500000000               0.000000000              -0.073890841               0.110585458               0.000000000              -0.092710163               0.134923867               0.000000000              -0.111529486               0.159262276               0.000000000              -0.130348808               0.183600685               0.000000000              -0.149168131               0.207939094               0.000000000              -0.167987453               0.232277503               0.000000000              -0.186806776               0.256615912               0.000000000              -0.205626098               0.280954320               0.000000000              -0.224445420               0.305292729               0.000000000              -0.243264743               0.329631138               0.000000000              -0.262084065               0.353969547               0.000000000              -0.280903388               0.378307956               0.000000000              -0.299722710               0.402646365               0.000000000              -0.318542033               0.426984773               0.000000000              -0.337361355               0.451323182               0.000000000              -0.356180678               0.475661591               0.000000000              -0.375000000               0.500000000               0.000000000              -0.062695766               0.117295528               0.000000000              -0.078308531               0.141214558               0.000000000              -0.093921295               0.165133587               0.000000000              -0.109534060               0.189052617               0.000000000              -0.125146824               0.212971646               0.000000000              -0.140759589               0.236890676               0.000000000              -0.156372354               0.260809705               0.000000000              -0.171985118               0.284728735               0.000000000              -0.187597883               0.308647764               0.000000000              -0.203210648               0.332566794               0.000000000              -0.218823412               0.356485823               0.000000000              -0.234436177               0.380404853               0.000000000              -0.250048941               0.404323882               0.000000000              -0.265661706               0.428242912               0.000000000              -0.281274471               0.452161941               0.000000000              -0.296887235               0.476080971               0.000000000              -0.312500000               0.500000000               0.000000000              -0.050896897               0.122875978               0.000000000              -0.063340840               0.146446229               0.000000000              -0.075784784               0.170016481               0.000000000              -0.088228728               0.193586732               0.000000000              -0.100672672               0.217156983               0.000000000              -0.113116616               0.240727235               0.000000000              -0.125560560               0.264297486               0.000000000              -0.138004504               0.287867738               0.000000000              -0.150448448               0.311437989               0.000000000              -0.162892392               0.335008240               0.000000000              -0.175336336               0.358578492               0.000000000              -0.187780280               0.382148743               0.000000000              -0.200224224               0.405718994               0.000000000              -0.212668168               0.429289246               0.000000000              -0.225112112               0.452859497               0.000000000              -0.237556056               0.476429749               0.000000000              -0.250000000               0.500000000               0.000000000              -0.038607862               0.127273065               0.000000000              -0.047913621               0.150568498               0.000000000              -0.057219379               0.173863932               0.000000000              -0.066525138               0.197159365               0.000000000              -0.075830897               0.220454798               0.000000000              -0.085136655               0.243750232               0.000000000              -0.094442414               0.267045665               0.000000000              -0.103748172               0.290341099               0.000000000              -0.113053931               0.313636532               0.000000000              -0.122359690               0.336931966               0.000000000              -0.131665448               0.360227399               0.000000000              -0.140971207               0.383522833               0.000000000              -0.150276966               0.406818266               0.000000000              -0.159582724               0.430113700               0.000000000              -0.168888483               0.453409133               0.000000000              -0.178194241               0.476704567               0.000000000              -0.187500000               0.500000000               0.000000000              -0.025947013               0.130444442               0.000000000              -0.032137825               0.153541665               0.000000000              -0.038328636               0.176638887               0.000000000              -0.044519448               0.199736109               0.000000000              -0.050710260               0.222833332               0.000000000              -0.056901071               0.245930554               0.000000000              -0.063091883               0.269027776               0.000000000              -0.069282695               0.292124999               0.000000000              -0.075473506               0.315222221               0.000000000              -0.081664318               0.338319444               0.000000000              -0.087855130               0.361416666               0.000000000              -0.094045942               0.384513888               0.000000000              -0.100236753               0.407611111               0.000000000              -0.106427565               0.430708333               0.000000000              -0.112618377               0.453805555               0.000000000              -0.118809188               0.476902778               0.000000000              -0.125000000               0.500000000               0.000000000              -0.013036280               0.132359569               0.000000000              -0.016127762               0.155337096               0.000000000              -0.019219245               0.178314623               0.000000000              -0.022310727               0.201292150               0.000000000              -0.025402210               0.224269676               0.000000000              -0.028493692               0.247247203               0.000000000              -0.031585175               0.270224730               0.000000000              -0.034676657               0.293202257               0.000000000              -0.037768140               0.316179784               0.000000000              -0.040859622               0.339157311               0.000000000              -0.043951105               0.362134838               0.000000000              -0.047042587               0.385112365               0.000000000              -0.050134070               0.408089892               0.000000000              -0.053225552               0.431067419               0.000000000              -0.056317035               0.454044946               0.000000000              -0.059408517               0.477022473               0.000000000              -0.062500000               0.500000000               0.000000000               0.000000000               0.133000000               0.000000000               0.000000000               0.155937500               0.000000000               0.000000000               0.178875000               0.000000000               0.000000000               0.201812500               0.000000000               0.000000000               0.224750000               0.000000000               0.000000000               0.247687500               0.000000000               0.000000000               0.270625000               0.000000000               0.000000000               0.293562500               0.000000000               0.000000000               0.316500000               0.000000000               0.000000000               0.339437500               0.000000000               0.000000000               0.362375000               0.000000000               0.000000000               0.385312500               0.000000000               0.000000000               0.408250000               0.000000000               0.000000000               0.431187500               0.000000000               0.000000000               0.454125000               0.000000000               0.000000000               0.477062500               0.000000000               0.000000000               0.500000000               0.000000000 </DataArray>
</Points>
<Cells>
<DataArray type="Int32"                                    Name="connectivity"                                                      NumberOfComponents=" 1" format="ascii">
         0          1         18         17          1          2         19         18          2          3         20         19          3          4         21         20          4          5         22         21          5          6         23         22          6          7         24         23          7          8         25         24          8          9         26         25          9         10         27         26         10         11         28         27         11         12         29         28         12         13         30         29         13         14         31         30         14         15         32         31         15         16         33         32         17         18         35         34         18         19         36         35         19         20         37         36         20         21         38         37         21         22         39         38         22         23         40         39         23         24         41         40         24         25         42         41         25         26         43         42         26         27         44         43         27         28         45         44         28         29         46         45         29         30         47         46         30         31         48         47         31         32         49         48         32         33         50         49         34         35         52         51         35         36         53         52         36         37         54         53         37         38         55         54         38         39         56         55         39         40         57         56         40         41         58         57         41         42         59         58         42         43         60         59         43         44         61         60         44         45         62         61         45         46         63         62         46         47         64         63         47         48         65         64         48         49         66         65         49         50         67         66         51         52         69         68         52         53         70         69         53         54         71         70         54         55         72         71         55         56         73         72         56         57         74         73         57         58         75         74         58         59         76         75         59         60         77         76         60         61         78         77         61         62         79         78         62         63         80         79         63         64         81         80         64         65         82         81         65         66         83         82         66         67         84         83         68         69         86         85         69         70         87         86         70         71         88         87         71         72         89         88         72         73         90         89         73         74         91         90         74         75         92         91         75         76         93         92         76         77         94         93         77         78         95         94         78         79         96         95         79         80         97         96         80         81         98         97         81         82         99         98         82         83        100         99         83         84        101        100         85         86        103        102         86         87        104        103         87         88        105        104         88         89        106        105         89         90        107        106         90         91        108        107         91         92        109        108         92         93        110        109         93         94        111        110         94         95        112        111         95         96        113        112         96         97        114        113         97         98        115        114         98         99        116        115         99        100        117        116        100        101        118        117        102        103        120        119        103        104        121        120        104        105        122        121        105        106        123        122        106        107        124        123        107        108        125        124        108        109        126        125        109        110        127        126        110        111        128        127        111        112        129        128        112        113        130        129        113        114        131        130        114        115        132        131        115        116        133        132        116        117        134        133        117        118        135        134        119        120        137        136        120        121        138        137        121        122        139        138        122        123        140        139        123        124        141        140        124        125        142        141        125        126        143        142        126        127        144        143        127        128        145        144        128        129        146        145        129        130        147        146        130        131        148        147        131        132        149        148        132        133        150        149        133        134        151        150        134        135        152        151        136        137        154        153        137        138        155        154        138        139        156        155        139        140        157        156        140        141        158        157        141        142        159        158        142        143        160        159        143        144        161        160        144        145        162        161        145        146        163        162        146        147        164        163        147        148        165        164        148        149        166        165        149        150        167        166        150        151        168        167        151        152        169        168        153        154        171        170        154        155        172        171        155        156        173        172        156        157        174        173        157        158        175        174        158        159        176        175        159        160        177        176        160        161        178        177        161        162        179        178        162        163        180        179        163        164        181        180        164        165        182        181        165        166        183        182        166        167        184        183        167        168        185        184        168        169        186        185        170        171        188        187        171        172        189        188        172        173        190        189        173        174        191        190        174        175        192        191        175        176        193        192        176        177        194        193        177        178        195        194        178        179        196        195        179        180        197        196        180        181        198        197        181        182        199        198        182        183        200        199        183        184        201        200        184        185        202        201        185        186        203        202        187        188        205        204        188        189        206        205        189        190        207        206        190        191        208        207        191        192        209        208        192        193        210        209        193        194        211        210        194        195        212        211        195        196        213        212        196        197        214        213        197        198        215        214        198        199        216        215        199        200        217        216        200        201        218        217        201        202        219        218        202        203        220        219        204        205        222        221        205        206        223        222        206        207        224        223        207        208        225        224        208        209        226        225        209        210        227        226        210        211        228        227        211        212        229        228        212        213        230        229        213        214        231        230        214        215        232        231        215        216        233        232        216        217        234        233        217        218        235        234        218        219        236        235        219        220        237        236        221        222        239        238        222        223        240        239        223        224        241        240        224        225        242        241        225        226        243        242        226        227        244        243        227        228        245        244        228        229        246        245        229        230        247        246        230        231        248        247        231        232        249        248        232        233        250        249        233        234        251        250        234        235        252        251        235        236        253        252        236        237        254        253        238        239        256        255        239        240        257        256        240        241        258        257        241        242        259        258        242        243        260        259        243        244        261        260        244        245        262        261        245        246        263        262        246        247        264        263        247        248        265        264        248        249        266        265        249        250        267        266        250        251        268        267        251        252        269        268        252        253        270        269        253        254        271        270        255        256        273        272        256        257        274        273        257        258        275        274        258        259        276        275        259        260        277        276        260        261        278        277        261        262        279        278        262        263        280        279        263        264        281        280        264        265        282        281        265        266        283        282        266        267        284        283        267        268        285        284        268        269        286        285        269        270        287        286        270        271        288        287        306        307          1          0        307        308          2          1        308        309          3          2        309        310          4          3        310        311          5          4        311        312          6          5        312        313          7          6        313        314          8          7        314        315          9          8        315        316         10          9        316        317         11         10        317        318         12         11        318        319         13         12        319        320         14         13        320        321         15         14        321        322         16         15        323        324        307        306        324        325        308        307        325        326        309        308        326        327        310        309        327        328        311        310        328        329        312        311        329        330        313        312        330        331        314        313        331        332        315        314        332        333        316        315        333        334        317        316        334        335        318        317        335        336        319        318        336        337        320        319        337        338        321        320        338        339        322        321        340        341        324        323        341        342        325        324        342        343        326        325        343        344        327        326        344        345        328        327        345        346        329        328        346        347        330        329        347        348        331        330        348        349        332        331        349        350        333        332        350        351        334        333        351        352        335        334        352        353        336        335        353        354        337        336        354        355        338        337        355        356        339        338        357        358        341        340        358        359        342        341        359        360        343        342        360        361        344        343        361        362        345        344        362        363        346        345        363        364        347        346        364        365        348        347        365        366        349        348        366        367        350        349        367        368        351        350        368        369        352        351        369        370        353        352        370        371        354        353        371        372        355        354        372        373        356        355        374        375        358        357        375        376        359        358        376        377        360        359        377        378        361        360        378        379        362        361        379        380        363        362        380        381        364        363        381        382        365        364        382        383        366        365        383        384        367        366        384        385        368        367        385        386        369        368        386        387        370        369        387        388        371        370        388        389        372        371        389        390        373        372        391        392        375        374        392        393        376        375        393        394        377        376        394        395        378        377        395        396        379        378        396        397        380        379        397        398        381        380        398        399        382        381        399        400        383        382        400        401        384        383        401        402        385        384        402        403        386        385        403        404        387        386        404        405        388        387        405        406        389        388        406        407        390        389        408        409        392        391        409        410        393        392        410        411        394        393        411        412        395        394        412        413        396        395        413        414        397        396        414        415        398        397        415        416        399        398        416        417        400        399        417        418        401        400        418        419        402        401        419        420        403        402        420        421        404        403        421        422        405        404        422        423        406        405        423        424        407        406        425        426        409        408        426        427        410        409        427        428        411        410        428        429        412        411        429        430        413        412        430        431        414        413        431        432        415        414        432        433        416        415        433        434        417        416        434        435        418        417        435        436        419        418        436        437        420        419        437        438        421        420        438        439        422        421        439        440        423        422        440        441        424        423        442        443        426        425        443        444        427        426        444        445        428        427        445        446        429        428        446        447        430        429        447        448        431        430        448        449        432        431        449        450        433        432        450        451        434        433        451        452        435        434        452        453        436        435        453        454        437        436        454        455        438        437        455        456        439        438        456        457        440        439        457        458        441        440        459        460        443        442        460        461        444        443        461        462        445        444        462        463        446        445        463        464        447        446        464        465        448        447        465        466        449        448        466        467        450        449        467        468        451        450        468        469        452        451        469        470        453        452        470        471        454        453        471        472        455        454        472        473        456        455        473        474        457        456        474        475        458        457        476        477        460        459        477        478        461        460        478        479        462        461        479        480        463        462        480        481        464        463        481        482        465        464        482        483        466        465        483        484        467        466        484        485        468        467        485        486        469        468        486        487        470        469        487        488        471        470        488        489        472        471        489        490        473        472        490        491        474        473        491        492        475        474        493        494        477        476        494        495        478        477        495        496        479        478        496        497        480        479        497        498        481        480        498        499        482        481        499        500        483        482        500        501        484        483        501        502        485        484        502        503        486        485        503        504        487        486        504        505        488        487        505        506        489        488        506        507        490        489        507        508        491        490        508        509        492        491        510        511        494        493        511        512        495        494        512        513        496        495        513        514        497        496        514        515        498        497        515        516        499        498        516        517        500        499        517        518        501        500        518        519        502        501        519        520        503        502        520        521        504        503        521        522        505        504        522        523        506        505        523        524        507        506        524        525        508        507        525        526        509        508        527        528        511        510        528        529        512        511        529        530        513        512        530        531        514        513        531        532        515        514        532        533        516        515        533        534        517        516        534        535        518        517        535        536        519        518        536        537        520        519        537        538        521        520        538        539        522        521        539        540        523        522        540        541        524        523        541        542        525        524        542        543        526        525        544        545        528        527        545        546        529        528        546        547        530        529        547        548        531        530        548        549        532        531        549        550        533        532        550        551        534        533        551        552        535        534        552        553        536        535        553        554        537        536        554        555        538        537        555        556        539        538        556        557        540        539        557        558        541        540        558        559        542        541        559        560        543        542        561        562        545        544        562        563        546        545        563        564        547        546        564        565        548        547        565        566        549        548        566        567        550        549        567        568        551        550        568        569        552        551        569        570        553        552        570        571        554        553        571        572        555        554        572        573        556        555        573        574        557        556        574        575        558        557        575        576        559        558        576        577        560        559        578        579        596        595        579        580        597        596        580        581        598        597        581        582        599        598        582        583        600        599        583        584        601        600        584        585        602        601        585        586        603        602        586        587        604        603        587        588        605        604        588        589        606        605        589        590        607        606        590        591        608        607        591        592        609        608        592        593        610        609        593        594        611        610        595        596        613        612        596        597        614        613        597        598        615        614        598        599        616        615        599        600        617        616        600        601        618        617        601        602        619        618        602        603        620        619        603        604        621        620        604        605        622        621        605        606        623        622        606        607        624        623        607        608        625        624        608        609        626        625        609        610        627        626        610        611        628        627        612        613        630        629        613        614        631        630        614        615        632        631        615        616        633        632        616        617        634        633        617        618        635        634        618        619        636        635        619        620        637        636        620        621        638        637        621        622        639        638        622        623        640        639        623        624        641        640        624        625        642        641        625        626        643        642        626        627        644        643        627        628        645        644        629        630        647        646        630        631        648        647        631        632        649        648        632        633        650        649        633        634        651        650        634        635        652        651        635        636        653        652        636        637        654        653        637        638        655        654        638        639        656        655        639        640        657        656        640        641        658        657        641        642        659        658        642        643        660        659        643        644        661        660        644        645        662        661        646        647        664        663        647        648        665        664        648        649        666        665        649        650        667        666        650        651        668        667        651        652        669        668        652        653        670        669        653        654        671        670        654        655        672        671        655        656        673        672        656        657        674        673        657        658        675        674        658        659        676        675        659        660        677        676        660        661        678        677        661        662        679        678        663        664        681        680        664        665        682        681        665        666        683        682        666        667        684        683        667        668        685        684        668        669        686        685        669        670        687        686        670        671        688        687        671        672        689        688        672        673        690        689        673        674        691        690        674        675        692        691        675        676        693        692        676        677        694        693        677        678        695        694        678        679        696        695        680        681        698        697        681        682        699        698        682        683        700        699        683        684        701        700        684        685        702        701        685        686        703        702        686        687        704        703        687        688        705        704        688        689        706        705        689        690        707        706        690        691        708        707        691        692        709        708        692        693        710        709        693        694        711        710        694        695        712        711        695        696        713        712        697        698        715        714        698        699        716        715        699        700        717        716        700        701        718        717        701        702        719        718        702        703        720        719        703        704        721        720        704        705        722        721        705        706        723        722        706        707        724        723        707        708        725        724        708        709        726        725        709        710        727        726        710        711        728        727        711        712        729        728        712        713        730        729        714        715        732        731        715        716        733        732        716        717        734        733        717        718        735        734        718        719        736        735        719        720        737        736        720        721        738        737        721        722        739        738        722        723        740        739        723        724        741        740        724        725        742        741        725        726        743        742        726        727        744        743        727        728        745        744        728        729        746        745        729        730        747        746        731        732        749        748        732        733        750        749        733        734        751        750        734        735        752        751        735        736        753        752        736        737        754        753        737        738        755        754        738        739        756        755        739        740        757        756        740        741        758        757        741        742        759        758        742        743        760        759        743        744        761        760        744        745        762        761        745        746        763        762        746        747        764        763        748        749        766        765        749        750        767        766        750        751        768        767        751        752        769        768        752        753        770        769        753        754        771        770        754        755        772        771        755        756        773        772        756        757        774        773        757        758        775        774        758        759        776        775        759        760        777        776        760        761        778        777        761        762        779        778        762        763        780        779        763        764        781        780        765        766        783        782        766        767        784        783        767        768        785        784        768        769        786        785        769        770        787        786        770        771        788        787        771        772        789        788        772        773        790        789        773        774        791        790        774        775        792        791        775        776        793        792        776        777        794        793        777        778        795        794        778        779        796        795        779        780        797        796        780        781        798        797        782        783        800        799        783        784        801        800        784        785        802        801        785        786        803        802        786        787        804        803        787        788        805        804        788        789        806        805        789        790        807        806        790        791        808        807        791        792        809        808        792        793        810        809        793        794        811        810        794        795        812        811        795        796        813        812        796        797        814        813        797        798        815        814        799        800        817        816        800        801        818        817        801        802        819        818        802        803        820        819        803        804        821        820        804        805        822        821        805        806        823        822        806        807        824        823        807        808        825        824        808        809        826        825        809        810        827        826        810        811        828        827        811        812        829        828        812        813        830        829        813        814        831        830        814        815        832        831        816        817        834        833        817        818        835        834        818        819        836        835        819        820        837        836        820        821        838        837        821        822        839        838        822        823        840        839        823        824        841        840        824        825        842        841        825        826        843        842        826        827        844        843        827        828        845        844        828        829        846        845        829        830        847        846        830        831        848        847        831        832        849        848        833        834        562        561        834        835        563        562        835        836        564        563        836        837        565        564        837        838        566        565        838        839        567        566        839        840        568        567        840        841        569        568        841        842        570        569        842        843        571        570        843        844        572        571        844        845        573        572        845        846        574        573        846        847        575        574        847        848        576        575        848        849        577        576        884        885        579        578        885        886        580        579        886        887        581        580        887        888        582        581        888        889        583        582        889        890        584        583        890        891        585        584        891        892        586        585        892        893        587        586        893        894        588        587        894        895        589        588        895        896        590        589        896        897        591        590        897        898        592        591        898        899        593        592        899        900        594        593        901        902        885        884        902        903        886        885        903        904        887        886        904        905        888        887        905        906        889        888        906        907        890        889        907        908        891        890        908        909        892        891        909        910        893        892        910        911        894        893        911        912        895        894        912        913        896        895        913        914        897        896        914        915        898        897        915        916        899        898        916        917        900        899        918        919        902        901        919        920        903        902        920        921        904        903        921        922        905        904        922        923        906        905        923        924        907        906        924        925        908        907        925        926        909        908        926        927        910        909        927        928        911        910        928        929        912        911        929        930        913        912        930        931        914        913        931        932        915        914        932        933        916        915        933        934        917        916        935        936        919        918        936        937        920        919        937        938        921        920        938        939        922        921        939        940        923        922        940        941        924        923        941        942        925        924        942        943        926        925        943        944        927        926        944        945        928        927        945        946        929        928        946        947        930        929        947        948        931        930        948        949        932        931        949        950        933        932        950        951        934        933        952        953        936        935        953        954        937        936        954        955        938        937        955        956        939        938        956        957        940        939        957        958        941        940        958        959        942        941        959        960        943        942        960        961        944        943        961        962        945        944        962        963        946        945        963        964        947        946        964        965        948        947        965        966        949        948        966        967        950        949        967        968        951        950        969        970        953        952        970        971        954        953        971        972        955        954        972        973        956        955        973        974        957        956        974        975        958        957        975        976        959        958        976        977        960        959        977        978        961        960        978        979        962        961        979        980        963        962        980        981        964        963        981        982        965        964        982        983        966        965        983        984        967        966        984        985        968        967        986        987        970        969        987        988        971        970        988        989        972        971        989        990        973        972        990        991        974        973        991        992        975        974        992        993        976        975        993        994        977        976        994        995        978        977        995        996        979        978        996        997        980        979        997        998        981        980        998        999        982        981        999       1000        983        982       1000       1001        984        983       1001       1002        985        984       1003       1004        987        986       1004       1005        988        987       1005       1006        989        988       1006       1007        990        989       1007       1008        991        990       1008       1009        992        991       1009       1010        993        992       1010       1011        994        993       1011       1012        995        994       1012       1013        996        995       1013       1014        997        996       1014       1015        998        997       1015       1016        999        998       1016       1017       1000        999       1017       1018       1001       1000       1018       1019       1002       1001       1020       1021       1004       1003       1021       1022       1005       1004       1022       1023       1006       1005       1023       1024       1007       1006       1024       1025       1008       1007       1025       1026       1009       1008       1026       1027       1010       1009       1027       1028       1011       1010       1028       1029       1012       1011       1029       1030       1013       1012       1030       1031       1014       1013       1031       1032       1015       1014       1032       1033       1016       1015       1033       1034       1017       1016       1034       1035       1018       1017       1035       1036       1019       1018       1037       1038       1021       1020       1038       1039       1022       1021       1039       1040       1023       1022       1040       1041       1024       1023       1041       1042       1025       1024       1042       1043       1026       1025       1043       1044       1027       1026       1044       1045       1028       1027       1045       1046       1029       1028       1046       1047       1030       1029       1047       1048       1031       1030       1048       1049       1032       1031       1049       1050       1033       1032       1050       1051       1034       1033       1051       1052       1035       1034       1052       1053       1036       1035       1054       1055       1038       1037       1055       1056       1039       1038       1056       1057       1040       1039       1057       1058       1041       1040       1058       1059       1042       1041       1059       1060       1043       1042       1060       1061       1044       1043       1061       1062       1045       1044       1062       1063       1046       1045       1063       1064       1047       1046       1064       1065       1048       1047       1065       1066       1049       1048       1066       1067       1050       1049       1067       1068       1051       1050       1068       1069       1052       1051       1069       1070       1053       1052       1071       1072       1055       1054       1072       1073       1056       1055       1073       1074       1057       1056       1074       1075       1058       1057       1075       1076       1059       1058       1076       1077       1060       1059       1077       1078       1061       1060       1078       1079       1062       1061       1079       1080       1063       1062       1080       1081       1064       1063       1081       1082       1065       1064       1082       1083       1066       1065       1083       1084       1067       1066       1084       1085       1068       1067       1085       1086       1069       1068       1086       1087       1070       1069       1088       1089       1072       1071       1089       1090       1073       1072       1090       1091       1074       1073       1091       1092       1075       1074       1092       1093       1076       1075       1093       1094       1077       1076       1094       1095       1078       1077       1095       1096       1079       1078       1096       1097       1080       1079       1097       1098       1081       1080       1098       1099       1082       1081       1099       1100       1083       1082       1100       1101       1084       1083       1101       1102       1085       1084       1102       1103       1086       1085       1103       1104       1087       1086       1105       1106       1089       1088       1106       1107       1090       1089       1107       1108       1091       1090       1108       1109       1092       1091       1109       1110       1093       1092       1110       1111       1094       1093       1111       1112       1095       1094       1112       1113       1096       1095       1113       1114       1097       1096       1114       1115       1098       1097       1115       1116       1099       1098       1116       1117       1100       1099       1117       1118       1101       1100       1118       1119       1102       1101       1119       1120       1103       1102       1120       1121       1104       1103       1122       1123       1106       1105       1123       1124       1107       1106       1124       1125       1108       1107       1125       1126       1109       1108       1126       1127       1110       1109       1127       1128       1111       1110       1128       1129       1112       1111       1129       1130       1113       1112       1130       1131       1114       1113       1131       1132       1115       1114       1132       1133       1116       1115       1133       1134       1117       1116       1134       1135       1118       1117       1135       1136       1119       1118       1136       1137       1120       1119       1137       1138       1121       1120        272        273       1123       1122        273        274       1124       1123        274        275       1125       1124        275        276       1126       1125        276        277       1127       1126        277        278       1128       1127        278        279       1129       1128        279        280       1130       1129        280        281       1131       1130        281        282       1132       1131        282        283       1133       1132        283        284       1134       1133        284        285       1135       1134        285        286       1136       1135        286        287       1137       1136        287        288       1138       1137 </DataArray>
<DataArray type="Int32"                                    Name="offsets"                                                      NumberOfComponents=" 1" format="ascii">
         4          8         12         16         20         24         28         32         36         40         44         48         52         56         60         64         68         72         76         80         84         88         92         96        100        104        108        112        116        120        124        128        132        136        140        144        148        152        156        160        164        168        172        176        180        184        188        192        196        200        204        208        212        216        220        224        228        232        236        240        244        248        252        256        260        264        268        272        276        280        284        288        292        296        300        304        308        312        316        320        324        328        332        336        340        344        348        352        356        360        364        368        372        376        380        384        388        392        396        400        404        408        412        416        420        424        428        432        436        440        444        448        452        456        460        464        468        472        476        480        484        488        492        496        500        504        508        512        516        520        524        528        532        536        540        544        548        552        556        560        564        568        572        576        580        584        588        592        596        600        604        608        612        616        620        624        628        632        636        640        644        648        652        656        660        664        668        672        676        680        684        688        692        696        700        704        708        712        716        720        724        728        732        736        740        744        748        752        756        760        764        768        772        776        780        784        788        792        796        800        804        808        812        816        820        824        828        832        836        840        844        848        852        856        860        864        868        872        876        880        884        888        892        896        900        904        908        912        916        920        924        928        932        936        940        944        948        952        956        960        964        968        972        976        980        984        988        992        996       1000       1004       1008       1012       1016       1020       1024       1028       1032       1036       1040       1044       1048       1052       1056       1060       1064       1068       1072       1076       1080       1084       1088       1092       1096       1100       1104       1108       1112       1116       1120       1124       1128       1132       1136       1140       1144       1148       1152       1156       1160       1164       1168       1172       1176       1180       1184       1188       1192       1196       1200       1204       1208       1212       1216       1220       1224       1228       1232       1236       1240       1244       1248       1252       1256       1260       1264       1268       1272       1276       1280       1284       1288       1292       1296       1300       1304       1308       1312       1316       1320       1324       1328       1332       1336       1340       1344       1348       1352       1356       1360       1364       1368       1372       1376       1380       1384       1388       1392       1396       1400       1404       1408       1412       1416       1420       1424       1428       1432       1436       1440       1444       1448       1452       1456       1460       1464       1468       1472       1476       1480       1484       1488       1492       1496       1500       1504       1508       1512       1516       1520       1524       1528       1532       1536       1540       1544       1548       1552       1556       1560       1564       1568       1572       1576       1580       1584       1588       1592       1596       1600       1604       1608       1612       1616       1620       1624       1628       1632       1636       1640       1644       1648       1652       1656       1660       1664       1668       1672       1676       1680       1684       1688       1692       1696       1700       1704       1708       1712       1716       1720       1724       1728       1732       1736       1740       1744       1748       1752       1756       1760       1764       1768       1772       1776       1780       1784       1788       1792       1796       1800       1804       1808       1812       1816       1820       1824       1828       1832       1836       1840       1844       1848       1852       1856       1860       1864       1868       1872       1876       1880       1884       1888       1892       1896       1900       1904       1908       1912       1916       1920       1924       1928       1932       1936       1940       1944       1948       1952       1956       1960       1964       1968       1972       1976       1980       1984       1988       1992       1996       2000       2004       2008       2012       2016       2020       2024       2028       2032       2036       2040       2044       2048       2052       2056       2060       2064       2068       2072       2076       2080       2084       2088       2092       2096       2100       2104       2108       2112       2116       2120       2124       2128       2132       2136       2140       2144       2148       2152       2156       2160       2164       2168       2172       2176       2180       2184       2188       2192       2196       2200       2204       2208       2212       2216       2220       2224       2228       2232       2236       2240       2244       2248       2252       2256       2260       2264       2268       2272       2276       2280       2284       2288       2292       2296       2300       2304       2308       2312       2316       2320       2324       2328       2332       2336       2340       2344       2348       2352       2356       2360       2364       2368       2372       2376       2380       2384       2388       2392       2396       2400       2404       2408       2412       2416       2420       2424       2428       2432       2436       2440       2444       2448       2452       2456       2460       2464       2468       2472       2476       2480       2484       2488       2492       2496       2500       2504       2508       2512       2516       2520       2524       2528       2532       2536       2540       2544       2548       2552       2556       2560       2564       2568       2572       2576       2580       2584       2588       2592       2596       2600       2604       2608       2612       2616       2620       2624       2628       2632       2636       2640       2644       2648       2652       2656       2660       2664       2668       2672       2676       2680       2684       2688       2692       2696       2700       2704       2708       2712       2716       2720       2724       2728       2732       2736       2740       2744       2748       2752       2756       2760       2764       2768       2772       2776       2780       2784       2788       2792       2796       2800       2804       2808       2812       2816       2820       2824       2828       2832       2836       2840       2844       2848       2852       2856       2860       2864       2868       2872       2876       2880       2884       2888       2892       2896       2900       2904       2908       2912       2916       2920       2924       2928       2932       2936       2940       2944       2948       2952       2956       2960       2964       2968       2972       2976       2980       2984       2988       2992       2996       3000       3004       3008       3012       3016       3020       3024       3028       3032       3036       3040       3044       3048       3052       3056       3060       3064       3068       3072       3076       3080       3084       3088       3092       3096       3100       3104       3108       3112       3116       3120       3124       3128       3132       3136       3140       3144       3148       3152       3156       3160       3164       3168       3172       3176       3180       3184       3188       3192       3196       3200       3204       3208       3212       3216       3220       3224       3228       3232       3236       3240       3244       3248       3252       3256       3260       3264       3268       3272       3276       3280       3284       3288       3292       3296       3300       3304       3308       3312       3316       3320       3324       3328       3332       3336       3340       3344       3348       3352       3356       3360       3364       3368       3372       3376       3380       3384       3388       3392       3396       3400       3404       3408       3412       3416       3420       3424       3428       3432       3436       3440       3444       3448       3452       3456       3460       3464       3468       3472       3476       3480       3484       3488       3492       3496       3500       3504       3508       3512       3516       3520       3524       3528       3532       3536       3540       3544       3548       3552       3556       3560       3564       3568       3572       3576       3580       3584       3588       3592       3596       3600       3604       3608       3612       3616       3620       3624       3628       3632       3636       3640       3644       3648       3652       3656       3660       3664       3668       3672       3676       3680       3684       3688       3692       3696       3700       3704       3708       3712       3716       3720       3724       3728       3732       3736       3740       3744       3748       3752       3756       3760       3764       3768       3772       3776       3780       3784       3788       3792       3796       3800       3804       3808       3812       3816       3820       3824       3828       3832       3836       3840       3844       3848       3852       3856       3860       3864       3868       3872       3876       3880       3884       3888       3892       3896       3900       3904       3908       3912       3916       3920       3924       3928       3932       3936       3940       3944       3948       3952       3956       3960       3964       3968       3972       3976       3980       3984       3988       3992       3996       4000       4004       4008       4012       4016       4020       4024       4028       4032       4036       4040       4044       4048       4052       4056       4060       4064       4068       4072       4076       4080       4084       4088       4092       4096 </DataArray>
<DataArray type="UInt8"                                    Name="types"                                                      NumberOfComponents=" 1" format="ascii">
         9          9          9          9          9          9          9          9          9          9          9          9          9          9          9          9          9          9          9          9          9          9          9          9          9          9          9          9          9          9          9          9          9          9          9          9          9          9          9          9          9          9          9          9          9          9          9          9          9          9          9          9          9          9          9          9          9          9          9          9          9          9          9          9          9          9          9          9          9          9          9          9          9          9          9          9          9          9          9          9          9          9          9          9          9          9          9          9          9          9          9          9          9          9          9          9          9          9          9          9          9          9          9          9          9          9          9          9          9          9          9          9          9          9          9          9          9          9          9          9          9          9          9          9          9          9          9          9          9          9          9          9          9          9          9          9          9          9          9          9          9          9          9          9          9          9          9          9          9          9          9          9          9          9          9          9          9          9          9          9          9          9          9          9          9          9          9          9          9          9          9          9          9          9          9          9          9          9          9          9          9          9          9          9          9          9          9          9          9          9          9          9          9          9          9          9          9          9          9          9          9          9          9          9          9          9          9          9          9          9          9          9          9          9          9          9          9          9          9          9          9          9          9          9          9          9          9          9          9          9          9          9          9          9          9          9          9          9          9          9          9          9          9          9          9          9          9          9          9          9          9          9          9          9          9          9          9          9          9          9          9          9          9          9          9          9          9          9          9          9          9          9          9          9          9          9          9          9          9          9          9          9          9          9          9          9          9          9          9          9          9          9          9          9          9          9          9          9          9          9          9          9          9          9          9          9          9          9          9          9          9          9          9          9          9          9          9          9          9          9          9          9          9          9          9          9          9          9          9          9          9          9          9          9          9          9          9          9          9          9          9          9          9          9          9          9          9          9          9          9          9          9          9          9          9          9          9          9          9          9          9          9          9          9          9          9          9          9          9          9          9          9          9          9          9          9          9          9          9          9          9          9          9          9          9          9          9          9          9          9          9          9          9          9          9          9          9          9          9          9          9          9          9          9          9          9          9          9          9          9          9          9          9          9          9          9          9          9          9          9          9          9          9          9          9          9          9          9          9          9          9          9          9          9          9          9          9          9          9          9          9          9          9          9          9          9          9          9          9          9          9          9          9          9          9          9          9          9          9          9          9          9          9          9          9          9          9          9          9          9          9          9          9          9          9          9          9          9          9          9          9          9          9          9          9          9          9          9          9          9          9          9          9          9          9          9          9          9          9          9          9          9          9          9          9          9          9          9          9          9          9          9          9          9          9          9          9          9          9          9          9          9          9          9          9          9          9          9          9          9          9          9          9          9          9          9          9          9          9          9          9          9          9          9          9          9          9          9          9          9          9          9          9          9          9          9          9          9          9          9          9          9          9          9          9          9          9          9          9          9          9          9          9          9          9          9          9          9          9          9          9          9          9          9          9          9          9          9          9          9          9          9          9          9          9          9          9          9          9          9          9          9          9          9          9          9          9          9          9          9          9          9          9          9          9          9          9          9          9          9          9          9          9          9          9          9          9          9          9          9          9          9          9          9          9          9          9          9          9          9          9          9          9          9          9          9          9          9          9          9          9          9          9          9          9          9          9          9          9          9          9          9          9          9          9          9          9          9          9          9          9          9          9          9          9          9          9          9          9          9          9          9          9          9          9          9          9          9          9          9          9          9          9          9          9          9          9          9          9          9          9          9          9          9          9          9          9          9          9          9          9          9          9          9          9          9          9          9          9          9          9          9          9          9          9          9          9          9          9          9          9          9          9          9          9          9          9          9          9          9          9          9          9          9          9          9          9          9          9          9          9          9          9          9          9          9          9          9          9          9          9          9          9          9          9          9          9          9          9          9          9          9          9          9          9          9          9          9          9          9          9          9          9          9          9          9          9          9          9          9          9          9          9          9          9          9          9          9          9          9          9          9          9          9          9          9          9          9          9          9          9          9          9          9          9          9          9          9          9          9          9          9          9          9          9          9          9          9          9          9          9          9          9          9          9          9          9          9          9          9          9          9          9          9          9          9          9          9          9          9          9          9          9          9          9          9          9          9          9          9          9          9          9          9          9          9          9          9          9          9          9          9          9          9          9          9          9          9          9          9          9          9          9          9          9          9          9          9          9          9          9          9          9          9          9          9          9          9          9          9          9          9          9          9          9          9          9          9          9          9          9          9          9          9          9          9          9          9          9          9          9          9          9          9          9          9          9          9          9          9          9          9          9          9          9          9          9          9          9          9          9          9          9          9          9          9          9          9          9          9          9          9          9          9          9          9          9          9          9          9          9          9          9          9          9          9          9          9          9          9          9          9          9          9          9          9          9          9          9          9          9          9          9          9          9          9          9          9          9          9          9          9          9          9          9          9          9          9          9          9          9          9          9          9          9          9          9          9          9          9          9          9          9          9          9          9          9          9          9          9          9          9          9          9 </DataArray>
</Cells>
<CellData>
<DataArray type="Int32"                                    Name="material"                                                      NumberOfComponents=" 1" format="ascii">
         1          1          1          1          1          1          1          1          1          1          1          1          1          1          1          1          1          1          1          1          1          1          1          1          1          1          1          1          1          1          1          1          1          1          1          1          1          1          1          1          1          1          1          1          1          1          1          1          1          1          1          1          1          1          1          1          1          1          1          1          1          1          1          1          1          1          1          1          1          1          1          1          1          1          1          1          1          1          1          1          1          1          1          1          1          1          1          1          1          1          1          1          1          1          1          1          1          1          1          1          1          1          1          1          1          1          1          1          1          1          1          1          1          1          1          1          1          1          1          1          1          1          1          1          1          1          1          1          1          1          1          1          1          1          1          1          1          1          1          1          1          1          1          1          1          1          1          1          1          1          1          1          1          1          1          1          1          1          1          1          1          1          1          1          1          1          1          1          1          1          1          1          1          1          1          1          1          1          1          1          1          1          1          1          1          1          1          1          1          1          1          1          1          1          1          1          1          1          1          1          1          1          1          1          1          1          1          1          1          1          1          1          1          1          1          1          1          1          1          1          1          1          1          1          1          1          1          1          1          1          1          1          1          1          1          1          1          1          1          1          1          1          1          1          1          1          1          1          1          1          1          1          1          1          1          1          1          1          1          1          1          1          1          1          1          1          1          1          1          1          1          1          1          1          1          1          1          1          1          1          1          1          1          1          1          1          1          1          1          1          1          1          1          1          1          1          1          1          1          1          1          1          1          1          1          1          1          1          1          1          1          1          1          1          1          1          1          1          1          1          1          1          1          1          1          1          1          1          1          1          1          1          1          1          1          1          1          1          1          1          1          1          1          1          1          1          1          1          1          1          1          1          1          1          1          1          1          1          1          1          1          1          1          1          1          1          1          1          1          1          1          1          1          1          1          1          1          1          1          1          1          1          1          1          1          1          1          1          1          1          1          1          1          1          1          1          1          1          1          1          1          1          1          1          1          1          1          1          1          1          1          1          1          1          1          1          1          1          1          1          1          1          1          1          1          1          1          1          1          1          1          1          1          1          1          1          1          1          1          1          1          1          1          1          1          1          1          1          1          1          1          1          1          1          1          1          1          1          1          1          1          1          1          1          1          1          1          1          1          1          1          1          1          1          1          1          1          1          1          1          1          1          1          1          1          1          1          1          1          1          1          1          1          1          1          1          1          1          1          1          1          1          1          1          1          1          1          1          1          1          1          1          1          1          1          1          1          1          1          1          1          1          1          1          1          1          1          1          1          1          1          1          1          1          1          1          1          1          1          1          1          1          1          1          1          1          1          1          1          1          1          1          1          1          1          1          1          1          1          1          1          1          1          1          1          1          1          1          1          1          1          1          1          1          1          1          1          1          1          1          1          1          1          1          1          1          1          1          1          1          1          1          1          1          1          1          1          1          1          1          1          1          1          1          1          1          1          1          1          1          1          1          1          1          1          1          1          1          1          1          1          1          1          1          1          1          1          1          1          1          1          1          1          1          1          1          1          1          1          1          1          1          1          1          1          1          1          1          1          1          1          1          1          1          1          1          1          1          1          1          1          1          1          1          1          1          1          1          1          1          1          1          1          1          1          1          1          1          1          1          1          1          1          1          1          1          1          1          1          1          1          1          1          1          1          1          1          1          1          1          1          1          1          1          1          1          1          1          1          1          1          1          1          1          1          1          1          1          1          1          1          1          1          1          1          1          1          1          1          1          1          1          1          1          1          1          1          1          1          1          1          1          1          1          1          1          1          1          1          1          1          1          1          1          1          1          1          1          1          1          1          1          1          1          1          1          1          1          1          1          1          1          1          1          1          1          1          1          1          1          1          1          1          1          1          1          1          1          1          1          1          1          1          1          1          1          1          1          1          1          1          1          1          1          1          1          1          1          1          1          1          1          1          1          1          1          1          1          1          1          1          1          1          1          1          1          1          1          1          1          1          1          1          1          1          1          1          1          1          1          1          1          1          1          1          1          1          1          1          1          1          1          1          1          1          1          1          1          1          1          1          1          1          1          1          1          1          1          1          1          1          1          1          1          1          1          1          1          1          1          1          1          1          1          1          1          1          1          1          1          1          1          1          1          1          1          1          1          1          1          1          1          1          1          1          1          1          1          1          1          1          1          1          1          1          1          1          1          1          1          1          1          1          1          1          1          1          1          1          1          1          1          1          1          1          1          1          1          1          1          1          1          1          1          1          1          1          1          1          1          1          1          1          1          1          1          1          1          1          1          1          1          1          1          1          1          1          1          1          1          1          1          1          1          1          1          1          1          1          1          1          1          1          1          1          1          1          1          1          1          1          1          1          1          1          1          1          1          1          1          1          1          1          1          1          1          1          1          1          1          1          1          1          1          1          1          1          1          1          1          1          1          1          1 </DataArray>
</CellData>
<PointData>
<DataArray type="Float64"                                    Name="u"                                                      NumberOfComponents=" 3" format="ascii">
             -0.000910647              -0.000000000               0.999999985              -0.000960649               0.000000000               0.999999985              -0.000982319               0.000000000               0.999999985              -0.000994945               0.000000000               0.999999985              -0.001005293              -0.000000000               0.999999985              -0.001015647              -0.000000000               0.999999985              -0.001026729               0.000000000               0.999999985              -0.001038535              -0.000000000               0.999999985              -0.001050915               0.000000000               0.999999985              -0.001063368              -0.000000000               0.999999986              -0.001075559               0.000000000               0.999999986              -0.001087115              -0.000000000               0.999999986              -0.001097729               0.000000000               0.999999986              -0.001107189               0.000000000               0.999999986              -0.001115049               0.000000000               0.999999986              -0.001120679               0.000000000               0.999999986              -0.001123289               0.000000000               0.999999986              -0.000905563               0.000130185               0.999999985              -0.000951297               0.000103243               0.999999985              -0.000970133               0.000090967               0.999999985              -0.000980825               0.000085816               0.999999985              -0.000989865               0.000084056               0.999999985              -0.000999242               0.000083788               0.999999985              -0.001009380               0.000084074               0.999999985              -0.001020279               0.000084116               0.999999985              -0.001031519               0.000083444               0.999999985              -0.001042657               0.000081544               0.999999986              -0.001053379               0.000078321               0.999999986              -0.001063338               0.000073376               0.999999986              -0.001072148               0.000066385               0.999999986              -0.001079399               0.000056983               0.999999986              -0.001084767               0.000044686               0.999999986              -0.001087834               0.000028380               0.999999986              -0.001088068               0.000006607               0.999999986              -0.000890430               0.000259209               0.999999985              -0.000923674               0.000206073               0.999999985              -0.000934653               0.000182786               0.999999985              -0.000940335               0.000173607               0.999999985              -0.000945853               0.000171050               0.999999985              -0.000952385               0.000171213               0.999999985              -0.000959938               0.000172119               0.999999985              -0.000968104               0.000172566               0.999999985              -0.000976313               0.000171309               0.999999985              -0.000983941               0.000167851               0.999999986              -0.000990501               0.000161595               0.999999986              -0.000995570               0.000152075               0.999999986              -0.000998742               0.000138672               0.999999986              -0.000999798               0.000120949               0.999999986              -0.000998575               0.000098183               0.999999986              -0.000994951               0.000068916               0.999999986              -0.000988843               0.000031247               0.999999986              -0.000865508               0.000385846               0.999999985              -0.000879123               0.000308222               0.999999985              -0.000878821               0.000276308               0.999999985              -0.000877726               0.000265033               0.999999985              -0.000878623               0.000262977               0.999999985              -0.000881459               0.000264524               0.999999985              -0.000885485               0.000266810               0.999999985              -0.000889779               0.000267814               0.999999985              -0.000893441               0.000266407               0.999999985              -0.000895751               0.000261425               0.999999986              -0.000896139               0.000252517               0.999999986              -0.000894063               0.000238870               0.999999986              -0.000889321               0.000220049               0.999999986              -0.000881902               0.000195954               0.999999986              -0.000871893               0.000165954               0.999999986              -0.000859492               0.000128949               0.999999986              -0.000845170               0.000083877               0.999999986              -0.000831156               0.000508905               0.999999985              -0.000819805               0.000409746               0.999999985              -0.000806981               0.000372185               0.999999985              -0.000799202               0.000360854               0.999999985              -0.000795807               0.000360616               0.999999985              -0.000795115               0.000364262               0.999999985              -0.000795381               0.000368232               0.999999985              -0.000795233               0.000370192               0.999999985              -0.000793483               0.000368530               0.999999986              -0.000789354               0.000362315               0.999999986              -0.000782137               0.000350945               0.999999986              -0.000771535               0.000333827               0.999999986              -0.000757604               0.000311104               0.999999986              -0.000740754               0.000282948               0.999999986              -0.000721390               0.000249183               0.999999986              -0.000699956               0.000209462               0.999999986              -0.000677258               0.000164151               0.999999986              -0.000788105               0.000627223               0.999999985              -0.000748842               0.000510807               0.999999985              -0.000724550               0.000470575               0.999999985              -0.000711735               0.000460830               0.999999985              -0.000705440               0.000463117               0.999999985              -0.000701987               0.000469230               0.999999985              -0.000698729               0.000474853               0.999999985              -0.000693879               0.000477437               0.999999985              -0.000686125               0.000475431               0.999999986              -0.000674603               0.000467915               0.999999986              -0.000658888               0.000454234               0.999999986              -0.000639144               0.000434664               0.999999986              -0.000615833               0.000409598               0.999999986              -0.000589540               0.000379475               0.999999986              -0.000560770               0.000344876               0.999999986              -0.000530275               0.000305921               0.999999986              -0.000498859               0.000263799               0.999999986              -0.000737408               0.000739662               0.999999985              -0.000670003               0.000611367               0.999999985              -0.000637058               0.000571107               0.999999985              -0.000621704               0.000563927               0.999999985              -0.000614129               0.000568921               0.999999985              -0.000608720               0.000577212               0.999999985              -0.000602122               0.000584096               0.999999985              -0.000592233               0.000586970               0.999999986              -0.000577820               0.000584358               0.999999986              -0.000558220               0.000575394               0.999999986              -0.000533515               0.000559889               0.999999986              -0.000504216               0.000538791               0.999999986              -0.000471203               0.000512727               0.999999986              -0.000435061               0.000482337               0.999999986              -0.000396520               0.000448483               0.999999986              -0.000356348               0.000411802               0.999999986              -0.000315409               0.000373711               0.999999986              -0.000680046               0.000845154               0.999999985              -0.000586971               0.000711298               0.999999985              -0.000549274               0.000672906               0.999999985              -0.000534154               0.000668363               0.999999985              -0.000526593               0.000675731               0.999999985              -0.000519711               0.000685773               0.999999985              -0.000509691               0.000693558               0.999999985              -0.000494257               0.000696254               0.999999986              -0.000472388               0.000692601               0.999999986              -0.000443875               0.000682310               0.999999986              -0.000409296               0.000665534               0.999999986              -0.000369756               0.000643718               0.999999986              -0.000326003               0.000617698               0.999999986              -0.000278914               0.000588189               0.999999986              -0.000229591               0.000556247               0.999999986              -0.000179035               0.000522700               0.999999986              -0.000128028               0.000488697               0.999999986              -0.000617995               0.000941664               0.999999985              -0.000502697               0.000810426               0.999999985              -0.000465629               0.000774281               0.999999985              -0.000452691               0.000771848               0.999999985              -0.000445954               0.000781285               0.999999985              -0.000437624               0.000792674               0.999999985              -0.000423563               0.000800917               0.999999986              -0.000401701               0.000803149               0.999999986              -0.000371292               0.000798394               0.999999986              -0.000332756               0.000786822               0.999999986              -0.000287324               0.000769385               0.999999986              -0.000236131               0.000747471               0.999999986              -0.000180359               0.000722110               0.999999986              -0.000121524               0.000694201               0.999999986              -0.000061031               0.000664851               0.999999986               0.000000038               0.000634964               0.999999986               0.000061155               0.000605145               0.999999986              -0.000553839               0.001033078               0.999999985              -0.000431948               0.000921657               0.999999985              -0.000392386               0.000882104               0.999999985              -0.000378947               0.000875216               0.999999985              -0.000373018               0.000882222               0.999999985              -0.000366731               0.000893828               0.999999985              -0.000356105               0.000904887               0.999999986              -0.000338799               0.000912566               0.999999986              -0.000313806               0.000915224               0.999999986              -0.000280635               0.000912388               0.999999986              -0.000240120               0.000904474               0.999999986              -0.000193117               0.000892133               0.999999986              -0.000140493               0.000876529               0.999999986              -0.000083522               0.000858249               0.999999986              -0.000023524               0.000838241               0.999999986               0.000038350               0.000817156               0.999999986               0.000100722               0.000795946               0.999999986              -0.000484041               0.001116464               0.999999985              -0.000363862               0.001029315               0.999999985              -0.000322050               0.000992755               0.999999985              -0.000307181               0.000983782               0.999999985              -0.000301084               0.000989293               0.999999985              -0.000296085               0.001001262               0.999999985              -0.000288052               0.001014903               0.999999986              -0.000274640               0.001027395               0.999999986              -0.000254478               0.001036867               0.999999986              -0.000226747               0.001042367               0.999999986              -0.000191648               0.001043556               0.999999986              -0.000149720               0.001040709               0.999999986              -0.000101231               0.001034332               0.999999986              -0.000047063               0.001025217               0.999999986               0.000011818               0.001014082               0.999999986               0.000074242               0.001001578               0.999999986               0.000138614               0.000988463               0.999999986              -0.000410023               0.001189653               0.999999985              -0.000298374               0.001130178               0.999999985              -0.000256135               0.001101263               0.999999985              -0.000239779               0.001093436               0.999999985              -0.000232941               0.001098818               0.999999985              -0.000228360               0.001111718               0.999999985              -0.000222094               0.001127978               0.999999986              -0.000211794               0.001144992               0.999999986              -0.000195859               0.001160834               0.999999986              -0.000173302               0.001174222               0.999999986              -0.000144040               0.001184344               0.999999986              -0.000107976               0.001190955               0.999999986              -0.000064759               0.001194175               0.999999986              -0.000014533               0.001194450               0.999999986               0.000041874               0.001192314               0.999999986               0.000103752               0.001188288               0.999999986               0.000170110               0.001183087               0.999999986              -0.000332362               0.001251334               0.999999985              -0.000235469               0.001220054               0.999999985              -0.000195628               0.001202006               0.999999985              -0.000178764               0.001198238               0.999999985              -0.000171135               0.001205360               0.999999985              -0.000166546               0.001219876               0.999999986              -0.000161316               0.001238949               0.999999986              -0.000153371               0.001260134               0.999999986              -0.000141220               0.001281829               0.999999986              -0.000123649               0.001302476               0.999999986              -0.000100347               0.001321164               0.999999986              -0.000070872               0.001337223               0.999999986              -0.000034201               0.001350276               0.999999986               0.000010051               0.001360262               0.999999986               0.000061674               0.001367495               0.999999986               0.000120740               0.001372505               0.999999986               0.000187235               0.001375792               0.999999986              -0.000251799               0.001300303               0.999999985              -0.000174857               0.001294647               0.999999985              -0.000140775               0.001288799               0.999999985              -0.000125160               0.001291062               0.999999985              -0.000117523               0.001301494               0.999999986              -0.000112936               0.001318484               0.999999986              -0.000108503               0.001340410               0.999999986              -0.000102513               0.001365428               0.999999986              -0.000093647               0.001392071               0.999999986              -0.000080838               0.001419146               0.999999986              -0.000063310               0.001445632               0.999999986              -0.000040550               0.001470723               0.999999986              -0.000011852               0.001493674               0.999999986               0.000024021               0.001513900               0.999999986               0.000067715               0.001531211               0.999999986               0.000119903               0.001545726               0.999999986               0.000181750               0.001557904               0.999999986              -0.000169111               0.001335721               0.999999985              -0.000115825               0.001350480               0.999999985              -0.000090854               0.001355838               0.999999986              -0.000078734               0.001364375               0.999999986              -0.000072393               0.001378721               0.999999986              -0.000068404               0.001398663               0.999999986              -0.000064964               0.001423369               0.999999986              -0.000060774               0.001451737               0.999999986              -0.000054988               0.001482503               0.999999986              -0.000046393               0.001514773               0.999999986              -0.000034598               0.001547492               0.999999986              -0.000019044               0.001579783               0.999999986               0.000000749               0.001611057               0.999999986               0.000026026               0.001640517               0.999999986               0.000057944               0.001667472               0.999999986               0.000097609               0.001691528               0.999999986               0.000146667               0.001712535               0.999999986              -0.000084930               0.001357204               0.999999985              -0.000057694               0.001385022               0.999999986              -0.000044528               0.001398227               0.999999986              -0.000037847               0.001411607               0.999999986              -0.000034203               0.001429156               0.999999986              -0.000031890               0.001451458               0.999999986              -0.000029958               0.001478258               0.999999986              -0.000027765               0.001508900               0.999999986              -0.000024785               0.001542533               0.999999986              -0.000020415               0.001578278               0.999999986              -0.000014448               0.001615088               0.999999986              -0.000006689               0.001652133               0.999999986               0.000003554               0.001688718               0.999999986               0.000016730               0.001724235               0.999999986               0.000033541               0.001757848               0.999999986               0.000054967               0.001788825               0.999999986               0.000082190               0.001816526               0.999999986               0.000000000               0.001364367               0.999999985               0.000000000               0.001396639               0.999999986              -0.000000000               0.001412721               0.999999986              -0.000000000               0.001427965               0.999999986               0.000000000               0.001446698               0.999999986               0.000000000               0.001469948               0.999999986              -0.000000000               0.001497553               0.999999986               0.000000000               0.001529000               0.999999986              -0.000000000               0.001563579               0.999999986              -0.000000000               0.001600411               0.999999986               0.000000000               0.001638544               0.999999986               0.000000000               0.001677377               0.999999986               0.000000000               0.001715929               0.999999986              -0.000000000               0.001753378               0.999999986              -0.000000000               0.001789298               0.999999986              -0.000000000               0.001822898               0.999999986               0.000000000               0.001853144               0.999999986              -0.000910647              -0.000000000               0.999999985              -0.000960649               0.000000000               0.999999985              -0.000982319               0.000000000               0.999999985              -0.000994945               0.000000000               0.999999985              -0.001005293              -0.000000000               0.999999985              -0.001015647              -0.000000000               0.999999985              -0.001026729               0.000000000               0.999999985              -0.001038535              -0.000000000               0.999999985              -0.001050915               0.000000000               0.999999985              -0.001063368              -0.000000000               0.999999986              -0.001075559               0.000000000               0.999999986              -0.001087115              -0.000000000               0.999999986              -0.001097729               0.000000000               0.999999986              -0.001107189               0.000000000               0.999999986              -0.001115049               0.000000000               0.999999986              -0.001120679               0.000000000               0.999999986              -0.001123289               0.000000000               0.999999986              -0.000905563              -0.000130185               0.999999985              -0.000951297              -0.000103243               0.999999985              -0.000970133              -0.000090967               0.999999985              -0.000980825              -0.000085816               0.999999985              -0.000989865              -0.000084056               0.999999985              -0.000999242              -0.000083788               0.999999985              -0.001009380              -0.000084074               0.999999985              -0.001020279              -0.000084116               0.999999985              -0.001031519              -0.000083444               0.999999985              -0.001042657              -0.000081544               0.999999986              -0.001053379              -0.000078321               0.999999986              -0.001063338              -0.000073376               0.999999986              -0.001072148              -0.000066385               0.999999986              -0.001079399              -0.000056983               0.999999986              -0.001084767              -0.000044686               0.999999986              -0.001087834              -0.000028380               0.999999986              -0.001088068              -0.000006607               0.999999986              -0.000890430              -0.000259209               0.999999985              -0.000923674              -0.000206073               0.999999985              -0.000934653              -0.000182786               0.999999985              -0.000940335              -0.000173607               0.999999985              -0.000945853              -0.000171050               0.999999985              -0.000952385              -0.000171213               0.999999985              -0.000959938              -0.000172119               0.999999985              -0.000968104              -0.000172566               0.999999985              -0.000976313              -0.000171309               0.999999985              -0.000983941              -0.000167851               0.999999986              -0.000990501              -0.000161595               0.999999986              -0.000995570              -0.000152075               0.999999986              -0.000998742              -0.000138672               0.999999986              -0.000999798              -0.000120949               0.999999986              -0.000998575              -0.000098183               0.999999986              -0.000994951              -0.000068916               0.999999986              -0.000988843              -0.000031247               0.999999986              -0.000865508              -0.000385846               0.999999985              -0.000879123              -0.000308222               0.999999985              -0.000878821              -0.000276308               0.999999985              -0.000877726              -0.000265033               0.999999985              -0.000878623              -0.000262977               0.999999985              -0.000881459              -0.000264524               0.999999985              -0.000885485              -0.000266810               0.999999985              -0.000889779              -0.000267814               0.999999985              -0.000893441              -0.000266407               0.999999985              -0.000895751              -0.000261425               0.999999986              -0.000896139              -0.000252517               0.999999986              -0.000894063              -0.000238870               0.999999986              -0.000889321              -0.000220049               0.999999986              -0.000881902              -0.000195954               0.999999986              -0.000871893              -0.000165954               0.999999986              -0.000859492              -0.000128949               0.999999986              -0.000845170              -0.000083877               0.999999986              -0.000831156              -0.000508905               0.999999985              -0.000819805              -0.000409746               0.999999985              -0.000806981              -0.000372185               0.999999985              -0.000799202              -0.000360854               0.999999985              -0.000795807              -0.000360616               0.999999985              -0.000795115              -0.000364262               0.999999985              -0.000795381              -0.000368232               0.999999985              -0.000795233              -0.000370192               0.999999985              -0.000793483              -0.000368530               0.999999986              -0.000789354              -0.000362315               0.999999986              -0.000782137              -0.000350945               0.999999986              -0.000771535              -0.000333827               0.999999986              -0.000757604              -0.000311104               0.999999986              -0.000740754              -0.000282948               0.999999986              -0.000721390              -0.000249183               0.999999986              -0.000699956              -0.000209462               0.999999986              -0.000677258              -0.000164151               0.999999986              -0.000788105              -0.000627223               0.999999985              -0.000748842              -0.000510807               0.999999985              -0.000724550              -0.000470575               0.999999985              -0.000711735              -0.000460830               0.999999985              -0.000705440              -0.000463117               0.999999985              -0.000701987              -0.000469230               0.999999985              -0.000698729              -0.000474853               0.999999985              -0.000693879              -0.000477437               0.999999985              -0.000686125              -0.000475431               0.999999986              -0.000674603              -0.000467915               0.999999986              -0.000658888              -0.000454234               0.999999986              -0.000639144              -0.000434664               0.999999986              -0.000615833              -0.000409598               0.999999986              -0.000589540              -0.000379475               0.999999986              -0.000560770              -0.000344876               0.999999986              -0.000530275              -0.000305921               0.999999986              -0.000498859              -0.000263799               0.999999986              -0.000737408              -0.000739662               0.999999985              -0.000670003              -0.000611367               0.999999985              -0.000637058              -0.000571107               0.999999985              -0.000621704              -0.000563927               0.999999985              -0.000614129              -0.000568921               0.999999985              -0.000608720              -0.000577212               0.999999985              -0.000602122              -0.000584096               0.999999985              -0.000592233              -0.000586970               0.999999986              -0.000577820              -0.000584358               0.999999986              -0.000558220              -0.000575394               0.999999986              -0.000533515              -0.000559889               0.999999986              -0.000504216              -0.000538791               0.999999986              -0.000471203              -0.000512727               0.999999986              -0.000435061              -0.000482337               0.999999986              -0.000396520              -0.000448483               0.999999986              -0.000356348              -0.000411802               0.999999986              -0.000315409              -0.000373711               0.999999986              -0.000680046              -0.000845154               0.999999985              -0.000586971              -0.000711298               0.999999985              -0.000549274              -0.000672906               0.999999985              -0.000534154              -0.000668363               0.999999985              -0.000526593              -0.000675731               0.999999985              -0.000519711              -0.000685773               0.999999985              -0.000509691              -0.000693558               0.999999985              -0.000494257              -0.000696254               0.999999986              -0.000472388              -0.000692601               0.999999986              -0.000443875              -0.000682310               0.999999986              -0.000409296              -0.000665534               0.999999986              -0.000369756              -0.000643718               0.999999986              -0.000326003              -0.000617698               0.999999986              -0.000278914              -0.000588189               0.999999986              -0.000229591              -0.000556247               0.999999986              -0.000179035              -0.000522700               0.999999986              -0.000128028              -0.000488697               0.999999986              -0.000617995              -0.000941664               0.999999985              -0.000502697              -0.000810426               0.999999985              -0.000465629              -0.000774281               0.999999985              -0.000452691              -0.000771848               0.999999985              -0.000445954              -0.000781285               0.999999985              -0.000437624              -0.000792674               0.999999985              -0.000423563              -0.000800917               0.999999986              -0.000401701              -0.000803149               0.999999986              -0.000371292              -0.000798394               0.999999986              -0.000332756              -0.000786822               0.999999986              -0.000287324              -0.000769385               0.999999986              -0.000236131              -0.000747471               0.999999986              -0.000180359              -0.000722110               0.999999986              -0.000121524              -0.000694201               0.999999986              -0.000061031              -0.000664851               0.999999986               0.000000038              -0.000634964               0.999999986               0.000061155              -0.000605145               0.999999986              -0.000553839              -0.001033078               0.999999985              -0.000431948              -0.000921657               0.999999985              -0.000392386              -0.000882104               0.999999985              -0.000378947              -0.000875216               0.999999985              -0.000373018              -0.000882222               0.999999985              -0.000366731              -0.000893828               0.999999985              -0.000356105              -0.000904887               0.999999986              -0.000338799              -0.000912566               0.999999986              -0.000313806              -0.000915224               0.999999986              -0.000280635              -0.000912388               0.999999986              -0.000240120              -0.000904474               0.999999986              -0.000193117              -0.000892133               0.999999986              -0.000140493              -0.000876529               0.999999986              -0.000083522              -0.000858249               0.999999986              -0.000023524              -0.000838241               0.999999986               0.000038350              -0.000817156               0.999999986               0.000100722              -0.000795946               0.999999986              -0.000484041              -0.001116464               0.999999985              -0.000363862              -0.001029315               0.999999985              -0.000322050              -0.000992755               0.999999985              -0.000307181              -0.000983782               0.999999985              -0.000301084              -0.000989293               0.999999985              -0.000296085              -0.001001262               0.999999985              -0.000288052              -0.001014903               0.999999986              -0.000274640              -0.001027395               0.999999986              -0.000254478              -0.001036867               0.999999986              -0.000226747              -0.001042367               0.999999986              -0.000191648              -0.001043556               0.999999986              -0.000149720              -0.001040709               0.999999986              -0.000101231              -0.001034332               0.999999986              -0.000047063              -0.001025217               0.999999986               0.000011818              -0.001014082               0.999999986               0.000074242              -0.001001578               0.999999986               0.000138614              -0.000988463               0.999999986              -0.000410023              -0.001189653               0.999999985              -0.000298374              -0.001130178               0.999999985              -0.000256135              -0.001101263               0.999999985              -0.000239779              -0.001093436               0.999999985              -0.000232941              -0.001098818               0.999999985              -0.000228360              -0.001111718               0.999999985              -0.000222094              -0.001127978               0.999999986              -0.000211794              -0.001144992               0.999999986              -0.000195859              -0.001160834               0.999999986              -0.000173302              -0.001174222               0.999999986              -0.000144040              -0.001184344               0.999999986              -0.000107976              -0.001190955               0.999999986              -0.000064759              -0.001194175               0.999999986              -0.000014533              -0.001194450               0.999999986               0.000041874              -0.001192314               0.999999986               0.000103752              -0.001188288               0.999999986               0.000170110              -0.001183087               0.999999986              -0.000332362              -0.001251334               0.999999985              -0.000235469              -0.001220054               0.999999985              -0.000195628              -0.001202006               0.999999985              -0.000178764              -0.001198238               0.999999985              -0.000171135              -0.001205360               0.999999985              -0.000166546              -0.001219876               0.999999986              -0.000161316              -0.001238949               0.999999986              -0.000153371              -0.001260134               0.999999986              -0.000141220              -0.001281829               0.999999986              -0.000123649              -0.001302476               0.999999986              -0.000100347              -0.001321164               0.999999986              -0.000070872              -0.001337223               0.999999986              -0.000034201              -0.001350276               0.999999986               0.000010051              -0.001360262               0.999999986               0.000061674              -0.001367495               0.999999986               0.000120740              -0.001372505               0.999999986               0.000187235              -0.001375792               0.999999986              -0.000251799              -0.001300303               0.999999985              -0.000174857              -0.001294647               0.999999985              -0.000140775              -0.001288799               0.999999985              -0.000125160              -0.001291062               0.999999985              -0.000117523              -0.001301494               0.999999986              -0.000112936              -0.001318484               0.999999986              -0.000108503              -0.001340410               0.999999986              -0.000102513              -0.001365428               0.999999986              -0.000093647              -0.001392071               0.999999986              -0.000080838              -0.001419146               0.999999986              -0.000063310              -0.001445632               0.999999986              -0.000040550              -0.001470723               0.999999986              -0.000011852              -0.001493674               0.999999986               0.000024021              -0.001513900               0.999999986               0.000067715              -0.001531211               0.999999986               0.000119903              -0.001545726               0.999999986               0.000181750              -0.001557904               0.999999986              -0.000169111              -0.001335721               0.999999985              -0.000115825              -0.001350480               0.999999985              -0.000090854              -0.001355838               0.999999986              -0.000078734              -0.001364375               0.999999986              -0.000072393              -0.001378721               0.999999986              -0.000068404              -0.001398663               0.999999986              -0.000064964              -0.001423369               0.999999986              -0.000060774              -0.001451737               0.999999986              -0.000054988              -0.001482503               0.999999986              -0.000046393              -0.001514773               0.999999986              -0.000034598              -0.001547492               0.999999986              -0.000019044              -0.001579783               0.999999986               0.000000749              -0.001611057               0.999999986               0.000026026              -0.001640517               0.999999986               0.000057944              -0.001667472               0.999999986               0.000097609              -0.001691528               0.999999986               0.000146667              -0.001712535               0.999999986              -0.000084930              -0.001357204               0.999999985              -0.000057694              -0.001385022               0.999999986              -0.000044528              -0.001398227               0.999999986              -0.000037847              -0.001411607               0.999999986              -0.000034203              -0.001429156               0.999999986              -0.000031890              -0.001451458               0.999999986              -0.000029958              -0.001478258               0.999999986              -0.000027765              -0.001508900               0.999999986              -0.000024785              -0.001542533               0.999999986              -0.000020415              -0.001578278               0.999999986              -0.000014448              -0.001615088               0.999999986              -0.000006689              -0.001652133               0.999999986               0.000003554              -0.001688718               0.999999986               0.000016730              -0.001724235               0.999999986               0.000033541              -0.001757848               0.999999986               0.000054967              -0.001788825               0.999999986               0.000082190              -0.001816526               0.999999986               0.000000000              -0.001364367               0.999999985              -0.000000000              -0.001396639               0.999999986              -0.000000000              -0.001412721               0.999999986              -0.000000000              -0.001427965               0.999999986              -0.000000000              -0.001446698               0.999999986              -0.000000000              -0.001469948               0.999999986               0.000000000              -0.001497553               0.999999986              -0.000000000              -0.001529000               0.999999986               0.000000000              -0.001563579               0.999999986               0.000000000              -0.001600411               0.999999986               0.000000000              -0.001638544               0.999999986              -0.000000000              -0.001677377               0.999999986              -0.000000000              -0.001715929               0.999999986               0.000000000              -0.001753378               0.999999986              -0.000000000              -0.001789298               0.999999986              -0.000000000              -0.001822898               0.999999986               0.000000000              -0.001853144               0.999999986               0.000910647              -0.000000000               0.999999985               0.000960649               0.000000000               0.999999985               0.000982319              -0.000000000               0.999999985               0.000994945              -0.000000000               0.999999985               0.001005293               0.000000000               0.999999985               0.001015647              -0.000000000               0.999999985               0.001026729               0.000000000               0.999999985               0.001038535               0.000000000               0.999999985               0.001050915               0.000000000               0.999999985               0.001063368               0.000000000               0.999999986               0.001075559              -0.000000000               0.999999986               0.001087115               0.000000000               0.999999986               0.001097729               0.000000000               0.999999986               0.001107189               0.000000000               0.999999986               0.001115049              -0.000000000               0.999999986               0.001120679               0.000000000               0.999999986               0.001123289              -0.000000000               0.999999986               0.000905563              -0.000130185               0.999999985               0.000951297              -0.000103243               0.999999985               0.000970133              -0.000090967               0.999999985               0.000980825              -0.000085816               0.999999985               0.000989865              -0.000084056               0.999999985               0.000999242              -0.000083788               0.999999985               0.001009380              -0.000084074               0.999999985               0.001020279              -0.000084116               0.999999985               0.001031519              -0.000083444               0.999999985               0.001042657              -0.000081544               0.999999986               0.001053379              -0.000078321               0.999999986               0.001063338              -0.000073376               0.999999986               0.001072148              -0.000066385               0.999999986               0.001079399              -0.000056983               0.999999986               0.001084767              -0.000044686               0.999999986               0.001087834              -0.000028380               0.999999986               0.001088068              -0.000006607               0.999999986               0.000890430              -0.000259209               0.999999985               0.000923674              -0.000206073               0.999999985               0.000934653              -0.000182786               0.999999985               0.000940335              -0.000173607               0.999999985               0.000945853              -0.000171050               0.999999985               0.000952385              -0.000171213               0.999999985               0.000959938              -0.000172119               0.999999985               0.000968104              -0.000172566               0.999999985               0.000976313              -0.000171309               0.999999985               0.000983941              -0.000167851               0.999999986               0.000990501              -0.000161595               0.999999986               0.000995570              -0.000152075               0.999999986               0.000998742              -0.000138672               0.999999986               0.000999798              -0.000120949               0.999999986               0.000998575              -0.000098183               0.999999986               0.000994951              -0.000068916               0.999999986               0.000988843              -0.000031247               0.999999986               0.000865508              -0.000385846               0.999999985               0.000879123              -0.000308222               0.999999985               0.000878821              -0.000276308               0.999999985               0.000877726              -0.000265033               0.999999985               0.000878623              -0.000262977               0.999999985               0.000881459              -0.000264524               0.999999985               0.000885485              -0.000266810               0.999999985               0.000889779              -0.000267814               0.999999985               0.000893441              -0.000266407               0.999999985               0.000895751              -0.000261425               0.999999986               0.000896139              -0.000252517               0.999999986               0.000894063              -0.000238870               0.999999986               0.000889321              -0.000220049               0.999999986               0.000881902              -0.000195954               0.999999986               0.000871893              -0.000165954               0.999999986               0.000859492              -0.000128949               0.999999986               0.000845170              -0.000083877               0.999999986               0.000831156              -0.000508905               0.999999985               0.000819805              -0.000409746               0.999999985               0.000806981              -0.000372185               0.999999985               0.000799202              -0.000360854               0.999999985               0.000795807              -0.000360616               0.999999985               0.000795115              -0.000364262               0.999999985               0.000795381              -0.000368232               0.999999985               0.000795233              -0.000370192               0.999999985               0.000793483              -0.000368530               0.999999986               0.000789354              -0.000362315               0.999999986               0.000782137              -0.000350945               0.999999986               0.000771535              -0.000333827               0.999999986               0.000757604              -0.000311104               0.999999986               0.000740754              -0.000282948               0.999999986               0.000721390              -0.000249183               0.999999986               0.000699956              -0.000209462               0.999999986               0.000677258              -0.000164151               0.999999986               0.000788105              -0.000627223               0.999999985               0.000748842              -0.000510807               0.999999985               0.000724550              -0.000470575               0.999999985               0.000711735              -0.000460830               0.999999985               0.000705440              -0.000463117               0.999999985               0.000701987              -0.000469230               0.999999985               0.000698729              -0.000474853               0.999999985               0.000693879              -0.000477437               0.999999985               0.000686125              -0.000475431               0.999999986               0.000674603              -0.000467915               0.999999986               0.000658888              -0.000454234               0.999999986               0.000639144              -0.000434664               0.999999986               0.000615833              -0.000409598               0.999999986               0.000589540              -0.000379475               0.999999986               0.000560770              -0.000344876               0.999999986               0.000530275              -0.000305921               0.999999986               0.000498859              -0.000263799               0.999999986               0.000737408              -0.000739662               0.999999985               0.000670003              -0.000611367               0.999999985               0.000637058              -0.000571107               0.999999985               0.000621704              -0.000563927               0.999999985               0.000614129              -0.000568921               0.999999985               0.000608720              -0.000577212               0.999999985               0.000602122              -0.000584096               0.999999985               0.000592233              -0.000586970               0.999999986               0.000577820              -0.000584358               0.999999986               0.000558220              -0.000575394               0.999999986               0.000533515              -0.000559889               0.999999986               0.000504216              -0.000538791               0.999999986               0.000471203              -0.000512727               0.999999986               0.000435061              -0.000482337               0.999999986               0.000396520              -0.000448483               0.999999986               0.000356348              -0.000411802               0.999999986               0.000315409              -0.000373711               0.999999986               0.000680046              -0.000845154               0.999999985               0.000586971              -0.000711298               0.999999985               0.000549274              -0.000672906               0.999999985               0.000534154              -0.000668363               0.999999985               0.000526593              -0.000675731               0.999999985               0.000519711              -0.000685773               0.999999985               0.000509691              -0.000693558               0.999999985               0.000494257              -0.000696254               0.999999986               0.000472388              -0.000692601               0.999999986               0.000443875              -0.000682310               0.999999986               0.000409296              -0.000665534               0.999999986               0.000369756              -0.000643718               0.999999986               0.000326003              -0.000617698               0.999999986               0.000278914              -0.000588189               0.999999986               0.000229591              -0.000556247               0.999999986               0.000179035              -0.000522700               0.999999986               0.000128028              -0.000488697               0.999999986               0.000617995              -0.000941664               0.999999985               0.000502697              -0.000810426               0.999999985               0.000465629              -0.000774281               0.999999985               0.000452691              -0.000771848               0.999999985               0.000445954              -0.000781285               0.999999985               0.000437624              -0.000792674               0.999999985               0.000423563              -0.000800917               0.999999986               0.000401701              -0.000803149               0.999999986               0.000371292              -0.000798394               0.999999986               0.000332756              -0.000786822               0.999999986               0.000287324              -0.000769385               0.999999986               0.000236131              -0.000747471               0.999999986               0.000180359              -0.000722110               0.999999986               0.000121524              -0.000694201               0.999999986               0.000061031              -0.000664851               0.999999986              -0.000000038              -0.000634964               0.999999986              -0.000061155              -0.000605145               0.999999986               0.000553839              -0.001033078               0.999999985               0.000431948              -0.000921657               0.999999985               0.000392386              -0.000882104               0.999999985               0.000378947              -0.000875216               0.999999985               0.000373018              -0.000882222               0.999999985               0.000366731              -0.000893828               0.999999985               0.000356105              -0.000904887               0.999999986               0.000338799              -0.000912566               0.999999986               0.000313806              -0.000915224               0.999999986               0.000280635              -0.000912388               0.999999986               0.000240120              -0.000904474               0.999999986               0.000193117              -0.000892133               0.999999986               0.000140493              -0.000876529               0.999999986               0.000083522              -0.000858249               0.999999986               0.000023524              -0.000838241               0.999999986              -0.000038350              -0.000817156               0.999999986              -0.000100722              -0.000795946               0.999999986               0.000484041              -0.001116464               0.999999985               0.000363862              -0.001029315               0.999999985               0.000322050              -0.000992755               0.999999985               0.000307181              -0.000983782               0.999999985               0.000301084              -0.000989293               0.999999985               0.000296085              -0.001001262               0.999999985               0.000288052              -0.001014903               0.999999986               0.000274640              -0.001027395               0.999999986               0.000254478              -0.001036867               0.999999986               0.000226747              -0.001042367               0.999999986               0.000191648              -0.001043556               0.999999986               0.000149720              -0.001040709               0.999999986               0.000101231              -0.001034332               0.999999986               0.000047063              -0.001025217               0.999999986              -0.000011818              -0.001014082               0.999999986              -0.000074242              -0.001001578               0.999999986              -0.000138614              -0.000988463               0.999999986               0.000410023              -0.001189653               0.999999985               0.000298374              -0.001130178               0.999999985               0.000256135              -0.001101263               0.999999985               0.000239779              -0.001093436               0.999999985               0.000232941              -0.001098818               0.999999985               0.000228360              -0.001111718               0.999999985               0.000222094              -0.001127978               0.999999986               0.000211794              -0.001144992               0.999999986               0.000195859              -0.001160834               0.999999986               0.000173302              -0.001174222               0.999999986               0.000144040              -0.001184344               0.999999986               0.000107976              -0.001190955               0.999999986               0.000064759              -0.001194175               0.999999986               0.000014533              -0.001194450               0.999999986              -0.000041874              -0.001192314               0.999999986              -0.000103752              -0.001188288               0.999999986              -0.000170110              -0.001183087               0.999999986               0.000332362              -0.001251334               0.999999985               0.000235469              -0.001220054               0.999999985               0.000195628              -0.001202006               0.999999985               0.000178764              -0.001198238               0.999999985               0.000171135              -0.001205360               0.999999985               0.000166546              -0.001219876               0.999999986               0.000161316              -0.001238949               0.999999986               0.000153371              -0.001260134               0.999999986               0.000141220              -0.001281829               0.999999986               0.000123649              -0.001302476               0.999999986               0.000100347              -0.001321164               0.999999986               0.000070872              -0.001337223               0.999999986               0.000034201              -0.001350276               0.999999986              -0.000010051              -0.001360262               0.999999986              -0.000061674              -0.001367495               0.999999986              -0.000120740              -0.001372505               0.999999986              -0.000187235              -0.001375792               0.999999986               0.000251799              -0.001300303               0.999999985               0.000174857              -0.001294647               0.999999985               0.000140775              -0.001288799               0.999999985               0.000125160              -0.001291062               0.999999985               0.000117523              -0.001301494               0.999999986               0.000112936              -0.001318484               0.999999986               0.000108503              -0.001340410               0.999999986               0.000102513              -0.001365428               0.999999986               0.000093647              -0.001392071               0.999999986               0.000080838              -0.001419146               0.999999986               0.000063310              -0.001445632               0.999999986               0.000040550              -0.001470723               0.999999986               0.000011852              -0.001493674               0.999999986              -0.000024021              -0.001513900               0.999999986              -0.000067715              -0.001531211               0.999999986              -0.000119903              -0.001545726               0.999999986              -0.000181750              -0.001557904               0.999999986               0.000169111              -0.001335721               0.999999985               0.000115825              -0.001350480               0.999999985               0.000090854              -0.001355838               0.999999986               0.000078734              -0.001364375               0.999999986               0.000072393              -0.001378721               0.999999986               0.000068404              -0.001398663               0.999999986               0.000064964              -0.001423369               0.999999986               0.000060774              -0.001451737               0.999999986               0.000054988              -0.001482503               0.999999986               0.000046393              -0.001514773               0.999999986               0.000034598              -0.001547492               0.999999986               0.000019044              -0.001579783               0.999999986              -0.000000749              -0.001611057               0.999999986              -0.000026026              -0.001640517               0.999999986              -0.000057944              -0.001667472               0.999999986              -0.000097609              -0.001691528               0.999999986              -0.000146667              -0.001712535               0.999999986               0.000084930              -0.001357204               0.999999985               0.000057694              -0.001385022               0.999999986               0.000044528              -0.001398227               0.999999986               0.000037847              -0.001411607               0.999999986               0.000034203              -0.001429156               0.999999986               0.000031890              -0.001451458               0.999999986               0.000029958              -0.001478258               0.999999986               0.000027765              -0.001508900               0.999999986               0.000024785              -0.001542533               0.999999986               0.000020415              -0.001578278               0.999999986               0.000014448              -0.001615088               0.999999986               0.000006689              -0.001652133               0.999999986              -0.000003554              -0.001688718               0.999999986              -0.000016730              -0.001724235               0.999999986              -0.000033541              -0.001757848               0.999999986              -0.000054967              -0.001788825               0.999999986              -0.000082190              -0.001816526               0.999999986               0.000000000              -0.001364367               0.999999985              -0.000000000              -0.001396639               0.999999986              -0.000000000              -0.001412721               0.999999986              -0.000000000              -0.001427965               0.999999986              -0.000000000              -0.001446698               0.999999986              -0.000000000              -0.001469948               0.999999986               0.000000000              -0.001497553               0.999999986              -0.000000000              -0.001529000               0.999999986               0.000000000              -0.001563579               0.999999986               0.000000000              -0.001600411               0.999999986               0.000000000              -0.001638544               0.999999986              -0.000000000              -0.001677377               0.999999986              -0.000000000              -0.001715929               0.999999986               0.000000000              -0.001753378               0.999999986              -0.000000000              -0.001789298               0.999999986              -0.000000000              -0.001822898               0.999999986               0.000000000              -0.001853144               0.999999986               0.000910647              -0.000000000               0.999999985               0.000960649               0.000000000               0.999999985               0.000982319              -0.000000000               0.999999985               0.000994945              -0.000000000               0.999999985               0.001005293               0.000000000               0.999999985               0.001015647              -0.000000000               0.999999985               0.001026729               0.000000000               0.999999985               0.001038535               0.000000000               0.999999985               0.001050915               0.000000000               0.999999985               0.001063368               0.000000000               0.999999986               0.001075559              -0.000000000               0.999999986               0.001087115               0.000000000               0.999999986               0.001097729               0.000000000               0.999999986               0.001107189               0.000000000               0.999999986               0.001115049              -0.000000000               0.999999986               0.001120679               0.000000000               0.999999986               0.001123289              -0.000000000               0.999999986               0.000905563               0.000130185               0.999999985               0.000951297               0.000103243               0.999999985               0.000970133               0.000090967               0.999999985               0.000980825               0.000085816               0.999999985               0.000989865               0.000084056               0.999999985               0.000999242               0.000083788               0.999999985               0.001009380               0.000084074               0.999999985               0.001020279               0.000084116               0.999999985               0.001031519               0.000083444               0.999999985               0.001042657               0.000081544               0.999999986               0.001053379               0.000078321               0.999999986               0.001063338               0.000073376               0.999999986               0.001072148               0.000066385               0.999999986               0.001079399               0.000056983               0.999999986               0.001084767               0.000044686               0.999999986               0.001087834               0.000028380               0.999999986               0.001088068               0.000006607               0.999999986               0.000890430               0.000259209               0.999999985               0.000923674               0.000206073               0.999999985               0.000934653               0.000182786               0.999999985               0.000940335               0.000173607               0.999999985               0.000945853               0.000171050               0.999999985               0.000952385               0.000171213               0.999999985               0.000959938               0.000172119               0.999999985               0.000968104               0.000172566               0.999999985               0.000976313               0.000171309               0.999999985               0.000983941               0.000167851               0.999999986               0.000990501               0.000161595               0.999999986               0.000995570               0.000152075               0.999999986               0.000998742               0.000138672               0.999999986               0.000999798               0.000120949               0.999999986               0.000998575               0.000098183               0.999999986               0.000994951               0.000068916               0.999999986               0.000988843               0.000031247               0.999999986               0.000865508               0.000385846               0.999999985               0.000879123               0.000308222               0.999999985               0.000878821               0.000276308               0.999999985               0.000877726               0.000265033               0.999999985               0.000878623               0.000262977               0.999999985               0.000881459               0.000264524               0.999999985               0.000885485               0.000266810               0.999999985               0.000889779               0.000267814               0.999999985               0.000893441               0.000266407               0.999999985               0.000895751               0.000261425               0.999999986               0.000896139               0.000252517               0.999999986               0.000894063               0.000238870               0.999999986               0.000889321               0.000220049               0.999999986               0.000881902               0.000195954               0.999999986               0.000871893               0.000165954               0.999999986               0.000859492               0.000128949               0.999999986               0.000845170               0.000083877               0.999999986               0.000831156               0.000508905               0.999999985               0.000819805               0.000409746               0.999999985               0.000806981               0.000372185               0.999999985               0.000799202               0.000360854               0.999999985               0.000795807               0.000360616               0.999999985               0.000795115               0.000364262               0.999999985               0.000795381               0.000368232               0.999999985               0.000795233               0.000370192               0.999999985               0.000793483               0.000368530               0.999999986               0.000789354               0.000362315               0.999999986               0.000782137               0.000350945               0.999999986               0.000771535               0.000333827               0.999999986               0.000757604               0.000311104               0.999999986               0.000740754               0.000282948               0.999999986               0.000721390               0.000249183               0.999999986               0.000699956               0.000209462               0.999999986               0.000677258               0.000164151               0.999999986               0.000788105               0.000627223               0.999999985               0.000748842               0.000510807               0.999999985               0.000724550               0.000470575               0.999999985               0.000711735               0.000460830               0.999999985               0.000705440               0.000463117               0.999999985               0.000701987               0.000469230               0.999999985               0.000698729               0.000474853               0.999999985               0.000693879               0.000477437               0.999999985               0.000686125               0.000475431               0.999999986               0.000674603               0.000467915               0.999999986               0.000658888               0.000454234               0.999999986               0.000639144               0.000434664               0.999999986               0.000615833               0.000409598               0.999999986               0.000589540               0.000379475               0.999999986               0.000560770               0.000344876               0.999999986               0.000530275               0.000305921               0.999999986               0.000498859               0.000263799               0.999999986               0.000737408               0.000739662               0.999999985               0.000670003               0.000611367               0.999999985               0.000637058               0.000571107               0.999999985               0.000621704               0.000563927               0.999999985               0.000614129               0.000568921               0.999999985               0.000608720               0.000577212               0.999999985               0.000602122               0.000584096               0.999999985               0.000592233               0.000586970               0.999999986               0.000577820               0.000584358               0.999999986               0.000558220               0.000575394               0.999999986               0.000533515               0.000559889               0.999999986               0.000504216               0.000538791               0.999999986               0.000471203               0.000512727               0.999999986               0.000435061               0.000482337               0.999999986               0.000396520               0.000448483               0.999999986               0.000356348               0.000411802               0.999999986               0.000315409               0.000373711               0.999999986               0.000680046               0.000845154               0.999999985               0.000586971               0.000711298               0.999999985               0.000549274               0.000672906               0.999999985               0.000534154               0.000668363               0.999999985               0.000526593               0.000675731               0.999999985               0.000519711               0.000685773               0.999999985               0.000509691               0.000693558               0.999999985               0.000494257               0.000696254               0.999999986               0.000472388               0.000692601               0.999999986               0.000443875               0.000682310               0.999999986               0.000409296               0.000665534               0.999999986               0.000369756               0.000643718               0.999999986               0.000326003               0.000617698               0.999999986               0.000278914               0.000588189               0.999999986               0.000229591               0.000556247               0.999999986               0.000179035               0.000522700               0.999999986               0.000128028               0.000488697               0.999999986               0.000617995               0.000941664               0.999999985               0.000502697               0.000810426               0.999999985               0.000465629               0.000774281               0.999999985               0.000452691               0.000771848               0.999999985               0.000445954               0.000781285               0.999999985               0.000437624               0.000792674               0.999999985               0.000423563               0.000800917               0.999999986               0.000401701               0.000803149               0.999999986               0.000371292               0.000798394               0.999999986               0.000332756               0.000786822               0.999999986               0.000287324               0.000769385               0.999999986               0.000236131               0.000747471               0.999999986               0.000180359               0.000722110               0.999999986               0.000121524               0.000694201               0.999999986               0.000061031               0.000664851               0.999999986              -0.000000038               0.000634964               0.999999986              -0.000061155               0.000605145               0.999999986               0.000553839               0.001033078               0.999999985               0.000431948               0.000921657               0.999999985               0.000392386               0.000882104               0.999999985               0.000378947               0.000875216               0.999999985               0.000373018               0.000882222               0.999999985               0.000366731               0.000893828               0.999999985               0.000356105               0.000904887               0.999999986               0.000338799               0.000912566               0.999999986               0.000313806               0.000915224               0.999999986               0.000280635               0.000912388               0.999999986               0.000240120               0.000904474               0.999999986               0.000193117               0.000892133               0.999999986               0.000140493               0.000876529               0.999999986               0.000083522               0.000858249               0.999999986               0.000023524               0.000838241               0.999999986              -0.000038350               0.000817156               0.999999986              -0.000100722               0.000795946               0.999999986               0.000484041               0.001116464               0.999999985               0.000363862               0.001029315               0.999999985               0.000322050               0.000992755               0.999999985               0.000307181               0.000983782               0.999999985               0.000301084               0.000989293               0.999999985               0.000296085               0.001001262               0.999999985               0.000288052               0.001014903               0.999999986               0.000274640               0.001027395               0.999999986               0.000254478               0.001036867               0.999999986               0.000226747               0.001042367               0.999999986               0.000191648               0.001043556               0.999999986               0.000149720               0.001040709               0.999999986               0.000101231               0.001034332               0.999999986               0.000047063               0.001025217               0.999999986              -0.000011818               0.001014082               0.999999986              -0.000074242               0.001001578               0.999999986              -0.000138614               0.000988463               0.999999986               0.000410023               0.001189653               0.999999985               0.000298374               0.001130178               0.999999985               0.000256135               0.001101263               0.999999985               0.000239779               0.001093436               0.999999985               0.000232941               0.001098818               0.999999985               0.000228360               0.001111718               0.999999985               0.000222094               0.001127978               0.999999986               0.000211794               0.001144992               0.999999986               0.000195859               0.001160834               0.999999986               0.000173302               0.001174222               0.999999986               0.000144040               0.001184344               0.999999986               0.000107976               0.001190955               0.999999986               0.000064759               0.001194175               0.999999986               0.000014533               0.001194450               0.999999986              -0.000041874               0.001192314               0.999999986              -0.000103752               0.001188288               0.999999986              -0.000170110               0.001183087               0.999999986               0.000332362               0.001251334               0.999999985               0.000235469               0.001220054               0.999999985               0.000195628               0.001202006               0.999999985               0.000178764               0.001198238               0.999999985               0.000171135               0.001205360               0.999999985               0.000166546               0.001219876               0.999999986               0.000161316               0.001238949               0.999999986               0.000153371               0.001260134               0.999999986               0.000141220               0.001281829               0.999999986               0.000123649               0.001302476               0.999999986               0.000100347               0.001321164               0.999999986               0.000070872               0.001337223               0.999999986               0.000034201               0.001350276               0.999999986              -0.000010051               0.001360262               0.999999986              -0.000061674               0.001367495               0.999999986              -0.000120740               0.001372505               0.999999986              -0.000187235               0.001375792               0.999999986               0.000251799               0.001300303               0.999999985               0.000174857               0.001294647               0.999999985               0.000140775               0.001288799               0.999999985               0.000125160               0.001291062               0.999999985               0.000117523               0.001301494               0.999999986               0.000112936               0.001318484               0.999999986               0.000108503               0.001340410               0.999999986               0.000102513               0.001365428               0.999999986               0.000093647               0.001392071               0.999999986               0.000080838               0.001419146               0.999999986               0.000063310               0.001445632               0.999999986               0.000040550               0.001470723               0.999999986               0.000011852               0.001493674               0.999999986              -0.000024021               0.001513900               0.999999986              -0.000067715               0.001531211               0.999999986              -0.000119903               0.001545726               0.999999986              -0.000181750               0.001557904               0.999999986               0.000169111               0.001335721               0.999999985               0.000115825               0.001350480               0.999999985               0.000090854               0.001355838               0.999999986               0.000078734               0.001364375               0.999999986               0.000072393               0.001378721               0.999999986               0.000068404               0.001398663               0.999999986               0.000064964               0.001423369               0.999999986               0.000060774               0.001451737               0.999999986               0.000054988               0.001482503               0.999999986               0.000046393               0.001514773               0.999999986               0.000034598               0.001547492               0.999999986               0.000019044               0.001579783               0.999999986              -0.000000749               0.001611057               0.999999986              -0.000026026               0.001640517               0.999999986              -0.000057944               0.001667472               0.999999986              -0.000097609               0.001691528               0.999999986              -0.000146667               0.001712535               0.999999986               0.000084930               0.001357204               0.999999985               0.000057694               0.001385022               0.999999986               0.000044528               0.001398227               0.999999986               0.000037847               0.001411607               0.999999986               0.000034203               0.001429156               0.999999986               0.000031890               0.001451458               0.999999986               0.000029958               0.001478258               0.999999986               0.000027765               0.001508900               0.999999986               0.000024785               0.001542533               0.999999986               0.000020415               0.001578278               0.999999986               0.000014448               0.001615088               0.999999986               0.000006689               0.001652133               0.999999986              -0.000003554               0.001688718               0.999999986              -0.000016730               0.001724235               0.999999986              -0.000033541               0.001757848               0.999999986              -0.000054967               0.001788825               0.999999986              -0.000082190               0.001816526               0.999999986               0.000000000               0.001364367               0.999999985               0.000000000               0.001396639               0.999999986              -0.000000000               0.001412721               0.999999986              -0.000000000               0.001427965               0.999999986               0.000000000               0.001446698               0.999999986               0.000000000               0.001469948               0.999999986              -0.000000000               0.001497553               0.999999986               0.000000000               0.001529000               0.999999986              -0.000000000               0.001563579               0.999999986              -0.000000000               0.001600411               0.999999986               0.000000000               0.001638544               0.999999986               0.000000000               0.001677377               0.999999986               0.000000000               0.001715929               0.999999986              -0.000000000               0.001753378               0.999999986              -0.000000000               0.001789298               0.999999986              -0.000000000               0.001822898               0.999999986               0.000000000               0.001853144               0.999999986 </DataArray>
<DataArray type="Float64"                                    Name="defo"                                                      NumberOfComponents=" 3" format="ascii">
             -0.000910647              -0.000000000               0.999999985              -0.000960649               0.000000000               0.999999985              -0.000982319               0.000000000               0.999999985              -0.000994945               0.000000000               0.999999985              -0.001005293              -0.000000000               0.999999985              -0.001015647              -0.000000000               0.999999985              -0.001026729               0.000000000               0.999999985              -0.001038535              -0.000000000               0.999999985              -0.001050915               0.000000000               0.999999985              -0.001063368              -0.000000000               0.999999986              -0.001075559               0.000000000               0.999999986              -0.001087115              -0.000000000               0.999999986              -0.001097729               0.000000000               0.999999986              -0.001107189               0.000000000               0.999999986              -0.001115049               0.000000000               0.999999986              -0.001120679               0.000000000               0.999999986              -0.001123289               0.000000000               0.999999986              -0.000905563               0.000130185               0.999999985              -0.000951297               0.000103243               0.999999985              -0.000970133               0.000090967               0.999999985              -0.000980825               0.000085816               0.999999985              -0.000989865               0.000084056               0.999999985              -0.000999242               0.000083788               0.999999985              -0.001009380               0.000084074               0.999999985              -0.001020279               0.000084116               0.999999985              -0.001031519               0.000083444               0.999999985              -0.001042657               0.000081544               0.999999986              -0.001053379               0.000078321               0.999999986              -0.001063338               0.000073376               0.999999986              -0.001072148               0.000066385               0.999999986              -0.001079399               0.000056983               0.999999986              -0.001084767               0.000044686               0.999999986              -0.001087834               0.000028380               0.999999986              -0.001088068               0.000006607               0.999999986              -0.000890430               0.000259209               0.999999985              -0.000923674               0.000206073               0.999999985              -0.000934653               0.000182786               0.999999985              -0.000940335               0.000173607               0.999999985              -0.000945853               0.000171050               0.999999985              -0.000952385               0.000171213               0.999999985              -0.000959938               0.000172119               0.999999985              -0.000968104               0.000172566               0.999999985              -0.000976313               0.000171309               0.999999985              -0.000983941               0.000167851               0.999999986              -0.000990501               0.000161595               0.999999986              -0.000995570               0.000152075               0.999999986              -0.000998742               0.000138672               0.999999986              -0.000999798               0.000120949               0.999999986              -0.000998575               0.000098183               0.999999986              -0.000994951               0.000068916               0.999999986              -0.000988843               0.000031247               0.999999986              -0.000865508               0.000385846               0.999999985              -0.000879123               0.000308222               0.999999985              -0.000878821               0.000276308               0.999999985              -0.000877726               0.000265033               0.999999985              -0.000878623               0.000262977               0.999999985              -0.000881459               0.000264524               0.999999985              -0.000885485               0.000266810               0.999999985              -0.000889779               0.000267814               0.999999985              -0.000893441               0.000266407               0.999999985              -0.000895751               0.000261425               0.999999986              -0.000896139               0.000252517               0.999999986              -0.000894063               0.000238870               0.999999986              -0.000889321               0.000220049               0.999999986              -0.000881902               0.000195954               0.999999986              -0.000871893               0.000165954               0.999999986              -0.000859492               0.000128949               0.999999986              -0.000845170               0.000083877               0.999999986              -0.000831156               0.000508905               0.999999985              -0.000819805               0.000409746               0.999999985              -0.000806981               0.000372185               0.999999985              -0.000799202               0.000360854               0.999999985              -0.000795807               0.000360616               0.999999985              -0.000795115               0.000364262               0.999999985              -0.000795381               0.000368232               0.999999985              -0.000795233               0.000370192               0.999999985              -0.000793483               0.000368530               0.999999986              -0.000789354               0.000362315               0.999999986              -0.000782137               0.000350945               0.999999986              -0.000771535               0.000333827               0.999999986              -0.000757604               0.000311104               0.999999986              -0.000740754               0.000282948               0.999999986              -0.000721390               0.000249183               0.999999986              -0.000699956               0.000209462               0.999999986              -0.000677258               0.000164151               0.999999986              -0.000788105               0.000627223               0.999999985              -0.000748842               0.000510807               0.999999985              -0.000724550               0.000470575               0.999999985              -0.000711735               0.000460830               0.999999985              -0.000705440               0.000463117               0.999999985              -0.000701987               0.000469230               0.999999985              -0.000698729               0.000474853               0.999999985              -0.000693879               0.000477437               0.999999985              -0.000686125               0.000475431               0.999999986              -0.000674603               0.000467915               0.999999986              -0.000658888               0.000454234               0.999999986              -0.000639144               0.000434664               0.999999986              -0.000615833               0.000409598               0.999999986              -0.000589540               0.000379475               0.999999986              -0.000560770               0.000344876               0.999999986              -0.000530275               0.000305921               0.999999986              -0.000498859               0.000263799               0.999999986              -0.000737408               0.000739662               0.999999985              -0.000670003               0.000611367               0.999999985              -0.000637058               0.000571107               0.999999985              -0.000621704               0.000563927               0.999999985              -0.000614129               0.000568921               0.999999985              -0.000608720               0.000577212               0.999999985              -0.000602122               0.000584096               0.999999985              -0.000592233               0.000586970               0.999999986              -0.000577820               0.000584358               0.999999986              -0.000558220               0.000575394               0.999999986              -0.000533515               0.000559889               0.999999986              -0.000504216               0.000538791               0.999999986              -0.000471203               0.000512727               0.999999986              -0.000435061               0.000482337               0.999999986              -0.000396520               0.000448483               0.999999986              -0.000356348               0.000411802               0.999999986              -0.000315409               0.000373711               0.999999986              -0.000680046               0.000845154               0.999999985              -0.000586971               0.000711298               0.999999985              -0.000549274               0.000672906               0.999999985              -0.000534154               0.000668363               0.999999985              -0.000526593               0.000675731               0.999999985              -0.000519711               0.000685773               0.999999985              -0.000509691               0.000693558               0.999999985              -0.000494257               0.000696254               0.999999986              -0.000472388               0.000692601               0.999999986              -0.000443875               0.000682310               0.999999986              -0.000409296               0.000665534               0.999999986              -0.000369756               0.000643718               0.999999986              -0.000326003               0.000617698               0.999999986              -0.000278914               0.000588189               0.999999986              -0.000229591               0.000556247               0.999999986              -0.000179035               0.000522700               0.999999986              -0.000128028               0.000488697               0.999999986              -0.000617995               0.000941664               0.999999985              -0.000502697               0.000810426               0.999999985              -0.000465629               0.000774281               0.999999985              -0.000452691               0.000771848               0.999999985              -0.000445954               0.000781285               0.999999985              -0.000437624               0.000792674               0.999999985              -0.000423563               0.000800917               0.999999986              -0.000401701               0.000803149               0.999999986              -0.000371292               0.000798394               0.999999986              -0.000332756               0.000786822               0.999999986              -0.000287324               0.000769385               0.999999986              -0.000236131               0.000747471               0.999999986              -0.000180359               0.000722110               0.999999986              -0.000121524               0.000694201               0.999999986              -0.000061031               0.000664851               0.999999986               0.000000038               0.000634964               0.999999986               0.000061155               0.000605145               0.999999986              -0.000553839               0.001033078               0.999999985              -0.000431948               0.000921657               0.999999985              -0.000392386               0.000882104               0.999999985              -0.000378947               0.000875216               0.999999985              -0.000373018               0.000882222               0.999999985              -0.000366731               0.000893828               0.999999985              -0.000356105               0.000904887               0.999999986              -0.000338799               0.000912566               0.999999986              -0.000313806               0.000915224               0.999999986              -0.000280635               0.000912388               0.999999986              -0.000240120               0.000904474               0.999999986              -0.000193117               0.000892133               0.999999986              -0.000140493               0.000876529               0.999999986              -0.000083522               0.000858249               0.999999986              -0.000023524               0.000838241               0.999999986               0.000038350               0.000817156               0.999999986               0.000100722               0.000795946               0.999999986              -0.000484041               0.001116464               0.999999985              -0.000363862               0.001029315               0.999999985              -0.000322050               0.000992755               0.999999985              -0.000307181               0.000983782               0.999999985              -0.000301084               0.000989293               0.999999985              -0.000296085               0.001001262               0.999999985              -0.000288052               0.001014903               0.999999986              -0.000274640               0.001027395               0.999999986              -0.000254478               0.001036867               0.999999986              -0.000226747               0.001042367               0.999999986              -0.000191648               0.001043556               0.999999986              -0.000149720               0.001040709               0.999999986              -0.000101231               0.001034332               0.999999986              -0.000047063               0.001025217               0.999999986               0.000011818               0.001014082               0.999999986               0.000074242               0.001001578               0.999999986               0.000138614               0.000988463               0.999999986              -0.000410023               0.001189653               0.999999985              -0.000298374               0.001130178               0.999999985              -0.000256135               0.001101263               0.999999985              -0.000239779               0.001093436               0.999999985              -0.000232941               0.001098818               0.999999985              -0.000228360               0.001111718               0.999999985              -0.000222094               0.001127978               0.999999986              -0.000211794               0.001144992               0.999999986              -0.000195859               0.001160834               0.999999986              -0.000173302               0.001174222               0.999999986              -0.000144040               0.001184344               0.999999986              -0.000107976               0.001190955               0.999999986              -0.000064759               0.001194175               0.999999986              -0.000014533               0.001194450               0.999999986               0.000041874               0.001192314               0.999999986               0.000103752               0.001188288               0.999999986               0.000170110               0.001183087               0.999999986              -0.000332362               0.001251334               0.999999985              -0.000235469               0.001220054               0.999999985              -0.000195628               0.001202006               0.999999985              -0.000178764               0.001198238               0.999999985              -0.000171135               0.001205360               0.999999985              -0.000166546               0.001219876               0.999999986              -0.000161316               0.001238949               0.999999986              -0.000153371               0.001260134               0.999999986              -0.000141220               0.001281829               0.999999986              -0.000123649               0.001302476               0.999999986              -0.000100347               0.001321164               0.999999986              -0.000070872               0.001337223               0.999999986              -0.000034201               0.001350276               0.999999986               0.000010051               0.001360262               0.999999986               0.000061674               0.001367495               0.999999986               0.000120740               0.001372505               0.999999986               0.000187235               0.001375792               0.999999986              -0.000251799               0.001300303               0.999999985              -0.000174857               0.001294647               0.999999985              -0.000140775               0.001288799               0.999999985              -0.000125160               0.001291062               0.999999985              -0.000117523               0.001301494               0.999999986              -0.000112936               0.001318484               0.999999986              -0.000108503               0.001340410               0.999999986              -0.000102513               0.001365428               0.999999986              -0.000093647               0.001392071               0.999999986              -0.000080838               0.001419146               0.999999986              -0.000063310               0.001445632               0.999999986              -0.000040550               0.001470723               0.999999986              -0.000011852               0.001493674               0.999999986               0.000024021               0.001513900               0.999999986               0.000067715               0.001531211               0.999999986               0.000119903               0.001545726               0.999999986               0.000181750               0.001557904               0.999999986              -0.000169111               0.001335721               0.999999985              -0.000115825               0.001350480               0.999999985              -0.000090854               0.001355838               0.999999986              -0.000078734               0.001364375               0.999999986              -0.000072393               0.001378721               0.999999986              -0.000068404               0.001398663               0.999999986              -0.000064964               0.001423369               0.999999986              -0.000060774               0.001451737               0.999999986              -0.000054988               0.001482503               0.999999986              -0.000046393               0.001514773               0.999999986              -0.000034598               0.001547492               0.999999986              -0.000019044               0.001579783               0.999999986               0.000000749               0.001611057               0.999999986               0.000026026               0.001640517               0.999999986               0.000057944               0.001667472               0.999999986               0.000097609               0.001691528               0.999999986               0.000146667               0.001712535               0.999999986              -0.000084930               0.001357204               0.999999985              -0.000057694               0.001385022               0.999999986              -0.000044528               0.001398227               0.999999986              -0.000037847               0.001411607               0.999999986              -0.000034203               0.001429156               0.999999986              -0.000031890               0.001451458               0.999999986              -0.000029958               0.001478258               0.999999986              -0.000027765               0.001508900               0.999999986              -0.000024785               0.001542533               0.999999986              -0.000020415               0.001578278               0.999999986              -0.000014448               0.001615088               0.999999986              -0.000006689               0.001652133               0.999999986               0.000003554               0.001688718               0.999999986               0.000016730               0.001724235               0.999999986               0.000033541               0.001757848               0.999999986               0.000054967               0.001788825               0.999999986               0.000082190               0.001816526               0.999999986               0.000000000               0.001364367               0.999999985               0.000000000               0.001396639               0.999999986              -0.000000000               0.001412721               0.999999986              -0.000000000               0.001427965               0.999999986               0.000000000               0.001446698               0.999999986               0.000000000               0.001469948               0.999999986              -0.000000000               0.001497553               0.999999986               0.000000000               0.001529000               0.999999986              -0.000000000               0.001563579               0.999999986              -0.000000000               0.001600411               0.999999986               0.000000000               0.001638544               0.999999986               0.000000000               0.001677377               0.999999986               0.000000000               0.001715929               0.999999986              -0.000000000               0.001753378               0.999999986              -0.000000000               0.001789298               0.999999986              -0.000000000               0.001822898               0.999999986               0.000000000               0.001853144               0.999999986              -0.000910647              -0.000000000               0.999999985              -0.000960649               0.000000000               0.999999985              -0.000982319               0.000000000               0.999999985              -0.000994945               0.000000000               0.999999985              -0.001005293              -0.000000000               0.999999985              -0.001015647              -0.000000000               0.999999985              -0.001026729               0.000000000               0.999999985              -0.001038535              -0.000000000               0.999999985              -0.001050915               0.000000000               0.999999985              -0.001063368              -0.000000000               0.999999986              -0.001075559               0.000000000               0.999999986              -0.001087115              -0.000000000               0.999999986              -0.001097729               0.000000000               0.999999986              -0.001107189               0.000000000               0.999999986              -0.001115049               0.000000000               0.999999986              -0.001120679               0.000000000               0.999999986              -0.001123289               0.000000000               0.999999986              -0.000905563              -0.000130185               0.999999985              -0.000951297              -0.000103243               0.999999985              -0.000970133              -0.000090967               0.999999985              -0.000980825              -0.000085816               0.999999985              -0.000989865              -0.000084056               0.999999985              -0.000999242              -0.000083788               0.999999985              -0.001009380              -0.000084074               0.999999985              -0.001020279              -0.000084116               0.999999985              -0.001031519              -0.000083444               0.999999985              -0.001042657              -0.000081544               0.999999986              -0.001053379              -0.000078321               0.999999986              -0.001063338              -0.000073376               0.999999986              -0.001072148              -0.000066385               0.999999986              -0.001079399              -0.000056983               0.999999986              -0.001084767              -0.000044686               0.999999986              -0.001087834              -0.000028380               0.999999986              -0.001088068              -0.000006607               0.999999986              -0.000890430              -0.000259209               0.999999985              -0.000923674              -0.000206073               0.999999985              -0.000934653              -0.000182786               0.999999985              -0.000940335              -0.000173607               0.999999985              -0.000945853              -0.000171050               0.999999985              -0.000952385              -0.000171213               0.999999985              -0.000959938              -0.000172119               0.999999985              -0.000968104              -0.000172566               0.999999985              -0.000976313              -0.000171309               0.999999985              -0.000983941              -0.000167851               0.999999986              -0.000990501              -0.000161595               0.999999986              -0.000995570              -0.000152075               0.999999986              -0.000998742              -0.000138672               0.999999986              -0.000999798              -0.000120949               0.999999986              -0.000998575              -0.000098183               0.999999986              -0.000994951              -0.000068916               0.999999986              -0.000988843              -0.000031247               0.999999986              -0.000865508              -0.000385846               0.999999985              -0.000879123              -0.000308222               0.999999985              -0.000878821              -0.000276308               0.999999985              -0.000877726              -0.000265033               0.999999985              -0.000878623              -0.000262977               0.999999985              -0.000881459              -0.000264524               0.999999985              -0.000885485              -0.000266810               0.999999985              -0.000889779              -0.000267814               0.999999985              -0.000893441              -0.000266407               0.999999985              -0.000895751              -0.000261425               0.999999986              -0.000896139              -0.000252517               0.999999986              -0.000894063              -0.000238870               0.999999986              -0.000889321              -0.000220049               0.999999986              -0.000881902              -0.000195954               0.999999986              -0.000871893              -0.000165954               0.999999986              -0.000859492              -0.000128949               0.999999986              -0.000845170              -0.000083877               0.999999986              -0.000831156              -0.000508905               0.999999985              -0.000819805              -0.000409746               0.999999985              -0.000806981              -0.000372185               0.999999985              -0.000799202              -0.000360854               0.999999985              -0.000795807              -0.000360616               0.999999985              -0.000795115              -0.000364262               0.999999985              -0.000795381              -0.000368232               0.999999985              -0.000795233              -0.000370192               0.999999985              -0.000793483              -0.000368530               0.999999986              -0.000789354              -0.000362315               0.999999986              -0.000782137              -0.000350945               0.999999986              -0.000771535              -0.000333827               0.999999986              -0.000757604              -0.000311104               0.999999986              -0.000740754              -0.000282948               0.999999986              -0.000721390              -0.000249183               0.999999986              -0.000699956              -0.000209462               0.999999986              -0.000677258              -0.000164151               0.999999986              -0.000788105              -0.000627223               0.999999985              -0.000748842              -0.000510807               0.999999985              -0.000724550              -0.000470575               0.999999985              -0.000711735              -0.000460830               0.999999985              -0.000705440              -0.000463117               0.999999985              -0.000701987              -0.000469230               0.999999985              -0.000698729              -0.000474853               0.999999985              -0.000693879              -0.000477437               0.999999985              -0.000686125              -0.000475431               0.999999986              -0.000674603              -0.000467915               0.999999986              -0.000658888              -0.000454234               0.999999986              -0.000639144              -0.000434664               0.999999986              -0.000615833              -0.000409598               0.999999986              -0.000589540              -0.000379475               0.999999986              -0.000560770              -0.000344876               0.999999986              -0.000530275              -0.000305921               0.999999986              -0.000498859              -0.000263799               0.999999986              -0.000737408              -0.000739662               0.999999985              -0.000670003              -0.000611367               0.999999985              -0.000637058              -0.000571107               0.999999985              -0.000621704              -0.000563927               0.999999985              -0.000614129              -0.000568921               0.999999985              -0.000608720              -0.000577212               0.999999985              -0.000602122              -0.000584096               0.999999985              -0.000592233              -0.000586970               0.999999986              -0.000577820              -0.000584358               0.999999986              -0.000558220              -0.000575394               0.999999986              -0.000533515              -0.000559889               0.999999986              -0.000504216              -0.000538791               0.999999986              -0.000471203              -0.000512727               0.999999986              -0.000435061              -0.000482337               0.999999986              -0.000396520              -0.000448483               0.999999986              -0.000356348              -0.000411802               0.999999986              -0.000315409              -0.000373711               0.999999986              -0.000680046              -0.000845154               0.999999985              -0.000586971              -0.000711298               0.999999985              -0.000549274              -0.000672906               0.999999985              -0.000534154              -0.000668363               0.999999985              -0.000526593              -0.000675731               0.999999985              -0.000519711              -0.000685773               0.999999985              -0.000509691              -0.000693558               0.999999985              -0.000494257              -0.000696254               0.999999986              -0.000472388              -0.000692601               0.999999986              -0.000443875              -0.000682310               0.999999986              -0.000409296              -0.000665534               0.999999986              -0.000369756              -0.000643718               0.999999986              -0.000326003              -0.000617698               0.999999986              -0.000278914              -0.000588189               0.999999986              -0.000229591              -0.000556247               0.999999986              -0.000179035              -0.000522700               0.999999986              -0.000128028              -0.000488697               0.999999986              -0.000617995              -0.000941664               0.999999985              -0.000502697              -0.000810426               0.999999985              -0.000465629              -0.000774281               0.999999985              -0.000452691              -0.000771848               0.999999985              -0.000445954              -0.000781285               0.999999985              -0.000437624              -0.000792674               0.999999985              -0.000423563              -0.000800917               0.999999986              -0.000401701              -0.000803149               0.999999986              -0.000371292              -0.000798394               0.999999986              -0.000332756              -0.000786822               0.999999986              -0.000287324              -0.000769385               0.999999986              -0.000236131              -0.000747471               0.999999986              -0.000180359              -0.000722110               0.999999986              -0.000121524              -0.000694201               0.999999986              -0.000061031              -0.000664851               0.999999986               0.000000038              -0.000634964               0.999999986               0.000061155              -0.000605145               0.999999986              -0.000553839              -0.001033078               0.999999985              -0.000431948              -0.000921657               0.999999985              -0.000392386              -0.000882104               0.999999985              -0.000378947              -0.000875216               0.999999985              -0.000373018              -0.000882222               0.999999985              -0.000366731              -0.000893828               0.999999985              -0.000356105              -0.000904887               0.999999986              -0.000338799              -0.000912566               0.999999986              -0.000313806              -0.000915224               0.999999986              -0.000280635              -0.000912388               0.999999986              -0.000240120              -0.000904474               0.999999986              -0.000193117              -0.000892133               0.999999986              -0.000140493              -0.000876529               0.999999986              -0.000083522              -0.000858249               0.999999986              -0.000023524              -0.000838241               0.999999986               0.000038350              -0.000817156               0.999999986               0.000100722              -0.000795946               0.999999986              -0.000484041              -0.001116464               0.999999985              -0.000363862              -0.001029315               0.999999985              -0.000322050              -0.000992755               0.999999985              -0.000307181              -0.000983782               0.999999985              -0.000301084              -0.000989293               0.999999985              -0.000296085              -0.001001262               0.999999985              -0.000288052              -0.001014903               0.999999986              -0.000274640              -0.001027395               0.999999986              -0.000254478              -0.001036867               0.999999986              -0.000226747              -0.001042367               0.999999986              -0.000191648              -0.001043556               0.999999986              -0.000149720              -0.001040709               0.999999986              -0.000101231              -0.001034332               0.999999986              -0.000047063              -0.001025217               0.999999986               0.000011818              -0.001014082               0.999999986               0.000074242              -0.001001578               0.999999986               0.000138614              -0.000988463               0.999999986              -0.000410023              -0.001189653               0.999999985              -0.000298374              -0.001130178               0.999999985              -0.000256135              -0.001101263               0.999999985              -0.000239779              -0.001093436               0.999999985              -0.000232941              -0.001098818               0.999999985              -0.000228360              -0.001111718               0.999999985              -0.000222094              -0.001127978               0.999999986              -0.000211794              -0.001144992               0.999999986              -0.000195859              -0.001160834               0.999999986              -0.000173302              -0.001174222               0.999999986              -0.000144040              -0.001184344               0.999999986              -0.000107976              -0.001190955               0.999999986              -0.000064759              -0.001194175               0.999999986              -0.000014533              -0.001194450               0.999999986               0.000041874              -0.001192314               0.999999986               0.000103752              -0.001188288               0.999999986               0.000170110              -0.001183087               0.999999986              -0.000332362              -0.001251334               0.999999985              -0.000235469              -0.001220054               0.999999985              -0.000195628              -0.001202006               0.999999985              -0.000178764              -0.001198238               0.999999985              -0.000171135              -0.001205360               0.999999985              -0.000166546              -0.001219876               0.999999986              -0.000161316              -0.001238949               0.999999986              -0.000153371              -0.001260134               0.999999986              -0.000141220              -0.001281829               0.999999986              -0.000123649              -0.001302476               0.999999986              -0.000100347              -0.001321164               0.999999986              -0.000070872              -0.001337223               0.999999986              -0.000034201              -0.001350276               0.999999986               0.000010051              -0.001360262               0.999999986               0.000061674              -0.001367495               0.999999986               0.000120740              -0.001372505               0.999999986               0.000187235              -0.001375792               0.999999986              -0.000251799              -0.001300303               0.999999985              -0.000174857              -0.001294647               0.999999985              -0.000140775              -0.001288799               0.999999985              -0.000125160              -0.001291062               0.999999985              -0.000117523              -0.001301494               0.999999986              -0.000112936              -0.001318484               0.999999986              -0.000108503              -0.001340410               0.999999986              -0.000102513              -0.001365428               0.999999986              -0.000093647              -0.001392071               0.999999986              -0.000080838              -0.001419146               0.999999986              -0.000063310              -0.001445632               0.999999986              -0.000040550              -0.001470723               0.999999986              -0.000011852              -0.001493674               0.999999986               0.000024021              -0.001513900               0.999999986               0.000067715              -0.001531211               0.999999986               0.000119903              -0.001545726               0.999999986               0.000181750              -0.001557904               0.999999986              -0.000169111              -0.001335721               0.999999985              -0.000115825              -0.001350480               0.999999985              -0.000090854              -0.001355838               0.999999986              -0.000078734              -0.001364375               0.999999986              -0.000072393              -0.001378721               0.999999986              -0.000068404              -0.001398663               0.999999986              -0.000064964              -0.001423369               0.999999986              -0.000060774              -0.001451737               0.999999986              -0.000054988              -0.001482503               0.999999986              -0.000046393              -0.001514773               0.999999986              -0.000034598              -0.001547492               0.999999986              -0.000019044              -0.001579783               0.999999986               0.000000749              -0.001611057               0.999999986               0.000026026              -0.001640517               0.999999986               0.000057944              -0.001667472               0.999999986               0.000097609              -0.001691528               0.999999986               0.000146667              -0.001712535               0.999999986              -0.000084930              -0.001357204               0.999999985              -0.000057694              -0.001385022               0.999999986              -0.000044528              -0.001398227               0.999999986              -0.000037847              -0.001411607               0.999999986              -0.000034203              -0.001429156               0.999999986              -0.000031890              -0.001451458               0.999999986              -0.000029958              -0.001478258               0.999999986              -0.000027765              -0.001508900               0.999999986              -0.000024785              -0.001542533               0.999999986              -0.000020415              -0.001578278               0.999999986              -0.000014448              -0.001615088               0.999999986              -0.000006689              -0.001652133               0.999999986               0.000003554              -0.001688718               0.999999986               0.000016730              -0.001724235               0.999999986               0.000033541              -0.001757848               0.999999986               0.000054967              -0.001788825               0.999999986               0.000082190              -0.001816526               0.999999986               0.000000000              -0.001364367               0.999999985              -0.000000000              -0.001396639               0.999999986              -0.000000000              -0.001412721               0.999999986              -0.000000000              -0.001427965               0.999999986              -0.000000000              -0.001446698               0.999999986              -0.000000000              -0.001469948               0.999999986               0.000000000              -0.001497553               0.999999986              -0.000000000              -0.001529000               0.999999986               0.000000000              -0.001563579               0.999999986               0.000000000              -0.001600411               0.999999986               0.000000000              -0.001638544               0.999999986              -0.000000000              -0.001677377               0.999999986              -0.000000000              -0.001715929               0.999999986               0.000000000              -0.001753378               0.999999986              -0.000000000              -0.001789298               0.999999986              -0.000000000              -0.001822898               0.999999986               0.000000000              -0.001853144               0.999999986               0.000910647              -0.000000000               0.999999985               0.000960649               0.000000000               0.999999985               0.000982319              -0.000000000               0.999999985               0.000994945              -0.000000000               0.999999985               0.001005293               0.000000000               0.999999985               0.001015647              -0.000000000               0.999999985               0.001026729               0.000000000               0.999999985               0.001038535               0.000000000               0.999999985               0.001050915               0.000000000               0.999999985               0.001063368               0.000000000               0.999999986               0.001075559              -0.000000000               0.999999986               0.001087115               0.000000000               0.999999986               0.001097729               0.000000000               0.999999986               0.001107189               0.000000000               0.999999986               0.001115049              -0.000000000               0.999999986               0.001120679               0.000000000               0.999999986               0.001123289              -0.000000000               0.999999986               0.000905563              -0.000130185               0.999999985               0.000951297              -0.000103243               0.999999985               0.000970133              -0.000090967               0.999999985               0.000980825              -0.000085816               0.999999985               0.000989865              -0.000084056               0.999999985               0.000999242              -0.000083788               0.999999985               0.001009380              -0.000084074               0.999999985               0.001020279              -0.000084116               0.999999985               0.001031519              -0.000083444               0.999999985               0.001042657              -0.000081544               0.999999986               0.001053379              -0.000078321               0.999999986               0.001063338              -0.000073376               0.999999986               0.001072148              -0.000066385               0.999999986               0.001079399              -0.000056983               0.999999986               0.001084767              -0.000044686               0.999999986               0.001087834              -0.000028380               0.999999986               0.001088068              -0.000006607               0.999999986               0.000890430              -0.000259209               0.999999985               0.000923674              -0.000206073               0.999999985               0.000934653              -0.000182786               0.999999985               0.000940335              -0.000173607               0.999999985               0.000945853              -0.000171050               0.999999985               0.000952385              -0.000171213               0.999999985               0.000959938              -0.000172119               0.999999985               0.000968104              -0.000172566               0.999999985               0.000976313              -0.000171309               0.999999985               0.000983941              -0.000167851               0.999999986               0.000990501              -0.000161595               0.999999986               0.000995570              -0.000152075               0.999999986               0.000998742              -0.000138672               0.999999986               0.000999798              -0.000120949               0.999999986               0.000998575              -0.000098183               0.999999986               0.000994951              -0.000068916               0.999999986               0.000988843              -0.000031247               0.999999986               0.000865508              -0.000385846               0.999999985               0.000879123              -0.000308222               0.999999985               0.000878821              -0.000276308               0.999999985               0.000877726              -0.000265033               0.999999985               0.000878623              -0.000262977               0.999999985               0.000881459              -0.000264524               0.999999985               0.000885485              -0.000266810               0.999999985               0.000889779              -0.000267814               0.999999985               0.000893441              -0.000266407               0.999999985               0.000895751              -0.000261425               0.999999986               0.000896139              -0.000252517               0.999999986               0.000894063              -0.000238870               0.999999986               0.000889321              -0.000220049               0.999999986               0.000881902              -0.000195954               0.999999986               0.000871893              -0.000165954               0.999999986               0.000859492              -0.000128949               0.999999986               0.000845170              -0.000083877               0.999999986               0.000831156              -0.000508905               0.999999985               0.000819805              -0.000409746               0.999999985               0.000806981              -0.000372185               0.999999985               0.000799202              -0.000360854               0.999999985               0.000795807              -0.000360616               0.999999985               0.000795115              -0.000364262               0.999999985               0.000795381              -0.000368232               0.999999985               0.000795233              -0.000370192               0.999999985               0.000793483              -0.000368530               0.999999986               0.000789354              -0.000362315               0.999999986               0.000782137              -0.000350945               0.999999986               0.000771535              -0.000333827               0.999999986               0.000757604              -0.000311104               0.999999986               0.000740754              -0.000282948               0.999999986               0.000721390              -0.000249183               0.999999986               0.000699956              -0.000209462               0.999999986               0.000677258              -0.000164151               0.999999986               0.000788105              -0.000627223               0.999999985               0.000748842              -0.000510807               0.999999985               0.000724550              -0.000470575               0.999999985               0.000711735              -0.000460830               0.999999985               0.000705440              -0.000463117               0.999999985               0.000701987              -0.000469230               0.999999985               0.000698729              -0.000474853               0.999999985               0.000693879              -0.000477437               0.999999985               0.000686125              -0.000475431               0.999999986               0.000674603              -0.000467915               0.999999986               0.000658888              -0.000454234               0.999999986               0.000639144              -0.000434664               0.999999986               0.000615833              -0.000409598               0.999999986               0.000589540              -0.000379475               0.999999986               0.000560770              -0.000344876               0.999999986               0.000530275              -0.000305921               0.999999986               0.000498859              -0.000263799               0.999999986               0.000737408              -0.000739662               0.999999985               0.000670003              -0.000611367               0.999999985               0.000637058              -0.000571107               0.999999985               0.000621704              -0.000563927               0.999999985               0.000614129              -0.000568921               0.999999985               0.000608720              -0.000577212               0.999999985               0.000602122              -0.000584096               0.999999985               0.000592233              -0.000586970               0.999999986               0.000577820              -0.000584358               0.999999986               0.000558220              -0.000575394               0.999999986               0.000533515              -0.000559889               0.999999986               0.000504216              -0.000538791               0.999999986               0.000471203              -0.000512727               0.999999986               0.000435061              -0.000482337               0.999999986               0.000396520              -0.000448483               0.999999986               0.000356348              -0.000411802               0.999999986               0.000315409              -0.000373711               0.999999986               0.000680046              -0.000845154               0.999999985               0.000586971              -0.000711298               0.999999985               0.000549274              -0.000672906               0.999999985               0.000534154              -0.000668363               0.999999985               0.000526593              -0.000675731               0.999999985               0.000519711              -0.000685773               0.999999985               0.000509691              -0.000693558               0.999999985               0.000494257              -0.000696254               0.999999986               0.000472388              -0.000692601               0.999999986               0.000443875              -0.000682310               0.999999986               0.000409296              -0.000665534               0.999999986               0.000369756              -0.000643718               0.999999986               0.000326003              -0.000617698               0.999999986               0.000278914              -0.000588189               0.999999986               0.000229591              -0.000556247               0.999999986               0.000179035              -0.000522700               0.999999986               0.000128028              -0.000488697               0.999999986               0.000617995              -0.000941664               0.999999985               0.000502697              -0.000810426               0.999999985               0.000465629              -0.000774281               0.999999985               0.000452691              -0.000771848               0.999999985               0.000445954              -0.000781285               0.999999985               0.000437624              -0.000792674               0.999999985               0.000423563              -0.000800917               0.999999986               0.000401701              -0.000803149               0.999999986               0.000371292              -0.000798394               0.999999986               0.000332756              -0.000786822               0.999999986               0.000287324              -0.000769385               0.999999986               0.000236131              -0.000747471               0.999999986               0.000180359              -0.000722110               0.999999986               0.000121524              -0.000694201               0.999999986               0.000061031              -0.000664851               0.999999986              -0.000000038              -0.000634964               0.999999986              -0.000061155              -0.000605145               0.999999986               0.000553839              -0.001033078               0.999999985               0.000431948              -0.000921657               0.999999985               0.000392386              -0.000882104               0.999999985               0.000378947              -0.000875216               0.999999985               0.000373018              -0.000882222               0.999999985               0.000366731              -0.000893828               0.999999985               0.000356105              -0.000904887               0.999999986               0.000338799              -0.000912566               0.999999986               0.000313806              -0.000915224               0.999999986               0.000280635              -0.000912388               0.999999986               0.000240120              -0.000904474               0.999999986               0.000193117              -0.000892133               0.999999986               0.000140493              -0.000876529               0.999999986               0.000083522              -0.000858249               0.999999986               0.000023524              -0.000838241               0.999999986              -0.000038350              -0.000817156               0.999999986              -0.000100722              -0.000795946               0.999999986               0.000484041              -0.001116464               0.999999985               0.000363862              -0.001029315               0.999999985               0.000322050              -0.000992755               0.999999985               0.000307181              -0.000983782               0.999999985               0.000301084              -0.000989293               0.999999985               0.000296085              -0.001001262               0.999999985               0.000288052              -0.001014903               0.999999986               0.000274640              -0.001027395               0.999999986               0.000254478              -0.001036867               0.999999986               0.000226747              -0.001042367               0.999999986               0.000191648              -0.001043556               0.999999986               0.000149720              -0.001040709               0.999999986               0.000101231              -0.001034332               0.999999986               0.000047063              -0.001025217               0.999999986              -0.000011818              -0.001014082               0.999999986              -0.000074242              -0.001001578               0.999999986              -0.000138614              -0.000988463               0.999999986               0.000410023              -0.001189653               0.999999985               0.000298374              -0.001130178               0.999999985               0.000256135              -0.001101263               0.999999985               0.000239779              -0.001093436               0.999999985               0.000232941              -0.001098818               0.999999985               0.000228360              -0.001111718               0.999999985               0.000222094              -0.001127978               0.999999986               0.000211794              -0.001144992               0.999999986               0.000195859              -0.001160834               0.999999986               0.000173302              -0.001174222               0.999999986               0.000144040              -0.001184344               0.999999986               0.000107976              -0.001190955               0.999999986               0.000064759              -0.001194175               0.999999986               0.000014533              -0.001194450               0.999999986              -0.000041874              -0.001192314               0.999999986              -0.000103752              -0.001188288               0.999999986              -0.000170110              -0.001183087               0.999999986               0.000332362              -0.001251334               0.999999985               0.000235469              -0.001220054               0.999999985               0.000195628              -0.001202006               0.999999985               0.000178764              -0.001198238               0.999999985               0.000171135              -0.001205360               0.999999985               0.000166546              -0.001219876               0.999999986               0.000161316              -0.001238949               0.999999986               0.000153371              -0.001260134               0.999999986               0.000141220              -0.001281829               0.999999986               0.000123649              -0.001302476               0.999999986               0.000100347              -0.001321164               0.999999986               0.000070872              -0.001337223               0.999999986               0.000034201              -0.001350276               0.999999986              -0.000010051              -0.001360262               0.999999986              -0.000061674              -0.001367495               0.999999986              -0.000120740              -0.001372505               0.999999986              -0.000187235              -0.001375792               0.999999986               0.000251799              -0.001300303               0.999999985               0.000174857              -0.001294647               0.999999985               0.000140775              -0.001288799               0.999999985               0.000125160              -0.001291062               0.999999985               0.000117523              -0.001301494               0.999999986               0.000112936              -0.001318484               0.999999986               0.000108503              -0.001340410               0.999999986               0.000102513              -0.001365428               0.999999986               0.000093647              -0.001392071               0.999999986               0.000080838              -0.001419146               0.999999986               0.000063310              -0.001445632               0.999999986               0.000040550              -0.001470723               0.999999986               0.000011852              -0.001493674               0.999999986              -0.000024021              -0.001513900               0.999999986              -0.000067715              -0.001531211               0.999999986              -0.000119903              -0.001545726               0.999999986              -0.000181750              -0.001557904               0.999999986               0.000169111              -0.001335721               0.999999985               0.000115825              -0.001350480               0.999999985               0.000090854              -0.001355838               0.999999986               0.000078734              -0.001364375               0.999999986               0.000072393              -0.001378721               0.999999986               0.000068404              -0.001398663               0.999999986               0.000064964              -0.001423369               0.999999986               0.000060774              -0.001451737               0.999999986               0.000054988              -0.001482503               0.999999986               0.000046393              -0.001514773               0.999999986               0.000034598              -0.001547492               0.999999986               0.000019044              -0.001579783               0.999999986              -0.000000749              -0.001611057               0.999999986              -0.000026026              -0.001640517               0.999999986              -0.000057944              -0.001667472               0.999999986              -0.000097609              -0.001691528               0.999999986              -0.000146667              -0.001712535               0.999999986               0.000084930              -0.001357204               0.999999985               0.000057694              -0.001385022               0.999999986               0.000044528              -0.001398227               0.999999986               0.000037847              -0.001411607               0.999999986               0.000034203              -0.001429156               0.999999986               0.000031890              -0.001451458               0.999999986               0.000029958              -0.001478258               0.999999986               0.000027765              -0.001508900               0.999999986               0.000024785              -0.001542533               0.999999986               0.000020415              -0.001578278               0.999999986               0.000014448              -0.001615088               0.999999986               0.000006689              -0.001652133               0.999999986              -0.000003554              -0.001688718               0.999999986              -0.000016730              -0.001724235               0.999999986              -0.000033541              -0.001757848               0.999999986              -0.000054967              -0.001788825               0.999999986              -0.000082190              -0.001816526               0.999999986               0.000000000              -0.001364367               0.999999985              -0.000000000              -0.001396639               0.999999986              -0.000000000              -0.001412721               0.999999986              -0.000000000              -0.001427965               0.999999986              -0.000000000              -0.001446698               0.999999986              -0.000000000              -0.001469948               0.999999986               0.000000000              -0.001497553               0.999999986              -0.000000000              -0.001529000               0.999999986               0.000000000              -0.001563579               0.999999986               0.000000000              -0.001600411               0.999999986               0.000000000              -0.001638544               0.999999986              -0.000000000              -0.001677377               0.999999986              -0.000000000              -0.001715929               0.999999986               0.000000000              -0.001753378               0.999999986              -0.000000000              -0.001789298               0.999999986              -0.000000000              -0.001822898               0.999999986               0.000000000              -0.001853144               0.999999986               0.000910647              -0.000000000               0.999999985               0.000960649               0.000000000               0.999999985               0.000982319              -0.000000000               0.999999985               0.000994945              -0.000000000               0.999999985               0.001005293               0.000000000               0.999999985               0.001015647              -0.000000000               0.999999985               0.001026729               0.000000000               0.999999985               0.001038535               0.000000000               0.999999985               0.001050915               0.000000000               0.999999985               0.001063368               0.000000000               0.999999986               0.001075559              -0.000000000               0.999999986               0.001087115               0.000000000               0.999999986               0.001097729               0.000000000               0.999999986               0.001107189               0.000000000               0.999999986               0.001115049              -0.000000000               0.999999986               0.001120679               0.000000000               0.999999986               0.001123289              -0.000000000               0.999999986               0.000905563               0.000130185               0.999999985               0.000951297               0.000103243               0.999999985               0.000970133               0.000090967               0.999999985               0.000980825               0.000085816               0.999999985               0.000989865               0.000084056               0.999999985               0.000999242               0.000083788               0.999999985               0.001009380               0.000084074               0.999999985               0.001020279               0.000084116               0.999999985               0.001031519               0.000083444               0.999999985               0.001042657               0.000081544               0.999999986               0.001053379               0.000078321               0.999999986               0.001063338               0.000073376               0.999999986               0.001072148               0.000066385               0.999999986               0.001079399               0.000056983               0.999999986               0.001084767               0.000044686               0.999999986               0.001087834               0.000028380               0.999999986               0.001088068               0.000006607               0.999999986               0.000890430               0.000259209               0.999999985               0.000923674               0.000206073               0.999999985               0.000934653               0.000182786               0.999999985               0.000940335               0.000173607               0.999999985               0.000945853               0.000171050               0.999999985               0.000952385               0.000171213               0.999999985               0.000959938               0.000172119               0.999999985               0.000968104               0.000172566               0.999999985               0.000976313               0.000171309               0.999999985               0.000983941               0.000167851               0.999999986               0.000990501               0.000161595               0.999999986               0.000995570               0.000152075               0.999999986               0.000998742               0.000138672               0.999999986               0.000999798               0.000120949               0.999999986               0.000998575               0.000098183               0.999999986               0.000994951               0.000068916               0.999999986               0.000988843               0.000031247               0.999999986               0.000865508               0.000385846               0.999999985               0.000879123               0.000308222               0.999999985               0.000878821               0.000276308               0.999999985               0.000877726               0.000265033               0.999999985               0.000878623               0.000262977               0.999999985               0.000881459               0.000264524               0.999999985               0.000885485               0.000266810               0.999999985               0.000889779               0.000267814               0.999999985               0.000893441               0.000266407               0.999999985               0.000895751               0.000261425               0.999999986               0.000896139               0.000252517               0.999999986               0.000894063               0.000238870               0.999999986               0.000889321               0.000220049               0.999999986               0.000881902               0.000195954               0.999999986               0.000871893               0.000165954               0.999999986               0.000859492               0.000128949               0.999999986               0.000845170               0.000083877               0.999999986               0.000831156               0.000508905               0.999999985               0.000819805               0.000409746               0.999999985               0.000806981               0.000372185               0.999999985               0.000799202               0.000360854               0.999999985               0.000795807               0.000360616               0.999999985               0.000795115               0.000364262               0.999999985               0.000795381               0.000368232               0.999999985               0.000795233               0.000370192               0.999999985               0.000793483               0.000368530               0.999999986               0.000789354               0.000362315               0.999999986               0.000782137               0.000350945               0.999999986               0.000771535               0.000333827               0.999999986               0.000757604               0.000311104               0.999999986               0.000740754               0.000282948               0.999999986               0.000721390               0.000249183               0.999999986               0.000699956               0.000209462               0.999999986               0.000677258               0.000164151               0.999999986               0.000788105               0.000627223               0.999999985               0.000748842               0.000510807               0.999999985               0.000724550               0.000470575               0.999999985               0.000711735               0.000460830               0.999999985               0.000705440               0.000463117               0.999999985               0.000701987               0.000469230               0.999999985               0.000698729               0.000474853               0.999999985               0.000693879               0.000477437               0.999999985               0.000686125               0.000475431               0.999999986               0.000674603               0.000467915               0.999999986               0.000658888               0.000454234               0.999999986               0.000639144               0.000434664               0.999999986               0.000615833               0.000409598               0.999999986               0.000589540               0.000379475               0.999999986               0.000560770               0.000344876               0.999999986               0.000530275               0.000305921               0.999999986               0.000498859               0.000263799               0.999999986               0.000737408               0.000739662               0.999999985               0.000670003               0.000611367               0.999999985               0.000637058               0.000571107               0.999999985               0.000621704               0.000563927               0.999999985               0.000614129               0.000568921               0.999999985               0.000608720               0.000577212               0.999999985               0.000602122               0.000584096               0.999999985               0.000592233               0.000586970               0.999999986               0.000577820               0.000584358               0.999999986               0.000558220               0.000575394               0.999999986               0.000533515               0.000559889               0.999999986               0.000504216               0.000538791               0.999999986               0.000471203               0.000512727               0.999999986               0.000435061               0.000482337               0.999999986               0.000396520               0.000448483               0.999999986               0.000356348               0.000411802               0.999999986               0.000315409               0.000373711               0.999999986               0.000680046               0.000845154               0.999999985               0.000586971               0.000711298               0.999999985               0.000549274               0.000672906               0.999999985               0.000534154               0.000668363               0.999999985               0.000526593               0.000675731               0.999999985               0.000519711               0.000685773               0.999999985               0.000509691               0.000693558               0.999999985               0.000494257               0.000696254               0.999999986               0.000472388               0.000692601               0.999999986               0.000443875               0.000682310               0.999999986               0.000409296               0.000665534               0.999999986               0.000369756               0.000643718               0.999999986               0.000326003               0.000617698               0.999999986               0.000278914               0.000588189               0.999999986               0.000229591               0.000556247               0.999999986               0.000179035               0.000522700               0.999999986               0.000128028               0.000488697               0.999999986               0.000617995               0.000941664               0.999999985               0.000502697               0.000810426               0.999999985               0.000465629               0.000774281               0.999999985               0.000452691               0.000771848               0.999999985               0.000445954               0.000781285               0.999999985               0.000437624               0.000792674               0.999999985               0.000423563               0.000800917               0.999999986               0.000401701               0.000803149               0.999999986               0.000371292               0.000798394               0.999999986               0.000332756               0.000786822               0.999999986               0.000287324               0.000769385               0.999999986               0.000236131               0.000747471               0.999999986               0.000180359               0.000722110               0.999999986               0.000121524               0.000694201               0.999999986               0.000061031               0.000664851               0.999999986              -0.000000038               0.000634964               0.999999986              -0.000061155               0.000605145               0.999999986               0.000553839               0.001033078               0.999999985               0.000431948               0.000921657               0.999999985               0.000392386               0.000882104               0.999999985               0.000378947               0.000875216               0.999999985               0.000373018               0.000882222               0.999999985               0.000366731               0.000893828               0.999999985               0.000356105               0.000904887               0.999999986               0.000338799               0.000912566               0.999999986               0.000313806               0.000915224               0.999999986               0.000280635               0.000912388               0.999999986               0.000240120               0.000904474               0.999999986               0.000193117               0.000892133               0.999999986               0.000140493               0.000876529               0.999999986               0.000083522               0.000858249               0.999999986               0.000023524               0.000838241               0.999999986              -0.000038350               0.000817156               0.999999986              -0.000100722               0.000795946               0.999999986               0.000484041               0.001116464               0.999999985               0.000363862               0.001029315               0.999999985               0.000322050               0.000992755               0.999999985               0.000307181               0.000983782               0.999999985               0.000301084               0.000989293               0.999999985               0.000296085               0.001001262               0.999999985               0.000288052               0.001014903               0.999999986               0.000274640               0.001027395               0.999999986               0.000254478               0.001036867               0.999999986               0.000226747               0.001042367               0.999999986               0.000191648               0.001043556               0.999999986               0.000149720               0.001040709               0.999999986               0.000101231               0.001034332               0.999999986               0.000047063               0.001025217               0.999999986              -0.000011818               0.001014082               0.999999986              -0.000074242               0.001001578               0.999999986              -0.000138614               0.000988463               0.999999986               0.000410023               0.001189653               0.999999985               0.000298374               0.001130178               0.999999985               0.000256135               0.001101263               0.999999985               0.000239779               0.001093436               0.999999985               0.000232941               0.001098818               0.999999985               0.000228360               0.001111718               0.999999985               0.000222094               0.001127978               0.999999986               0.000211794               0.001144992               0.999999986               0.000195859               0.001160834               0.999999986               0.000173302               0.001174222               0.999999986               0.000144040               0.001184344               0.999999986               0.000107976               0.001190955               0.999999986               0.000064759               0.001194175               0.999999986               0.000014533               0.001194450               0.999999986              -0.000041874               0.001192314               0.999999986              -0.000103752               0.001188288               0.999999986              -0.000170110               0.001183087               0.999999986               0.000332362               0.001251334               0.999999985               0.000235469               0.001220054               0.999999985               0.000195628               0.001202006               0.999999985               0.000178764               0.001198238               0.999999985               0.000171135               0.001205360               0.999999985               0.000166546               0.001219876               0.999999986               0.000161316               0.001238949               0.999999986               0.000153371               0.001260134               0.999999986               0.000141220               0.001281829               0.999999986               0.000123649               0.001302476               0.999999986               0.000100347               0.001321164               0.999999986               0.000070872               0.001337223               0.999999986               0.000034201               0.001350276               0.999999986              -0.000010051               0.001360262               0.999999986              -0.000061674               0.001367495               0.999999986              -0.000120740               0.001372505               0.999999986              -0.000187235               0.001375792               0.999999986               0.000251799               0.001300303               0.999999985               0.000174857               0.001294647               0.999999985               0.000140775               0.001288799               0.999999985               0.000125160               0.001291062               0.999999985               0.000117523               0.001301494               0.999999986               0.000112936               0.001318484               0.999999986               0.000108503               0.001340410               0.999999986               0.000102513               0.001365428               0.999999986               0.000093647               0.001392071               0.999999986               0.000080838               0.001419146               0.999999986               0.000063310               0.001445632               0.999999986               0.000040550               0.001470723               0.999999986               0.000011852               0.001493674               0.999999986              -0.000024021               0.001513900               0.999999986              -0.000067715               0.001531211               0.999999986              -0.000119903               0.001545726               0.999999986              -0.000181750               0.001557904               0.999999986               0.000169111               0.001335721               0.999999985               0.000115825               0.001350480               0.999999985               0.000090854               0.001355838               0.999999986               0.000078734               0.001364375               0.999999986               0.000072393               0.001378721               0.999999986               0.000068404               0.001398663               0.999999986               0.000064964               0.001423369               0.999999986               0.000060774               0.001451737               0.999999986               0.000054988               0.001482503               0.999999986               0.000046393               0.001514773               0.999999986               0.000034598               0.001547492               0.999999986               0.000019044               0.001579783               0.999999986              -0.000000749               0.001611057               0.999999986              -0.000026026               0.001640517               0.999999986              -0.000057944               0.001667472               0.999999986              -0.000097609               0.001691528               0.999999986              -0.000146667               0.001712535               0.999999986               0.000084930               0.001357204               0.999999985               0.000057694               0.001385022               0.999999986               0.000044528               0.001398227               0.999999986               0.000037847               0.001411607               0.999999986               0.000034203               0.001429156               0.999999986               0.000031890               0.001451458               0.999999986               0.000029958               0.001478258               0.999999986               0.000027765               0.001508900               0.999999986               0.000024785               0.001542533               0.999999986               0.000020415               0.001578278               0.999999986               0.000014448               0.001615088               0.999999986               0.000006689               0.001652133               0.999999986              -0.000003554               0.001688718               0.999999986              -0.000016730               0.001724235               0.999999986              -0.000033541               0.001757848               0.999999986              -0.000054967               0.001788825               0.999999986              -0.000082190               0.001816526               0.999999986               0.000000000               0.001364367               0.999999985               0.000000000               0.001396639               0.999999986              -0.000000000               0.001412721               0.999999986              -0.000000000               0.001427965               0.999999986               0.000000000               0.001446698               0.999999986               0.000000000               0.001469948               0.999999986              -0.000000000               0.001497553               0.999999986               0.000000000               0.001529000               0.999999986              -0.000000000               0.001563579               0.999999986              -0.000000000               0.001600411               0.999999986               0.000000000               0.001638544               0.999999986               0.000000000               0.001677377               0.999999986               0.000000000               0.001715929               0.999999986              -0.000000000               0.001753378               0.999999986              -0.000000000               0.001789298               0.999999986              -0.000000000               0.001822898               0.999999986               0.000000000               0.001853144               0.999999986 </DataArray>
<DataArray type="Float64"                                    Name="stress"                                                      NumberOfComponents="10" format="ascii">
              0.002182262               0.023612246               0.000000000              -0.002133177               0.008581729               0.006448552               0.000000000               0.000000000               0.000000000               0.000000000               0.002049705               0.018100800               0.000000000              -0.001493957               0.006531525               0.005037568               0.000000000               0.000000000               0.000000000               0.000000000               0.002596506               0.013625405               0.000000000              -0.000729484               0.004784918               0.004055434               0.000000000               0.000000000               0.000000000               0.000000000               0.002358843               0.011097010              -0.000000000              -0.000502559               0.003866486               0.003363927               0.000000000               0.000000000               0.000000000               0.000000000               0.001931838               0.009485879               0.000000000              -0.000461295               0.003315693               0.002854398               0.000000000               0.000000000               0.000000000               0.000000000               0.001504417               0.008346296               0.000000000              -0.000479130               0.002941781               0.002462651               0.000000000               0.000000000               0.000000000               0.000000000               0.001128869               0.007467181               0.000000000              -0.000510071               0.002659059               0.002148988               0.000000000               0.000000000               0.000000000               0.000000000               0.000813689               0.006727623               0.000000000              -0.000535818               0.002421125               0.001885307               0.000000000               0.000000000               0.000000000               0.000000000               0.000564724               0.006062885              -0.000000000              -0.000546088               0.002202971               0.001656883               0.000000000               0.000000000               0.000000000               0.000000000               0.000372128               0.005429286              -0.000000000              -0.000539112               0.001989448               0.001450336               0.000000000               0.000000000               0.000000000               0.000000000               0.000222903               0.004806919              -0.000000000              -0.000517275               0.001774715               0.001257440               0.000000000               0.000000000               0.000000000               0.000000000               0.000110532               0.004175210              -0.000000000              -0.000480450               0.001551873               0.001071422               0.000000000               0.000000000               0.000000000               0.000000000               0.000024031               0.003516228               0.000000000              -0.000430516               0.001315569               0.000885054               0.000000000               0.000000000               0.000000000               0.000000000              -0.000036656               0.002817331               0.000000000              -0.000365912               0.001061071               0.000695160               0.000000000               0.000000000               0.000000000               0.000000000              -0.000059999               0.002063406               0.000000000              -0.000280425               0.000781270               0.000500845               0.000000000               0.000000000               0.000000000               0.000000000              -0.000039821               0.001219224               0.000000000              -0.000167335               0.000462182               0.000294847               0.000000000               0.000000000               0.000000000               0.000000000              -0.000087617               0.000572086               0.000000000              -0.000104367               0.000225482               0.000121115               0.000000000               0.000000000               0.000000000               0.000000000               0.002245101               0.023102583              -0.001546686              -0.002045905               0.008382752               0.006336847               0.000000000               0.000000000               0.000000000               0.000000000               0.001984536               0.017776199              -0.000677663              -0.001477820               0.006417947               0.004940127               0.000000000               0.000000000               0.000000000               0.000000000               0.002395606               0.013495805               0.000179808              -0.000788621               0.004761431               0.003972809               0.000000000               0.000000000               0.000000000               0.000000000               0.002104559               0.011070235               0.000528267              -0.000594569               0.003888231               0.003293662               0.000000000               0.000000000               0.000000000               0.000000000               0.001664746               0.009516418               0.000657318              -0.000565271               0.003360531               0.002795260               0.000000000               0.000000000               0.000000000               0.000000000               0.001247981               0.008407712               0.000692552              -0.000582970               0.002996866               0.002413896               0.000000000               0.000000000               0.000000000               0.000000000               0.000891364               0.007541066               0.000685699              -0.000608371               0.002716454               0.002108083               0.000000000               0.000000000               0.000000000               0.000000000               0.000603059               0.006810134               0.000657015              -0.000625118               0.002478395               0.001853276               0.000000000               0.000000000               0.000000000               0.000000000               0.000384055               0.006149294               0.000618680              -0.000624640               0.002257957               0.001633318               0.000000000               0.000000000               0.000000000               0.000000000               0.000219274               0.005522813               0.000578994              -0.000608123               0.002043627               0.001435504               0.000000000               0.000000000               0.000000000               0.000000000               0.000094004               0.004905723               0.000539385              -0.000577963               0.001827879               0.001249916               0.000000000               0.000000000               0.000000000               0.000000000               0.000005744               0.004283487               0.000495707              -0.000533281               0.001605575               0.001072294               0.000000000               0.000000000               0.000000000               0.000000000              -0.000050389               0.003642963               0.000448034              -0.000474265               0.001372397               0.000898132               0.000000000               0.000000000               0.000000000               0.000000000              -0.000079913               0.002974614               0.000392112              -0.000401793               0.001125459               0.000723666               0.000000000               0.000000000               0.000000000               0.000000000              -0.000082079               0.002265934               0.000310189              -0.000314021               0.000859977               0.000545956               0.000000000               0.000000000               0.000000000               0.000000000              -0.000051756               0.001495017               0.000180190              -0.000206285               0.000567096               0.000360810               0.000000000               0.000000000               0.000000000               0.000000000              -0.000088724               0.000919721               0.000112361              -0.000148236               0.000355983               0.000207746               0.000000000               0.000000000               0.000000000               0.000000000               0.002386515               0.021639015              -0.002854347              -0.001809930               0.007816243               0.006006312               0.000000000               0.000000000               0.000000000               0.000000000               0.001771495               0.016854055              -0.001242374              -0.001442443               0.006098776               0.004656334               0.000000000               0.000000000               0.000000000               0.000000000               0.001807256               0.013133750               0.000329389              -0.000963995               0.004699205               0.003735209               0.000000000               0.000000000               0.000000000               0.000000000               0.001388452               0.010993641               0.000943313              -0.000853534               0.003949022               0.003095488               0.000000000               0.000000000               0.000000000               0.000000000               0.000936682               0.009588238               0.001160668              -0.000847272               0.003478471               0.002631199               0.000000000               0.000000000               0.000000000               0.000000000               0.000558387               0.008558193               0.001210521              -0.000860377               0.003139495               0.002279117               0.000000000               0.000000000               0.000000000               0.000000000               0.000264084               0.007730790               0.001189390              -0.000867315               0.002866009               0.001998694               0.000000000               0.000000000               0.000000000               0.000000000               0.000048287               0.007015528               0.001133156              -0.000858831               0.002624763               0.001765931               0.000000000               0.000000000               0.000000000               0.000000000              -0.000094653               0.006366441               0.001061162              -0.000831298               0.002399225               0.001567927               0.000000000               0.000000000               0.000000000               0.000000000              -0.000180835               0.005751987               0.000987124              -0.000786810               0.002179580               0.001392770               0.000000000               0.000000000               0.000000000               0.000000000              -0.000224504               0.005154471               0.000911892              -0.000728496               0.001960972               0.001232475               0.000000000               0.000000000               0.000000000               0.000000000              -0.000233608               0.004561714               0.000832265              -0.000657816               0.001739828               0.001082012               0.000000000               0.000000000               0.000000000               0.000000000              -0.000218047               0.003969775               0.000746332              -0.000577988               0.001515908               0.000937919               0.000000000               0.000000000               0.000000000               0.000000000              -0.000185460               0.003381146               0.000644685              -0.000492190               0.001291100               0.000798911               0.000000000               0.000000000               0.000000000               0.000000000              -0.000138054               0.002794495               0.000500969              -0.000401081               0.001065183               0.000664101               0.000000000               0.000000000               0.000000000               0.000000000              -0.000075644               0.002212294               0.000287106              -0.000304902               0.000839058               0.000534155               0.000000000               0.000000000               0.000000000               0.000000000              -0.000080534               0.001814959               0.000174233              -0.000257070               0.000690670               0.000433601               0.000000000               0.000000000               0.000000000               0.000000000               0.002478222               0.019413123              -0.003738142              -0.001497305               0.006970077               0.005472772               0.000000000               0.000000000               0.000000000               0.000000000               0.001373699               0.015481041              -0.001617745              -0.001419990               0.005633625               0.004213635               0.000000000               0.000000000               0.000000000               0.000000000               0.000897110               0.012605380               0.000416476              -0.001239253               0.004614836               0.003375582               0.000000000               0.000000000               0.000000000               0.000000000               0.000345669               0.010865974               0.001161841              -0.001228618               0.004031494               0.002802876               0.000000000               0.000000000               0.000000000               0.000000000              -0.000083328               0.009653623               0.001403050              -0.001237948               0.003630492               0.002392543               0.000000000               0.000000000               0.000000000               0.000000000              -0.000377991               0.008718630               0.001441843              -0.001231573               0.003316705               0.002085132               0.000000000               0.000000000               0.000000000               0.000000000              -0.000562588               0.007939516               0.001397264              -0.001203407               0.003047614               0.001844207               0.000000000               0.000000000               0.000000000               0.000000000              -0.000658857               0.007248719               0.001316957              -0.001153159               0.002800602               0.001647443               0.000000000               0.000000000               0.000000000               0.000000000              -0.000685659               0.006614491               0.001221475              -0.001083931               0.002566118               0.001482187               0.000000000               0.000000000               0.000000000               0.000000000              -0.000660735               0.006016273               0.001123723              -0.000999808               0.002338673               0.001338866               0.000000000               0.000000000               0.000000000               0.000000000              -0.000594146               0.005445888               0.001024991              -0.000903539               0.002116457               0.001212919               0.000000000               0.000000000               0.000000000               0.000000000              -0.000502472               0.004897423               0.000920038              -0.000800603               0.001899326               0.001098722               0.000000000               0.000000000               0.000000000               0.000000000              -0.000402562               0.004379944               0.000811300              -0.000698452               0.001692784               0.000994332               0.000000000               0.000000000               0.000000000               0.000000000              -0.000299737               0.003902711               0.000685003              -0.000600239               0.001500970               0.000900731               0.000000000               0.000000000               0.000000000               0.000000000              -0.000194056               0.003474827               0.000514285              -0.000507123               0.001327305               0.000820182               0.000000000               0.000000000               0.000000000               0.000000000              -0.000093901               0.003114176               0.000282908              -0.000424484               0.001179543               0.000755059               0.000000000               0.000000000               0.000000000               0.000000000              -0.000062852               0.002911566               0.000159526              -0.000387514               0.001099684               0.000712170               0.000000000               0.000000000               0.000000000               0.000000000               0.002371478               0.016701197              -0.004116218              -0.001198345               0.005966458               0.004768113               0.000000000               0.000000000               0.000000000               0.000000000               0.000769950               0.013848370              -0.001792988              -0.001442312               0.005096848               0.003654535               0.000000000               0.000000000               0.000000000               0.000000000              -0.000227623               0.011974115               0.000395595              -0.001582119               0.004518705               0.002936585               0.000000000               0.000000000               0.000000000               0.000000000              -0.000845713               0.010667460               0.001134492              -0.001650571               0.004105975               0.002455404               0.000000000               0.000000000               0.000000000               0.000000000              -0.001181526               0.009650663               0.001345787              -0.001649401               0.003766656               0.002117254               0.000000000               0.000000000               0.000000000               0.000000000              -0.001332565               0.008807608               0.001359929              -0.001600659               0.003469393               0.001868734               0.000000000               0.000000000               0.000000000               0.000000000              -0.001363942               0.008068944               0.001300031              -0.001520093               0.003196319               0.001676226               0.000000000               0.000000000               0.000000000               0.000000000              -0.001311492               0.007399748               0.001208460              -0.001416775               0.002938816               0.001522041               0.000000000               0.000000000               0.000000000               0.000000000              -0.001200694               0.006780922               0.001105766              -0.001297873               0.002692909               0.001395036               0.000000000               0.000000000               0.000000000               0.000000000              -0.001047713               0.006207761               0.001001720              -0.001168860               0.002458853               0.001289993               0.000000000               0.000000000               0.000000000               0.000000000              -0.000869308               0.005671958               0.000896113              -0.001034983               0.002235628               0.001200645               0.000000000               0.000000000               0.000000000               0.000000000              -0.000683950               0.005187149               0.000786763              -0.000904873               0.002030657               0.001125784               0.000000000               0.000000000               0.000000000               0.000000000              -0.000511092               0.004761246               0.000675066              -0.000786813               0.001849337               0.001062524               0.000000000               0.000000000               0.000000000               0.000000000              -0.000356819               0.004398629               0.000548999              -0.000683634               0.001694073               0.001010439               0.000000000               0.000000000               0.000000000               0.000000000              -0.000215624               0.004115695               0.000389956              -0.000595320               0.001570325               0.000975005               0.000000000               0.000000000               0.000000000               0.000000000              -0.000099897               0.003927230               0.000199799              -0.000528364               0.001485185               0.000956821               0.000000000               0.000000000               0.000000000               0.000000000              -0.000052354               0.003854948               0.000101094              -0.000501500               0.001452137               0.000950637               0.000000000               0.000000000               0.000000000               0.000000000               0.001956343               0.013792330              -0.004014465              -0.000990413               0.004927534               0.003937121               0.000000000               0.000000000               0.000000000               0.000000000              -0.000021011               0.012130718              -0.001811038              -0.001524216               0.004551604               0.003027388               0.000000000               0.000000000               0.000000000               0.000000000              -0.001425051               0.011288426               0.000232715              -0.001945443               0.004411252               0.002465809               0.000000000               0.000000000               0.000000000               0.000000000              -0.001999881               0.010384527               0.000866775              -0.002048016               0.004144146               0.002096130               0.000000000               0.000000000               0.000000000               0.000000000              -0.002166957               0.009536717               0.001030727              -0.002004694               0.003847105               0.001842411               0.000000000               0.000000000               0.000000000               0.000000000              -0.002126746               0.008769683               0.001031160              -0.001893735               0.003554444               0.001660708               0.000000000               0.000000000               0.000000000               0.000000000              -0.001977668               0.008064970               0.000972941              -0.001749743               0.003271544               0.001521801               0.000000000               0.000000000               0.000000000               0.000000000              -0.001766400               0.007414707               0.000893211              -0.001589234               0.003001289               0.001412055               0.000000000               0.000000000               0.000000000               0.000000000              -0.001513885               0.006820028               0.000805415              -0.001420207               0.002746722               0.001326515               0.000000000               0.000000000               0.000000000               0.000000000              -0.001242725               0.006276257               0.000713010              -0.001250551               0.002508915               0.001258364               0.000000000               0.000000000               0.000000000               0.000000000              -0.000975635               0.005788681               0.000620515              -0.001089445               0.002292689               0.001203244               0.000000000               0.000000000               0.000000000               0.000000000              -0.000730783               0.005376077               0.000528506              -0.000946051               0.002107358               0.001161307               0.000000000               0.000000000               0.000000000               0.000000000              -0.000516478               0.005038084               0.000431924              -0.000823438               0.001953824               0.001130386               0.000000000               0.000000000               0.000000000               0.000000000              -0.000332349               0.004774108               0.000331072              -0.000721392               0.001831817               0.001110425               0.000000000               0.000000000               0.000000000               0.000000000              -0.000181611               0.004590688               0.000216060              -0.000641939               0.001744193               0.001102255               0.000000000               0.000000000               0.000000000               0.000000000              -0.000077042               0.004491843               0.000096484              -0.000590370               0.001694056               0.001103686               0.000000000               0.000000000               0.000000000               0.000000000              -0.000036565               0.004468858               0.000040050              -0.000572318               0.001680377               0.001108059               0.000000000               0.000000000               0.000000000               0.000000000               0.001169604               0.010941004              -0.003524880              -0.000929025               0.003956639               0.003027614               0.000000000               0.000000000               0.000000000               0.000000000              -0.000953215               0.010471517              -0.001728319              -0.001666392               0.004045934               0.002379542               0.000000000               0.000000000               0.000000000               0.000000000              -0.002559758               0.010577657              -0.000069309              -0.002282111               0.004286554               0.002004443               0.000000000               0.000000000               0.000000000               0.000000000              -0.002969427               0.010006116               0.000417674              -0.002364294               0.004123437               0.001759143               0.000000000               0.000000000               0.000000000               0.000000000              -0.002913689               0.009295352               0.000549152              -0.002254547               0.003849935               0.001595389               0.000000000               0.000000000               0.000000000               0.000000000              -0.002664185               0.008593080               0.000561419              -0.002073199               0.003555398               0.001482198               0.000000000               0.000000000               0.000000000               0.000000000              -0.002329591               0.007928503               0.000528703              -0.001864655               0.003264360               0.001399705               0.000000000               0.000000000               0.000000000               0.000000000              -0.001964616               0.007307141               0.000481883              -0.001650120               0.002985729               0.001335610               0.000000000               0.000000000               0.000000000               0.000000000              -0.001592637               0.006739644               0.000428020              -0.001439691               0.002726422               0.001286731               0.000000000               0.000000000               0.000000000               0.000000000              -0.001235649               0.006236301               0.000365470              -0.001242903               0.002493047               0.001250144               0.000000000               0.000000000               0.000000000               0.000000000              -0.000916228               0.005808209               0.000305781              -0.001069609               0.002292587               0.001222978               0.000000000               0.000000000               0.000000000               0.000000000              -0.000646166               0.005464279               0.000250249              -0.000925345               0.002129856               0.001204511               0.000000000               0.000000000               0.000000000               0.000000000              -0.000424312               0.005198946               0.000191086              -0.000808983               0.002002626               0.001193642               0.000000000               0.000000000               0.000000000               0.000000000              -0.000246918               0.005005161               0.000133303              -0.000718238               0.001907783               0.001189545               0.000000000               0.000000000               0.000000000               0.000000000              -0.000118434               0.004877676               0.000074003              -0.000654121               0.001843916               0.001189795               0.000000000               0.000000000               0.000000000               0.000000000              -0.000043430               0.004813407               0.000023618              -0.000617961               0.001810440               0.001192479               0.000000000               0.000000000               0.000000000               0.000000000              -0.000022410               0.004797019               0.000005602              -0.000608030               0.001801667               0.001193637               0.000000000               0.000000000               0.000000000               0.000000000               0.000050777               0.008323855              -0.002761825              -0.001021440               0.003115070               0.002093630               0.000000000               0.000000000               0.000000000               0.000000000              -0.001969600               0.008965791              -0.001596409              -0.001859320               0.003608340               0.001749020               0.000000000               0.000000000               0.000000000               0.000000000              -0.003521595               0.009834303              -0.000487355              -0.002549880               0.004128028               0.001578148               0.000000000               0.000000000               0.000000000               0.000000000              -0.003662335               0.009516373              -0.000131589              -0.002562916               0.004026398               0.001463482               0.000000000               0.000000000               0.000000000               0.000000000              -0.003359162               0.008932143               0.000000611              -0.002376198               0.003769417               0.001393219               0.000000000               0.000000000               0.000000000               0.000000000              -0.002910282               0.008301817               0.000050935              -0.002129077               0.003476937               0.001347860               0.000000000               0.000000000               0.000000000               0.000000000              -0.002413805               0.007684997               0.000064442              -0.001865797               0.003183572               0.001317776               0.000000000               0.000000000               0.000000000               0.000000000              -0.001920054               0.007102035               0.000063718              -0.001607771               0.002903245               0.001295474               0.000000000               0.000000000               0.000000000               0.000000000              -0.001459875               0.006573231               0.000058500              -0.001369103               0.002647423               0.001278319               0.000000000               0.000000000               0.000000000               0.000000000              -0.001054041               0.006118594               0.000044527              -0.001160087               0.002426207               0.001266120               0.000000000               0.000000000               0.000000000               0.000000000              -0.000720965               0.005750430               0.000032011              -0.000989163               0.002246512               0.001257349               0.000000000               0.000000000               0.000000000               0.000000000              -0.000457627               0.005464784               0.000027110              -0.000854706               0.002106478               0.001251772               0.000000000               0.000000000               0.000000000               0.000000000              -0.000255621               0.005252054               0.000018538              -0.000752363               0.002001455               0.001249092               0.000000000               0.000000000               0.000000000               0.000000000              -0.000117985               0.005101383               0.000007961              -0.000681916               0.001927749               0.001245834               0.000000000               0.000000000               0.000000000               0.000000000              -0.000041801               0.005004781              -0.000003467              -0.000641271               0.001882001               0.001240729               0.000000000               0.000000000               0.000000000               0.000000000              -0.000013128               0.004955561              -0.000009560              -0.000624366               0.001859959               0.001235593               0.000000000               0.000000000               0.000000000               0.000000000              -0.000012750               0.004938642              -0.000007143              -0.000622110               0.001853567               0.001231457               0.000000000               0.000000000               0.000000000               0.000000000              -0.001255462               0.006130326              -0.001848960              -0.001237087               0.002455783               0.001218696               0.000000000               0.000000000               0.000000000               0.000000000              -0.002957268               0.007619013              -0.001455060              -0.002061348               0.003226761               0.001165414               0.000000000               0.000000000               0.000000000               0.000000000              -0.004270241               0.009072324              -0.000982040              -0.002735374               0.003935869               0.001200495               0.000000000               0.000000000               0.000000000               0.000000000              -0.004130612               0.009025092              -0.000707465              -0.002677110               0.003900704               0.001223594               0.000000000               0.000000000               0.000000000               0.000000000              -0.003623599               0.008599083              -0.000546008              -0.002433729               0.003677575               0.001243846               0.000000000               0.000000000               0.000000000               0.000000000              -0.003020337               0.008063859              -0.000442318              -0.002140603               0.003401461               0.001260857               0.000000000               0.000000000               0.000000000               0.000000000              -0.002404535               0.007506792              -0.000370690              -0.001840045               0.003115587               0.001275542               0.000000000               0.000000000               0.000000000               0.000000000              -0.001816606               0.006974170              -0.000318189              -0.001552995               0.002842365               0.001289370               0.000000000               0.000000000               0.000000000               0.000000000              -0.001288411               0.006492016              -0.000272906              -0.001294653               0.002595535               0.001300882               0.000000000               0.000000000               0.000000000               0.000000000              -0.000850382               0.006078100              -0.000232346              -0.001078653               0.002385564               0.001306911               0.000000000               0.000000000               0.000000000               0.000000000              -0.000504107               0.005750146              -0.000192846              -0.000907806               0.002219298               0.001311492               0.000000000               0.000000000               0.000000000               0.000000000              -0.000246757               0.005494094              -0.000146102              -0.000779294               0.002091111               0.001311817               0.000000000               0.000000000               0.000000000               0.000000000              -0.000076968               0.005295486              -0.000103871              -0.000690797               0.001995410               0.001304613               0.000000000               0.000000000               0.000000000               0.000000000               0.000011171               0.005149377              -0.000070783              -0.000639481               0.001929602               0.001290121               0.000000000               0.000000000               0.000000000               0.000000000               0.000033789               0.005054293              -0.000044185              -0.000619114               0.001891119               0.001272005               0.000000000               0.000000000               0.000000000               0.000000000               0.000014742               0.005002397              -0.000021779              -0.000619770               0.001874039               0.001254269               0.000000000               0.000000000               0.000000000               0.000000000              -0.000005969               0.004983191              -0.000009140              -0.000625136               0.001869426               0.001244290               0.000000000               0.000000000               0.000000000               0.000000000              -0.002762166               0.004114535              -0.000902137              -0.001550125               0.001888206               0.000338080               0.000000000               0.000000000               0.000000000               0.000000000              -0.003793754               0.006054188              -0.001300972              -0.002179426               0.002744518               0.000565091               0.000000000               0.000000000               0.000000000               0.000000000              -0.004722192               0.007929163              -0.001493837              -0.002761961               0.003563681               0.000801721               0.000000000               0.000000000               0.000000000               0.000000000              -0.004430519               0.008290552              -0.001307161              -0.002697757               0.003662742               0.000964985               0.000000000               0.000000000               0.000000000               0.000000000              -0.003845727               0.008148151              -0.001113257              -0.002460661               0.003536243               0.001075583               0.000000000               0.000000000               0.000000000               0.000000000              -0.003195690               0.007815980              -0.000955532              -0.002175376               0.003330426               0.001155050               0.000000000               0.000000000               0.000000000               0.000000000              -0.002546742               0.007414333              -0.000826830              -0.001881815               0.003098691               0.001216876               0.000000000               0.000000000               0.000000000               0.000000000              -0.001929963               0.006999541              -0.000720301              -0.001598675               0.002866049               0.001267374               0.000000000               0.000000000               0.000000000               0.000000000              -0.001370587               0.006598318              -0.000623547              -0.001338757               0.002645669               0.001306913               0.000000000               0.000000000               0.000000000               0.000000000              -0.000893003               0.006236609              -0.000532846              -0.001114450               0.002450332               0.001335882               0.000000000               0.000000000               0.000000000               0.000000000              -0.000509796               0.005922798              -0.000446993              -0.000931521               0.002284753               0.001353232               0.000000000               0.000000000               0.000000000               0.000000000              -0.000216360               0.005664227              -0.000354939              -0.000789161               0.002151111               0.001361949               0.000000000               0.000000000               0.000000000               0.000000000              -0.000018404               0.005447885              -0.000260865              -0.000687886               0.002045239               0.001357353               0.000000000               0.000000000               0.000000000               0.000000000               0.000086477               0.005270136              -0.000175204              -0.000626337               0.001965473               0.001339137               0.000000000               0.000000000               0.000000000               0.000000000               0.000109628               0.005133236              -0.000098417              -0.000600542               0.001911242               0.001310700               0.000000000               0.000000000               0.000000000               0.000000000               0.000073047               0.005041478              -0.000037765              -0.000602791               0.001881406               0.001278615               0.000000000               0.000000000               0.000000000               0.000000000               0.000031474               0.005001479              -0.000008023              -0.000613380               0.001871603               0.001258223               0.000000000               0.000000000               0.000000000               0.000000000              -0.004666184               0.002299260               0.000005168              -0.002037223               0.001445485              -0.000591738               0.000000000               0.000000000               0.000000000               0.000000000              -0.004744446               0.004478232              -0.001085859              -0.002338941               0.002272375              -0.000066566               0.000000000               0.000000000               0.000000000               0.000000000              -0.005100064               0.006575544              -0.001901935              -0.002734461               0.003103312               0.000368852               0.000000000               0.000000000               0.000000000               0.000000000              -0.004667158               0.007315481              -0.001871333              -0.002664613               0.003326673               0.000662060               0.000000000               0.000000000               0.000000000               0.000000000              -0.004039838               0.007490873              -0.001680157              -0.002451292               0.003314030               0.000862737               0.000000000               0.000000000               0.000000000               0.000000000              -0.003375717               0.007407748              -0.001485332              -0.002191857               0.003199844               0.001007986               0.000000000               0.000000000               0.000000000               0.000000000              -0.002719458               0.007207482              -0.001310727              -0.001920728               0.003042712               0.001121985               0.000000000               0.000000000               0.000000000               0.000000000              -0.002091300               0.006951797              -0.001157411              -0.001653208               0.002868312               0.001215103               0.000000000               0.000000000               0.000000000               0.000000000              -0.001510875               0.006668805              -0.001016276              -0.001400176               0.002689638               0.001289462               0.000000000               0.000000000               0.000000000               0.000000000              -0.000991138               0.006381878              -0.000887186              -0.001169409               0.002517074               0.001347665               0.000000000               0.000000000               0.000000000               0.000000000              -0.000546569               0.006104784              -0.000768299              -0.000968059               0.002357594               0.001389535               0.000000000               0.000000000               0.000000000               0.000000000              -0.000184723               0.005851635              -0.000641894              -0.000800724               0.002217434               0.001416710               0.000000000               0.000000000               0.000000000               0.000000000               0.000080437               0.005623543              -0.000502159              -0.000672777               0.002098755               0.001425977               0.000000000               0.000000000               0.000000000               0.000000000               0.000241834               0.005424398              -0.000360043              -0.000587361               0.002003901               0.001416541               0.000000000               0.000000000               0.000000000               0.000000000               0.000303501               0.005249570              -0.000221508              -0.000542382               0.001930633               0.001388251               0.000000000               0.000000000               0.000000000               0.000000000               0.000276157               0.005106323              -0.000098779              -0.000534730               0.001880334               0.001345604               0.000000000               0.000000000               0.000000000               0.000000000               0.000218456               0.005029816              -0.000034903              -0.000546805               0.001858857               0.001312052               0.000000000               0.000000000               0.000000000               0.000000000              -0.006836463               0.000836750               0.000788043              -0.002668264               0.001168330              -0.001499934               0.000000000               0.000000000               0.000000000               0.000000000              -0.005844641               0.003002245              -0.000799716              -0.002567016               0.001856408              -0.000710609               0.000000000               0.000000000               0.000000000               0.000000000              -0.005421751               0.005031541              -0.002101953              -0.002662094               0.002564527              -0.000097567               0.000000000               0.000000000               0.000000000               0.000000000              -0.004758844               0.006025651              -0.002268339              -0.002537767               0.002854452               0.000316685               0.000000000               0.000000000               0.000000000               0.000000000              -0.004065426               0.006493883              -0.002131223              -0.002336265               0.002943360               0.000607095               0.000000000               0.000000000               0.000000000               0.000000000              -0.003389860               0.006676134              -0.001931484              -0.002105710               0.002927258               0.000821549               0.000000000               0.000000000               0.000000000               0.000000000              -0.002739392               0.006701063              -0.001734254              -0.001864901               0.002855298               0.000990398               0.000000000               0.000000000               0.000000000               0.000000000              -0.002114282               0.006633963              -0.001552167              -0.001622098               0.002751998               0.001129900               0.000000000               0.000000000               0.000000000               0.000000000              -0.001521786               0.006503543              -0.001383622              -0.001383610               0.002629029               0.001245419               0.000000000               0.000000000               0.000000000               0.000000000              -0.000974841               0.006326281              -0.001231702              -0.001156348               0.002494188               0.001337840               0.000000000               0.000000000               0.000000000               0.000000000              -0.000481250               0.006125219              -0.001093557              -0.000946119               0.002357092               0.001410973               0.000000000               0.000000000               0.000000000               0.000000000              -0.000053510               0.005916341              -0.000943221              -0.000759607               0.002225296               0.001465689               0.000000000               0.000000000               0.000000000               0.000000000               0.000289565               0.005709844              -0.000769063              -0.000605142               0.002104976               0.001499834               0.000000000               0.000000000               0.000000000               0.000000000               0.000532953               0.005511513              -0.000582699              -0.000489081               0.002000179               0.001511099               0.000000000               0.000000000               0.000000000               0.000000000               0.000671981               0.005322589              -0.000390298              -0.000413330               0.001911955               0.001498625               0.000000000               0.000000000               0.000000000               0.000000000               0.000699032               0.005149566              -0.000193662              -0.000381558               0.001843691               0.001462133               0.000000000               0.000000000               0.000000000               0.000000000               0.000660533               0.005055674              -0.000088668              -0.000384258               0.001813294               0.001429035               0.000000000               0.000000000               0.000000000               0.000000000              -0.009118623              -0.000198159               0.001327101              -0.003394711               0.001065510              -0.002329201               0.000000000               0.000000000               0.000000000               0.000000000              -0.007023577               0.001698089              -0.000490997              -0.002846099               0.001514719              -0.001331380               0.000000000               0.000000000               0.000000000               0.000000000              -0.005702493               0.003426649              -0.002063377              -0.002566761               0.001997789              -0.000568972               0.000000000               0.000000000               0.000000000               0.000000000              -0.004725839               0.004539019              -0.002403409              -0.002339562               0.002292844              -0.000046718               0.000000000               0.000000000               0.000000000               0.000000000              -0.003928796               0.005232006              -0.002352548              -0.002127295               0.002453082               0.000325787               0.000000000               0.000000000               0.000000000               0.000000000              -0.003229369               0.005658698              -0.002183330              -0.001918347               0.002525662               0.000607315               0.000000000               0.000000000               0.000000000               0.000000000              -0.002585060               0.005908885              -0.001991282              -0.001708005               0.002538943               0.000830938               0.000000000               0.000000000               0.000000000               0.000000000              -0.001972298               0.006037731              -0.001806373              -0.001494325               0.002510665               0.001016340               0.000000000               0.000000000               0.000000000               0.000000000              -0.001381397               0.006076125              -0.001631233              -0.001277537               0.002451200               0.001173663               0.000000000               0.000000000               0.000000000               0.000000000              -0.000819056               0.006041312              -0.001472624              -0.001062308               0.002367853               0.001305545               0.000000000               0.000000000               0.000000000               0.000000000              -0.000296947               0.005955736              -0.001328250              -0.000855821               0.002270499               0.001414678               0.000000000               0.000000000               0.000000000               0.000000000               0.000180287               0.005830049              -0.001172017              -0.000661147               0.002163712               0.001502565               0.000000000               0.000000000               0.000000000               0.000000000               0.000606652               0.005675694              -0.000988416              -0.000481967               0.002052534               0.001570568               0.000000000               0.000000000               0.000000000               0.000000000               0.000960616               0.005505701              -0.000783612              -0.000327981               0.001944542               0.001616561               0.000000000               0.000000000               0.000000000               0.000000000               0.001223270               0.005334977              -0.000555004              -0.000208146               0.001847690               0.001639544               0.000000000               0.000000000               0.000000000               0.000000000               0.001376262               0.005169286              -0.000292467              -0.000130062               0.001766432               0.001636370               0.000000000               0.000000000               0.000000000               0.000000000               0.001421017               0.005086201              -0.000152795              -0.000102894               0.001729681               0.001626787               0.000000000               0.000000000               0.000000000               0.000000000              -0.011287122              -0.000827296               0.001514860              -0.004129256               0.001100645              -0.003028611               0.000000000               0.000000000               0.000000000               0.000000000              -0.008181338               0.000645629              -0.000223082              -0.003148702               0.001264768              -0.001883934               0.000000000               0.000000000               0.000000000               0.000000000              -0.005958568               0.001933378              -0.001785055              -0.002476132               0.001469826              -0.001006306               0.000000000               0.000000000               0.000000000               0.000000000              -0.004619494               0.003037336              -0.002215454              -0.002111974               0.001716424              -0.000395550               0.000000000               0.000000000               0.000000000               0.000000000              -0.003680887               0.003867576              -0.002244922              -0.001863776               0.001910436               0.000046661               0.000000000               0.000000000               0.000000000               0.000000000              -0.002938996               0.004483043              -0.002131780              -0.001662501               0.002048499               0.000385998               0.000000000               0.000000000               0.000000000               0.000000000              -0.002289784               0.004932066              -0.001976047              -0.001475174               0.002135730               0.000660555               0.000000000               0.000000000               0.000000000               0.000000000              -0.001689382               0.005244169              -0.001816853              -0.001289037               0.002177717               0.000888680               0.000000000               0.000000000               0.000000000               0.000000000              -0.001111262               0.005452964              -0.001659653              -0.001098342               0.002183750               0.001085408               0.000000000               0.000000000               0.000000000               0.000000000              -0.000552615               0.005577142              -0.001510772              -0.000904372               0.002160486               0.001256114               0.000000000               0.000000000               0.000000000               0.000000000              -0.000016561               0.005627747              -0.001371382              -0.000709678               0.002112456               0.001402778               0.000000000               0.000000000               0.000000000               0.000000000               0.000499013               0.005614990              -0.001229877              -0.000514743               0.002043225               0.001528482               0.000000000               0.000000000               0.000000000               0.000000000               0.001001716               0.005547407              -0.001066311              -0.000317782               0.001955045               0.001637262               0.000000000               0.000000000               0.000000000               0.000000000               0.001474999               0.005435822              -0.000870976              -0.000126353               0.001854040               0.001727687               0.000000000               0.000000000               0.000000000               0.000000000               0.001896938               0.005298678              -0.000639212               0.000049016               0.001749870               0.001798886               0.000000000               0.000000000               0.000000000               0.000000000               0.002253041               0.005155398              -0.000350726               0.000200464               0.001651628               0.001852091               0.000000000               0.000000000               0.000000000               0.000000000               0.002461943               0.005103984              -0.000199503               0.000285228               0.001606235               0.001891463               0.000000000               0.000000000               0.000000000               0.000000000              -0.013094360              -0.001129765               0.001306935              -0.004769161               0.001213123              -0.003556038               0.000000000               0.000000000               0.000000000               0.000000000              -0.009181893              -0.000100518              -0.000051392              -0.003430642               0.001110034              -0.002320609               0.000000000               0.000000000               0.000000000               0.000000000              -0.006187508               0.000724397              -0.001306774              -0.002410863               0.001045079              -0.001365783               0.000000000               0.000000000               0.000000000               0.000000000              -0.004504229               0.001738393              -0.001703422              -0.001906382               0.001214916              -0.000691466               0.000000000               0.000000000               0.000000000               0.000000000              -0.003409547               0.002631779              -0.001771880              -0.001607550               0.001413099              -0.000194450               0.000000000               0.000000000               0.000000000               0.000000000              -0.002601392               0.003368513              -0.001715171              -0.001396583               0.001588354               0.000191770               0.000000000               0.000000000               0.000000000               0.000000000              -0.001933772               0.003964780              -0.001613106              -0.001220760               0.001728499               0.000507740               0.000000000               0.000000000               0.000000000               0.000000000              -0.001339955               0.004427949              -0.001500565              -0.001055975               0.001827959               0.000771985               0.000000000               0.000000000               0.000000000               0.000000000              -0.000779099               0.004782830              -0.001382655              -0.000890014               0.001890932               0.001000917               0.000000000               0.000000000               0.000000000               0.000000000              -0.000232359               0.005041770              -0.001265606              -0.000717355               0.001919691               0.001202336               0.000000000               0.000000000               0.000000000               0.000000000               0.000311503               0.005208713              -0.001156128              -0.000534275               0.001914312               0.001380037               0.000000000               0.000000000               0.000000000               0.000000000               0.000863025               0.005306876              -0.001046178              -0.000339725               0.001882182               0.001542458               0.000000000               0.000000000               0.000000000               0.000000000               0.001423227               0.005340968              -0.000918527              -0.000133911               0.001824942               0.001691030               0.000000000               0.000000000               0.000000000               0.000000000               0.001999028               0.005310310              -0.000760339               0.000085845               0.001741470               0.001827316               0.000000000               0.000000000               0.000000000               0.000000000               0.002589263               0.005230084              -0.000565488               0.000317210               0.001637607               0.001954817               0.000000000               0.000000000               0.000000000               0.000000000               0.003190692               0.005122109              -0.000313806               0.000556240               0.001521939               0.002078180               0.000000000               0.000000000               0.000000000               0.000000000               0.003615550               0.005109162              -0.000186612               0.000717179               0.001463977               0.002181156               0.000000000               0.000000000               0.000000000               0.000000000              -0.014301277              -0.001239692               0.000755129              -0.005208014               0.001322765              -0.003885249               0.000000000               0.000000000               0.000000000               0.000000000              -0.009865969              -0.000538320               0.000011434              -0.003632446               0.001031368              -0.002601077               0.000000000               0.000000000               0.000000000               0.000000000              -0.006354819              -0.000057901              -0.000688241              -0.002375818               0.000772634              -0.001603184               0.000000000               0.000000000               0.000000000               0.000000000              -0.004422225               0.000857968              -0.000926943              -0.001765578               0.000874509              -0.000891069               0.000000000               0.000000000               0.000000000               0.000000000              -0.003203494               0.001761957              -0.000981058              -0.001421552               0.001061162              -0.000360390               0.000000000               0.000000000               0.000000000               0.000000000              -0.002333737               0.002558159              -0.000961682              -0.001194919               0.001251017               0.000056098               0.000000000               0.000000000               0.000000000               0.000000000              -0.001643612               0.003238591              -0.000912835              -0.001021176               0.001419911               0.000398735               0.000000000               0.000000000               0.000000000               0.000000000              -0.001047112               0.003802253              -0.000853842              -0.000867947               0.001556720               0.000688774               0.000000000               0.000000000               0.000000000               0.000000000              -0.000494329               0.004256571              -0.000789522              -0.000717443               0.001657990               0.000940547               0.000000000               0.000000000               0.000000000               0.000000000               0.000049491               0.004603700              -0.000725153              -0.000556902               0.001720185               0.001163283               0.000000000               0.000000000               0.000000000               0.000000000               0.000597824               0.004852161              -0.000666992              -0.000382336               0.001744816               0.001362480               0.000000000               0.000000000               0.000000000               0.000000000               0.001165203               0.005023522              -0.000606418              -0.000190989               0.001738153               0.001547165               0.000000000               0.000000000               0.000000000               0.000000000               0.001762870               0.005127166              -0.000533043               0.000020180               0.001702312               0.001722491               0.000000000               0.000000000               0.000000000               0.000000000               0.002410623               0.005167946              -0.000443336               0.000257988               0.001636635               0.001894623               0.000000000               0.000000000               0.000000000               0.000000000               0.003125584               0.005150530              -0.000330714               0.000528272               0.001540735               0.002069008               0.000000000               0.000000000               0.000000000               0.000000000               0.003924489               0.005085634              -0.000182756               0.000835971               0.001416538               0.002252508               0.000000000               0.000000000               0.000000000               0.000000000               0.004530435               0.005108302              -0.000110597               0.001060365               0.001349295               0.002409660               0.000000000               0.000000000               0.000000000               0.000000000              -0.014725363              -0.001264897              -0.000000000              -0.005363896               0.001366324              -0.003997572               0.000000000               0.000000000               0.000000000               0.000000000              -0.010108287              -0.000680591               0.000000000              -0.003705531               0.001008307              -0.002697225               0.000000000               0.000000000               0.000000000               0.000000000              -0.006417209              -0.000325649               0.000000000              -0.002365746               0.000680028              -0.001685718               0.000000000               0.000000000               0.000000000               0.000000000              -0.004392750               0.000545676               0.000000000              -0.001715489               0.000753717              -0.000961772               0.000000000               0.000000000               0.000000000               0.000000000              -0.003126305               0.001446846               0.000000000              -0.001353218               0.000933348              -0.000419870               0.000000000               0.000000000               0.000000000               0.000000000              -0.002233522               0.002260758              -0.000000000              -0.001120163               0.001126966               0.000006803               0.000000000               0.000000000               0.000000000               0.000000000              -0.001534312               0.002966507              -0.000000000              -0.000946178               0.001304218               0.000358040               0.000000000               0.000000000               0.000000000               0.000000000              -0.000935318               0.003563147               0.000000000              -0.000796136               0.001453082               0.000656947               0.000000000               0.000000000               0.000000000               0.000000000              -0.000381467               0.004050827              -0.000000000              -0.000649402               0.001566729               0.000917327               0.000000000               0.000000000               0.000000000               0.000000000               0.000162852               0.004428192               0.000000000              -0.000492454               0.001640201               0.001147747               0.000000000               0.000000000               0.000000000               0.000000000               0.000714136               0.004712942               0.000000000              -0.000321316               0.001678070               0.001356754               0.000000000               0.000000000               0.000000000               0.000000000               0.001283828               0.004913997               0.000000000              -0.000132814               0.001682254               0.001549440               0.000000000               0.000000000               0.000000000               0.000000000               0.001894573               0.005034410              -0.000000000               0.000081163               0.001651066               0.001732228               0.000000000               0.000000000               0.000000000               0.000000000               0.002569885               0.005100395              -0.000000000               0.000326154               0.001591397               0.001917551               0.000000000               0.000000000               0.000000000               0.000000000               0.003331580               0.005118016               0.000000000               0.000609585               0.001502793               0.002112378               0.000000000               0.000000000               0.000000000               0.000000000               0.004202990               0.005075255               0.000000000               0.000941705               0.001377833               0.002319538               0.000000000               0.000000000               0.000000000               0.000000000               0.004875666               0.005110600               0.000000000               0.001189538               0.001307004               0.002496541               0.000000000               0.000000000               0.000000000               0.000000000               0.000000000               0.000000000               0.000000000               0.000000000               0.000000000               0.000000000               0.000000000               0.000000000               0.000000000               0.000000000               0.000000000               0.000000000               0.000000000               0.000000000               0.000000000               0.000000000               0.000000000               0.000000000               0.000000000               0.000000000               0.000000000               0.000000000               0.000000000               0.000000000               0.000000000               0.000000000               0.000000000               0.000000000               0.000000000               0.000000000               0.000000000               0.000000000               0.000000000               0.000000000               0.000000000               0.000000000               0.000000000               0.000000000               0.000000000               0.000000000               0.000000000               0.000000000               0.000000000               0.000000000               0.000000000               0.000000000               0.000000000               0.000000000               0.000000000               0.000000000               0.000000000               0.000000000               0.000000000               0.000000000               0.000000000               0.000000000               0.000000000               0.000000000               0.000000000               0.000000000               0.000000000               0.000000000               0.000000000               0.000000000               0.000000000               0.000000000               0.000000000               0.000000000               0.000000000               0.000000000               0.000000000               0.000000000               0.000000000               0.000000000               0.000000000               0.000000000               0.000000000               0.000000000               0.000000000               0.000000000               0.000000000               0.000000000               0.000000000               0.000000000               0.000000000               0.000000000               0.000000000               0.000000000               0.000000000               0.000000000               0.000000000               0.000000000               0.000000000               0.000000000               0.000000000               0.000000000               0.000000000               0.000000000               0.000000000               0.000000000               0.000000000               0.000000000               0.000000000               0.000000000               0.000000000               0.000000000               0.000000000               0.000000000               0.000000000               0.000000000               0.000000000               0.000000000               0.000000000               0.000000000               0.000000000               0.000000000               0.000000000               0.000000000               0.000000000               0.000000000               0.000000000               0.000000000               0.000000000               0.000000000               0.000000000               0.000000000               0.000000000               0.000000000               0.000000000               0.000000000               0.000000000               0.000000000               0.000000000               0.000000000               0.000000000               0.000000000               0.000000000               0.000000000               0.000000000               0.000000000               0.000000000               0.000000000               0.000000000               0.000000000               0.000000000               0.000000000               0.000000000               0.000000000               0.000000000               0.000000000               0.000000000               0.000000000               0.000000000               0.000000000               0.000000000               0.000000000               0.000000000               0.000000000               0.000000000               0.000000000               0.000000000               0.000000000               0.000000000               0.000000000               0.000000000               0.000000000               0.000000000               0.000000000               0.000000000               0.000000000               0.002245101               0.023102583               0.001546686              -0.002045905               0.008382752               0.006336847               0.000000000               0.000000000               0.000000000               0.000000000               0.001984536               0.017776199               0.000677663              -0.001477820               0.006417947               0.004940127               0.000000000               0.000000000               0.000000000               0.000000000               0.002395606               0.013495805              -0.000179808              -0.000788621               0.004761431               0.003972809               0.000000000               0.000000000               0.000000000               0.000000000               0.002104559               0.011070235              -0.000528267              -0.000594569               0.003888231               0.003293662               0.000000000               0.000000000               0.000000000               0.000000000               0.001664746               0.009516418              -0.000657318              -0.000565271               0.003360531               0.002795260               0.000000000               0.000000000               0.000000000               0.000000000               0.001247981               0.008407712              -0.000692552              -0.000582970               0.002996866               0.002413896               0.000000000               0.000000000               0.000000000               0.000000000               0.000891364               0.007541066              -0.000685699              -0.000608371               0.002716454               0.002108083               0.000000000               0.000000000               0.000000000               0.000000000               0.000603059               0.006810134              -0.000657015              -0.000625118               0.002478395               0.001853276               0.000000000               0.000000000               0.000000000               0.000000000               0.000384055               0.006149294              -0.000618680              -0.000624640               0.002257957               0.001633318               0.000000000               0.000000000               0.000000000               0.000000000               0.000219274               0.005522813              -0.000578994              -0.000608123               0.002043627               0.001435504               0.000000000               0.000000000               0.000000000               0.000000000               0.000094004               0.004905723              -0.000539385              -0.000577963               0.001827879               0.001249916               0.000000000               0.000000000               0.000000000               0.000000000               0.000005744               0.004283487              -0.000495707              -0.000533281               0.001605575               0.001072294               0.000000000               0.000000000               0.000000000               0.000000000              -0.000050389               0.003642963              -0.000448034              -0.000474265               0.001372397               0.000898132               0.000000000               0.000000000               0.000000000               0.000000000              -0.000079913               0.002974614              -0.000392112              -0.000401793               0.001125459               0.000723666               0.000000000               0.000000000               0.000000000               0.000000000              -0.000082079               0.002265934              -0.000310189              -0.000314021               0.000859977               0.000545956               0.000000000               0.000000000               0.000000000               0.000000000              -0.000051756               0.001495017              -0.000180190              -0.000206285               0.000567096               0.000360810               0.000000000               0.000000000               0.000000000               0.000000000              -0.000088724               0.000919721              -0.000112361              -0.000148236               0.000355983               0.000207746               0.000000000               0.000000000               0.000000000               0.000000000               0.002386515               0.021639015               0.002854347              -0.001809930               0.007816243               0.006006312               0.000000000               0.000000000               0.000000000               0.000000000               0.001771495               0.016854055               0.001242374              -0.001442443               0.006098776               0.004656334               0.000000000               0.000000000               0.000000000               0.000000000               0.001807256               0.013133750              -0.000329389              -0.000963995               0.004699205               0.003735209               0.000000000               0.000000000               0.000000000               0.000000000               0.001388452               0.010993641              -0.000943313              -0.000853534               0.003949022               0.003095488               0.000000000               0.000000000               0.000000000               0.000000000               0.000936682               0.009588238              -0.001160668              -0.000847272               0.003478471               0.002631199               0.000000000               0.000000000               0.000000000               0.000000000               0.000558387               0.008558193              -0.001210521              -0.000860377               0.003139495               0.002279117               0.000000000               0.000000000               0.000000000               0.000000000               0.000264084               0.007730790              -0.001189390              -0.000867315               0.002866009               0.001998694               0.000000000               0.000000000               0.000000000               0.000000000               0.000048287               0.007015528              -0.001133156              -0.000858831               0.002624763               0.001765931               0.000000000               0.000000000               0.000000000               0.000000000              -0.000094653               0.006366441              -0.001061162              -0.000831298               0.002399225               0.001567927               0.000000000               0.000000000               0.000000000               0.000000000              -0.000180835               0.005751987              -0.000987124              -0.000786810               0.002179580               0.001392770               0.000000000               0.000000000               0.000000000               0.000000000              -0.000224504               0.005154471              -0.000911892              -0.000728496               0.001960972               0.001232475               0.000000000               0.000000000               0.000000000               0.000000000              -0.000233608               0.004561714              -0.000832265              -0.000657816               0.001739828               0.001082012               0.000000000               0.000000000               0.000000000               0.000000000              -0.000218047               0.003969775              -0.000746332              -0.000577988               0.001515908               0.000937919               0.000000000               0.000000000               0.000000000               0.000000000              -0.000185460               0.003381146              -0.000644685              -0.000492190               0.001291100               0.000798911               0.000000000               0.000000000               0.000000000               0.000000000              -0.000138054               0.002794495              -0.000500969              -0.000401081               0.001065183               0.000664101               0.000000000               0.000000000               0.000000000               0.000000000              -0.000075644               0.002212294              -0.000287106              -0.000304902               0.000839058               0.000534155               0.000000000               0.000000000               0.000000000               0.000000000              -0.000080534               0.001814959              -0.000174233              -0.000257070               0.000690670               0.000433601               0.000000000               0.000000000               0.000000000               0.000000000               0.002478222               0.019413123               0.003738142              -0.001497305               0.006970077               0.005472772               0.000000000               0.000000000               0.000000000               0.000000000               0.001373699               0.015481041               0.001617745              -0.001419990               0.005633625               0.004213635               0.000000000               0.000000000               0.000000000               0.000000000               0.000897110               0.012605380              -0.000416476              -0.001239253               0.004614836               0.003375582               0.000000000               0.000000000               0.000000000               0.000000000               0.000345669               0.010865974              -0.001161841              -0.001228618               0.004031494               0.002802876               0.000000000               0.000000000               0.000000000               0.000000000              -0.000083328               0.009653623              -0.001403050              -0.001237948               0.003630492               0.002392543               0.000000000               0.000000000               0.000000000               0.000000000              -0.000377991               0.008718630              -0.001441843              -0.001231573               0.003316705               0.002085132               0.000000000               0.000000000               0.000000000               0.000000000              -0.000562588               0.007939516              -0.001397264              -0.001203407               0.003047614               0.001844207               0.000000000               0.000000000               0.000000000               0.000000000              -0.000658857               0.007248719              -0.001316957              -0.001153159               0.002800602               0.001647443               0.000000000               0.000000000               0.000000000               0.000000000              -0.000685659               0.006614491              -0.001221475              -0.001083931               0.002566118               0.001482187               0.000000000               0.000000000               0.000000000               0.000000000              -0.000660735               0.006016273              -0.001123723              -0.000999808               0.002338673               0.001338866               0.000000000               0.000000000               0.000000000               0.000000000              -0.000594146               0.005445888              -0.001024991              -0.000903539               0.002116457               0.001212919               0.000000000               0.000000000               0.000000000               0.000000000              -0.000502472               0.004897423              -0.000920038              -0.000800603               0.001899326               0.001098722               0.000000000               0.000000000               0.000000000               0.000000000              -0.000402562               0.004379944              -0.000811300              -0.000698452               0.001692784               0.000994332               0.000000000               0.000000000               0.000000000               0.000000000              -0.000299737               0.003902711              -0.000685003              -0.000600239               0.001500970               0.000900731               0.000000000               0.000000000               0.000000000               0.000000000              -0.000194056               0.003474827              -0.000514285              -0.000507123               0.001327305               0.000820182               0.000000000               0.000000000               0.000000000               0.000000000              -0.000093901               0.003114176              -0.000282908              -0.000424484               0.001179543               0.000755059               0.000000000               0.000000000               0.000000000               0.000000000              -0.000062852               0.002911566              -0.000159526              -0.000387514               0.001099684               0.000712170               0.000000000               0.000000000               0.000000000               0.000000000               0.002371478               0.016701197               0.004116218              -0.001198345               0.005966458               0.004768113               0.000000000               0.000000000               0.000000000               0.000000000               0.000769950               0.013848370               0.001792988              -0.001442312               0.005096848               0.003654535               0.000000000               0.000000000               0.000000000               0.000000000              -0.000227623               0.011974115              -0.000395595              -0.001582119               0.004518705               0.002936585               0.000000000               0.000000000               0.000000000               0.000000000              -0.000845713               0.010667460              -0.001134492              -0.001650571               0.004105975               0.002455404               0.000000000               0.000000000               0.000000000               0.000000000              -0.001181526               0.009650663              -0.001345787              -0.001649401               0.003766656               0.002117254               0.000000000               0.000000000               0.000000000               0.000000000              -0.001332565               0.008807608              -0.001359929              -0.001600659               0.003469393               0.001868734               0.000000000               0.000000000               0.000000000               0.000000000              -0.001363942               0.008068944              -0.001300031              -0.001520093               0.003196319               0.001676226               0.000000000               0.000000000               0.000000000               0.000000000              -0.001311492               0.007399748              -0.001208460              -0.001416775               0.002938816               0.001522041               0.000000000               0.000000000               0.000000000               0.000000000              -0.001200694               0.006780922              -0.001105766              -0.001297873               0.002692909               0.001395036               0.000000000               0.000000000               0.000000000               0.000000000              -0.001047713               0.006207761              -0.001001720              -0.001168860               0.002458853               0.001289993               0.000000000               0.000000000               0.000000000               0.000000000              -0.000869308               0.005671958              -0.000896113              -0.001034983               0.002235628               0.001200645               0.000000000               0.000000000               0.000000000               0.000000000              -0.000683950               0.005187149              -0.000786763              -0.000904873               0.002030657               0.001125784               0.000000000               0.000000000               0.000000000               0.000000000              -0.000511092               0.004761246              -0.000675066              -0.000786813               0.001849337               0.001062524               0.000000000               0.000000000               0.000000000               0.000000000              -0.000356819               0.004398629              -0.000548999              -0.000683634               0.001694073               0.001010439               0.000000000               0.000000000               0.000000000               0.000000000              -0.000215624               0.004115695              -0.000389956              -0.000595320               0.001570325               0.000975005               0.000000000               0.000000000               0.000000000               0.000000000              -0.000099897               0.003927230              -0.000199799              -0.000528364               0.001485185               0.000956821               0.000000000               0.000000000               0.000000000               0.000000000              -0.000052354               0.003854948              -0.000101094              -0.000501500               0.001452137               0.000950637               0.000000000               0.000000000               0.000000000               0.000000000               0.001956343               0.013792330               0.004014465              -0.000990413               0.004927534               0.003937121               0.000000000               0.000000000               0.000000000               0.000000000              -0.000021011               0.012130718               0.001811038              -0.001524216               0.004551604               0.003027388               0.000000000               0.000000000               0.000000000               0.000000000              -0.001425051               0.011288426              -0.000232715              -0.001945443               0.004411252               0.002465809               0.000000000               0.000000000               0.000000000               0.000000000              -0.001999881               0.010384527              -0.000866775              -0.002048016               0.004144146               0.002096130               0.000000000               0.000000000               0.000000000               0.000000000              -0.002166957               0.009536717              -0.001030727              -0.002004694               0.003847105               0.001842411               0.000000000               0.000000000               0.000000000               0.000000000              -0.002126746               0.008769683              -0.001031160              -0.001893735               0.003554444               0.001660708               0.000000000               0.000000000               0.000000000               0.000000000              -0.001977668               0.008064970              -0.000972941              -0.001749743               0.003271544               0.001521801               0.000000000               0.000000000               0.000000000               0.000000000              -0.001766400               0.007414707              -0.000893211              -0.001589234               0.003001289               0.001412055               0.000000000               0.000000000               0.000000000               0.000000000              -0.001513885               0.006820028              -0.000805415              -0.001420207               0.002746722               0.001326515               0.000000000               0.000000000               0.000000000               0.000000000              -0.001242725               0.006276257              -0.000713010              -0.001250551               0.002508915               0.001258364               0.000000000               0.000000000               0.000000000               0.000000000              -0.000975635               0.005788681              -0.000620515              -0.001089445               0.002292689               0.001203244               0.000000000               0.000000000               0.000000000               0.000000000              -0.000730783               0.005376077              -0.000528506              -0.000946051               0.002107358               0.001161307               0.000000000               0.000000000               0.000000000               0.000000000              -0.000516478               0.005038084              -0.000431924              -0.000823438               0.001953824               0.001130386               0.000000000               0.000000000               0.000000000               0.000000000              -0.000332349               0.004774108              -0.000331072              -0.000721392               0.001831817               0.001110425               0.000000000               0.000000000               0.000000000               0.000000000              -0.000181611               0.004590688              -0.000216060              -0.000641939               0.001744193               0.001102255               0.000000000               0.000000000               0.000000000               0.000000000              -0.000077042               0.004491843              -0.000096484              -0.000590370               0.001694056               0.001103686               0.000000000               0.000000000               0.000000000               0.000000000              -0.000036565               0.004468858              -0.000040050              -0.000572318               0.001680377               0.001108059               0.000000000               0.000000000               0.000000000               0.000000000               0.001169604               0.010941004               0.003524880              -0.000929025               0.003956639               0.003027614               0.000000000               0.000000000               0.000000000               0.000000000              -0.000953215               0.010471517               0.001728319              -0.001666392               0.004045934               0.002379542               0.000000000               0.000000000               0.000000000               0.000000000              -0.002559758               0.010577657               0.000069309              -0.002282111               0.004286554               0.002004443               0.000000000               0.000000000               0.000000000               0.000000000              -0.002969427               0.010006116              -0.000417674              -0.002364294               0.004123437               0.001759143               0.000000000               0.000000000               0.000000000               0.000000000              -0.002913689               0.009295352              -0.000549152              -0.002254547               0.003849935               0.001595389               0.000000000               0.000000000               0.000000000               0.000000000              -0.002664185               0.008593080              -0.000561419              -0.002073199               0.003555398               0.001482198               0.000000000               0.000000000               0.000000000               0.000000000              -0.002329591               0.007928503              -0.000528703              -0.001864655               0.003264360               0.001399705               0.000000000               0.000000000               0.000000000               0.000000000              -0.001964616               0.007307141              -0.000481883              -0.001650120               0.002985729               0.001335610               0.000000000               0.000000000               0.000000000               0.000000000              -0.001592637               0.006739644              -0.000428020              -0.001439691               0.002726422               0.001286731               0.000000000               0.000000000               0.000000000               0.000000000              -0.001235649               0.006236301              -0.000365470              -0.001242903               0.002493047               0.001250144               0.000000000               0.000000000               0.000000000               0.000000000              -0.000916228               0.005808209              -0.000305781              -0.001069609               0.002292587               0.001222978               0.000000000               0.000000000               0.000000000               0.000000000              -0.000646166               0.005464279              -0.000250249              -0.000925345               0.002129856               0.001204511               0.000000000               0.000000000               0.000000000               0.000000000              -0.000424312               0.005198946              -0.000191086              -0.000808983               0.002002626               0.001193642               0.000000000               0.000000000               0.000000000               0.000000000              -0.000246918               0.005005161              -0.000133303              -0.000718238               0.001907783               0.001189545               0.000000000               0.000000000               0.000000000               0.000000000              -0.000118434               0.004877676              -0.000074003              -0.000654121               0.001843916               0.001189795               0.000000000               0.000000000               0.000000000               0.000000000              -0.000043430               0.004813407              -0.000023618              -0.000617961               0.001810440               0.001192479               0.000000000               0.000000000               0.000000000               0.000000000              -0.000022410               0.004797019              -0.000005602              -0.000608030               0.001801667               0.001193637               0.000000000               0.000000000               0.000000000               0.000000000               0.000050777               0.008323855               0.002761825              -0.001021440               0.003115070               0.002093630               0.000000000               0.000000000               0.000000000               0.000000000              -0.001969600               0.008965791               0.001596409              -0.001859320               0.003608340               0.001749020               0.000000000               0.000000000               0.000000000               0.000000000              -0.003521595               0.009834303               0.000487355              -0.002549880               0.004128028               0.001578148               0.000000000               0.000000000               0.000000000               0.000000000              -0.003662335               0.009516373               0.000131589              -0.002562916               0.004026398               0.001463482               0.000000000               0.000000000               0.000000000               0.000000000              -0.003359162               0.008932143              -0.000000611              -0.002376198               0.003769417               0.001393219               0.000000000               0.000000000               0.000000000               0.000000000              -0.002910282               0.008301817              -0.000050935              -0.002129077               0.003476937               0.001347860               0.000000000               0.000000000               0.000000000               0.000000000              -0.002413805               0.007684997              -0.000064442              -0.001865797               0.003183572               0.001317776               0.000000000               0.000000000               0.000000000               0.000000000              -0.001920054               0.007102035              -0.000063718              -0.001607771               0.002903245               0.001295474               0.000000000               0.000000000               0.000000000               0.000000000              -0.001459875               0.006573231              -0.000058500              -0.001369103               0.002647423               0.001278319               0.000000000               0.000000000               0.000000000               0.000000000              -0.001054041               0.006118594              -0.000044527              -0.001160087               0.002426207               0.001266120               0.000000000               0.000000000               0.000000000               0.000000000              -0.000720965               0.005750430              -0.000032011              -0.000989163               0.002246512               0.001257349               0.000000000               0.000000000               0.000000000               0.000000000              -0.000457627               0.005464784              -0.000027110              -0.000854706               0.002106478               0.001251772               0.000000000               0.000000000               0.000000000               0.000000000              -0.000255621               0.005252054              -0.000018538              -0.000752363               0.002001455               0.001249092               0.000000000               0.000000000               0.000000000               0.000000000              -0.000117985               0.005101383              -0.000007961              -0.000681916               0.001927749               0.001245834               0.000000000               0.000000000               0.000000000               0.000000000              -0.000041801               0.005004781               0.000003467              -0.000641271               0.001882001               0.001240729               0.000000000               0.000000000               0.000000000               0.000000000              -0.000013128               0.004955561               0.000009560              -0.000624366               0.001859959               0.001235593               0.000000000               0.000000000               0.000000000               0.000000000              -0.000012750               0.004938642               0.000007143              -0.000622110               0.001853567               0.001231457               0.000000000               0.000000000               0.000000000               0.000000000              -0.001255462               0.006130326               0.001848960              -0.001237087               0.002455783               0.001218696               0.000000000               0.000000000               0.000000000               0.000000000              -0.002957268               0.007619013               0.001455060              -0.002061348               0.003226761               0.001165414               0.000000000               0.000000000               0.000000000               0.000000000              -0.004270241               0.009072324               0.000982040              -0.002735374               0.003935869               0.001200495               0.000000000               0.000000000               0.000000000               0.000000000              -0.004130612               0.009025092               0.000707465              -0.002677110               0.003900704               0.001223594               0.000000000               0.000000000               0.000000000               0.000000000              -0.003623599               0.008599083               0.000546008              -0.002433729               0.003677575               0.001243846               0.000000000               0.000000000               0.000000000               0.000000000              -0.003020337               0.008063859               0.000442318              -0.002140603               0.003401461               0.001260857               0.000000000               0.000000000               0.000000000               0.000000000              -0.002404535               0.007506792               0.000370690              -0.001840045               0.003115587               0.001275542               0.000000000               0.000000000               0.000000000               0.000000000              -0.001816606               0.006974170               0.000318189              -0.001552995               0.002842365               0.001289370               0.000000000               0.000000000               0.000000000               0.000000000              -0.001288411               0.006492016               0.000272906              -0.001294653               0.002595535               0.001300882               0.000000000               0.000000000               0.000000000               0.000000000              -0.000850382               0.006078100               0.000232346              -0.001078653               0.002385564               0.001306911               0.000000000               0.000000000               0.000000000               0.000000000              -0.000504107               0.005750146               0.000192846              -0.000907806               0.002219298               0.001311492               0.000000000               0.000000000               0.000000000               0.000000000              -0.000246757               0.005494094               0.000146102              -0.000779294               0.002091111               0.001311817               0.000000000               0.000000000               0.000000000               0.000000000              -0.000076968               0.005295486               0.000103871              -0.000690797               0.001995410               0.001304613               0.000000000               0.000000000               0.000000000               0.000000000               0.000011171               0.005149377               0.000070783              -0.000639481               0.001929602               0.001290121               0.000000000               0.000000000               0.000000000               0.000000000               0.000033789               0.005054293               0.000044185              -0.000619114               0.001891119               0.001272005               0.000000000               0.000000000               0.000000000               0.000000000               0.000014742               0.005002397               0.000021779              -0.000619770               0.001874039               0.001254269               0.000000000               0.000000000               0.000000000               0.000000000              -0.000005969               0.004983191               0.000009140              -0.000625136               0.001869426               0.001244290               0.000000000               0.000000000               0.000000000               0.000000000              -0.002762166               0.004114535               0.000902137              -0.001550125               0.001888206               0.000338080               0.000000000               0.000000000               0.000000000               0.000000000              -0.003793754               0.006054188               0.001300972              -0.002179426               0.002744518               0.000565091               0.000000000               0.000000000               0.000000000               0.000000000              -0.004722192               0.007929163               0.001493837              -0.002761961               0.003563681               0.000801721               0.000000000               0.000000000               0.000000000               0.000000000              -0.004430519               0.008290552               0.001307161              -0.002697757               0.003662742               0.000964985               0.000000000               0.000000000               0.000000000               0.000000000              -0.003845727               0.008148151               0.001113257              -0.002460661               0.003536243               0.001075583               0.000000000               0.000000000               0.000000000               0.000000000              -0.003195690               0.007815980               0.000955532              -0.002175376               0.003330426               0.001155050               0.000000000               0.000000000               0.000000000               0.000000000              -0.002546742               0.007414333               0.000826830              -0.001881815               0.003098691               0.001216876               0.000000000               0.000000000               0.000000000               0.000000000              -0.001929963               0.006999541               0.000720301              -0.001598675               0.002866049               0.001267374               0.000000000               0.000000000               0.000000000               0.000000000              -0.001370587               0.006598318               0.000623547              -0.001338757               0.002645669               0.001306913               0.000000000               0.000000000               0.000000000               0.000000000              -0.000893003               0.006236609               0.000532846              -0.001114450               0.002450332               0.001335882               0.000000000               0.000000000               0.000000000               0.000000000              -0.000509796               0.005922798               0.000446993              -0.000931521               0.002284753               0.001353232               0.000000000               0.000000000               0.000000000               0.000000000              -0.000216360               0.005664227               0.000354939              -0.000789161               0.002151111               0.001361949               0.000000000               0.000000000               0.000000000               0.000000000              -0.000018404               0.005447885               0.000260865              -0.000687886               0.002045239               0.001357353               0.000000000               0.000000000               0.000000000               0.000000000               0.000086477               0.005270136               0.000175204              -0.000626337               0.001965473               0.001339137               0.000000000               0.000000000               0.000000000               0.000000000               0.000109628               0.005133236               0.000098417              -0.000600542               0.001911242               0.001310700               0.000000000               0.000000000               0.000000000               0.000000000               0.000073047               0.005041478               0.000037765              -0.000602791               0.001881406               0.001278615               0.000000000               0.000000000               0.000000000               0.000000000               0.000031474               0.005001479               0.000008023              -0.000613380               0.001871603               0.001258223               0.000000000               0.000000000               0.000000000               0.000000000              -0.004666184               0.002299260              -0.000005168              -0.002037223               0.001445485              -0.000591738               0.000000000               0.000000000               0.000000000               0.000000000              -0.004744446               0.004478232               0.001085859              -0.002338941               0.002272375              -0.000066566               0.000000000               0.000000000               0.000000000               0.000000000              -0.005100064               0.006575544               0.001901935              -0.002734461               0.003103312               0.000368852               0.000000000               0.000000000               0.000000000               0.000000000              -0.004667158               0.007315481               0.001871333              -0.002664613               0.003326673               0.000662060               0.000000000               0.000000000               0.000000000               0.000000000              -0.004039838               0.007490873               0.001680157              -0.002451292               0.003314030               0.000862737               0.000000000               0.000000000               0.000000000               0.000000000              -0.003375717               0.007407748               0.001485332              -0.002191857               0.003199844               0.001007986               0.000000000               0.000000000               0.000000000               0.000000000              -0.002719458               0.007207482               0.001310727              -0.001920728               0.003042712               0.001121985               0.000000000               0.000000000               0.000000000               0.000000000              -0.002091300               0.006951797               0.001157411              -0.001653208               0.002868312               0.001215103               0.000000000               0.000000000               0.000000000               0.000000000              -0.001510875               0.006668805               0.001016276              -0.001400176               0.002689638               0.001289462               0.000000000               0.000000000               0.000000000               0.000000000              -0.000991138               0.006381878               0.000887186              -0.001169409               0.002517074               0.001347665               0.000000000               0.000000000               0.000000000               0.000000000              -0.000546569               0.006104784               0.000768299              -0.000968059               0.002357594               0.001389535               0.000000000               0.000000000               0.000000000               0.000000000              -0.000184723               0.005851635               0.000641894              -0.000800724               0.002217434               0.001416710               0.000000000               0.000000000               0.000000000               0.000000000               0.000080437               0.005623543               0.000502159              -0.000672777               0.002098755               0.001425977               0.000000000               0.000000000               0.000000000               0.000000000               0.000241834               0.005424398               0.000360043              -0.000587361               0.002003901               0.001416541               0.000000000               0.000000000               0.000000000               0.000000000               0.000303501               0.005249570               0.000221508              -0.000542382               0.001930633               0.001388251               0.000000000               0.000000000               0.000000000               0.000000000               0.000276157               0.005106323               0.000098779              -0.000534730               0.001880334               0.001345604               0.000000000               0.000000000               0.000000000               0.000000000               0.000218456               0.005029816               0.000034903              -0.000546805               0.001858857               0.001312052               0.000000000               0.000000000               0.000000000               0.000000000              -0.006836463               0.000836750              -0.000788043              -0.002668264               0.001168330              -0.001499934               0.000000000               0.000000000               0.000000000               0.000000000              -0.005844641               0.003002245               0.000799716              -0.002567016               0.001856408              -0.000710609               0.000000000               0.000000000               0.000000000               0.000000000              -0.005421751               0.005031541               0.002101953              -0.002662094               0.002564527              -0.000097567               0.000000000               0.000000000               0.000000000               0.000000000              -0.004758844               0.006025651               0.002268339              -0.002537767               0.002854452               0.000316685               0.000000000               0.000000000               0.000000000               0.000000000              -0.004065426               0.006493883               0.002131223              -0.002336265               0.002943360               0.000607095               0.000000000               0.000000000               0.000000000               0.000000000              -0.003389860               0.006676134               0.001931484              -0.002105710               0.002927258               0.000821549               0.000000000               0.000000000               0.000000000               0.000000000              -0.002739392               0.006701063               0.001734254              -0.001864901               0.002855298               0.000990398               0.000000000               0.000000000               0.000000000               0.000000000              -0.002114282               0.006633963               0.001552167              -0.001622098               0.002751998               0.001129900               0.000000000               0.000000000               0.000000000               0.000000000              -0.001521786               0.006503543               0.001383622              -0.001383610               0.002629029               0.001245419               0.000000000               0.000000000               0.000000000               0.000000000              -0.000974841               0.006326281               0.001231702              -0.001156348               0.002494188               0.001337840               0.000000000               0.000000000               0.000000000               0.000000000              -0.000481250               0.006125219               0.001093557              -0.000946119               0.002357092               0.001410973               0.000000000               0.000000000               0.000000000               0.000000000              -0.000053510               0.005916341               0.000943221              -0.000759607               0.002225296               0.001465689               0.000000000               0.000000000               0.000000000               0.000000000               0.000289565               0.005709844               0.000769063              -0.000605142               0.002104976               0.001499834               0.000000000               0.000000000               0.000000000               0.000000000               0.000532953               0.005511513               0.000582699              -0.000489081               0.002000179               0.001511099               0.000000000               0.000000000               0.000000000               0.000000000               0.000671981               0.005322589               0.000390298              -0.000413330               0.001911955               0.001498625               0.000000000               0.000000000               0.000000000               0.000000000               0.000699032               0.005149566               0.000193662              -0.000381558               0.001843691               0.001462133               0.000000000               0.000000000               0.000000000               0.000000000               0.000660533               0.005055674               0.000088668              -0.000384258               0.001813294               0.001429035               0.000000000               0.000000000               0.000000000               0.000000000              -0.009118623              -0.000198159              -0.001327101              -0.003394711               0.001065510              -0.002329201               0.000000000               0.000000000               0.000000000               0.000000000              -0.007023577               0.001698089               0.000490997              -0.002846099               0.001514719              -0.001331380               0.000000000               0.000000000               0.000000000               0.000000000              -0.005702493               0.003426649               0.002063377              -0.002566761               0.001997789              -0.000568972               0.000000000               0.000000000               0.000000000               0.000000000              -0.004725839               0.004539019               0.002403409              -0.002339562               0.002292844              -0.000046718               0.000000000               0.000000000               0.000000000               0.000000000              -0.003928796               0.005232006               0.002352548              -0.002127295               0.002453082               0.000325787               0.000000000               0.000000000               0.000000000               0.000000000              -0.003229369               0.005658698               0.002183330              -0.001918347               0.002525662               0.000607315               0.000000000               0.000000000               0.000000000               0.000000000              -0.002585060               0.005908885               0.001991282              -0.001708005               0.002538943               0.000830938               0.000000000               0.000000000               0.000000000               0.000000000              -0.001972298               0.006037731               0.001806373              -0.001494325               0.002510665               0.001016340               0.000000000               0.000000000               0.000000000               0.000000000              -0.001381397               0.006076125               0.001631233              -0.001277537               0.002451200               0.001173663               0.000000000               0.000000000               0.000000000               0.000000000              -0.000819056               0.006041312               0.001472624              -0.001062308               0.002367853               0.001305545               0.000000000               0.000000000               0.000000000               0.000000000              -0.000296947               0.005955736               0.001328250              -0.000855821               0.002270499               0.001414678               0.000000000               0.000000000               0.000000000               0.000000000               0.000180287               0.005830049               0.001172017              -0.000661147               0.002163712               0.001502565               0.000000000               0.000000000               0.000000000               0.000000000               0.000606652               0.005675694               0.000988416              -0.000481967               0.002052534               0.001570568               0.000000000               0.000000000               0.000000000               0.000000000               0.000960616               0.005505701               0.000783612              -0.000327981               0.001944542               0.001616561               0.000000000               0.000000000               0.000000000               0.000000000               0.001223270               0.005334977               0.000555004              -0.000208146               0.001847690               0.001639544               0.000000000               0.000000000               0.000000000               0.000000000               0.001376262               0.005169286               0.000292467              -0.000130062               0.001766432               0.001636370               0.000000000               0.000000000               0.000000000               0.000000000               0.001421017               0.005086201               0.000152795              -0.000102894               0.001729681               0.001626787               0.000000000               0.000000000               0.000000000               0.000000000              -0.011287122              -0.000827296              -0.001514860              -0.004129256               0.001100645              -0.003028611               0.000000000               0.000000000               0.000000000               0.000000000              -0.008181338               0.000645629               0.000223082              -0.003148702               0.001264768              -0.001883934               0.000000000               0.000000000               0.000000000               0.000000000              -0.005958568               0.001933378               0.001785055              -0.002476132               0.001469826              -0.001006306               0.000000000               0.000000000               0.000000000               0.000000000              -0.004619494               0.003037336               0.002215454              -0.002111974               0.001716424              -0.000395550               0.000000000               0.000000000               0.000000000               0.000000000              -0.003680887               0.003867576               0.002244922              -0.001863776               0.001910436               0.000046661               0.000000000               0.000000000               0.000000000               0.000000000              -0.002938996               0.004483043               0.002131780              -0.001662501               0.002048499               0.000385998               0.000000000               0.000000000               0.000000000               0.000000000              -0.002289784               0.004932066               0.001976047              -0.001475174               0.002135730               0.000660555               0.000000000               0.000000000               0.000000000               0.000000000              -0.001689382               0.005244169               0.001816853              -0.001289037               0.002177717               0.000888680               0.000000000               0.000000000               0.000000000               0.000000000              -0.001111262               0.005452964               0.001659653              -0.001098342               0.002183750               0.001085408               0.000000000               0.000000000               0.000000000               0.000000000              -0.000552615               0.005577142               0.001510772              -0.000904372               0.002160486               0.001256114               0.000000000               0.000000000               0.000000000               0.000000000              -0.000016561               0.005627747               0.001371382              -0.000709678               0.002112456               0.001402778               0.000000000               0.000000000               0.000000000               0.000000000               0.000499013               0.005614990               0.001229877              -0.000514743               0.002043225               0.001528482               0.000000000               0.000000000               0.000000000               0.000000000               0.001001716               0.005547407               0.001066311              -0.000317782               0.001955045               0.001637262               0.000000000               0.000000000               0.000000000               0.000000000               0.001474999               0.005435822               0.000870976              -0.000126353               0.001854040               0.001727687               0.000000000               0.000000000               0.000000000               0.000000000               0.001896938               0.005298678               0.000639212               0.000049016               0.001749870               0.001798886               0.000000000               0.000000000               0.000000000               0.000000000               0.002253041               0.005155398               0.000350726               0.000200464               0.001651628               0.001852091               0.000000000               0.000000000               0.000000000               0.000000000               0.002461943               0.005103984               0.000199503               0.000285228               0.001606235               0.001891463               0.000000000               0.000000000               0.000000000               0.000000000              -0.013094360              -0.001129765              -0.001306935              -0.004769161               0.001213123              -0.003556038               0.000000000               0.000000000               0.000000000               0.000000000              -0.009181893              -0.000100518               0.000051392              -0.003430642               0.001110034              -0.002320609               0.000000000               0.000000000               0.000000000               0.000000000              -0.006187508               0.000724397               0.001306774              -0.002410863               0.001045079              -0.001365783               0.000000000               0.000000000               0.000000000               0.000000000              -0.004504229               0.001738393               0.001703422              -0.001906382               0.001214916              -0.000691466               0.000000000               0.000000000               0.000000000               0.000000000              -0.003409547               0.002631779               0.001771880              -0.001607550               0.001413099              -0.000194450               0.000000000               0.000000000               0.000000000               0.000000000              -0.002601392               0.003368513               0.001715171              -0.001396583               0.001588354               0.000191770               0.000000000               0.000000000               0.000000000               0.000000000              -0.001933772               0.003964780               0.001613106              -0.001220760               0.001728499               0.000507740               0.000000000               0.000000000               0.000000000               0.000000000              -0.001339955               0.004427949               0.001500565              -0.001055975               0.001827959               0.000771985               0.000000000               0.000000000               0.000000000               0.000000000              -0.000779099               0.004782830               0.001382655              -0.000890014               0.001890932               0.001000917               0.000000000               0.000000000               0.000000000               0.000000000              -0.000232359               0.005041770               0.001265606              -0.000717355               0.001919691               0.001202336               0.000000000               0.000000000               0.000000000               0.000000000               0.000311503               0.005208713               0.001156128              -0.000534275               0.001914312               0.001380037               0.000000000               0.000000000               0.000000000               0.000000000               0.000863025               0.005306876               0.001046178              -0.000339725               0.001882182               0.001542458               0.000000000               0.000000000               0.000000000               0.000000000               0.001423227               0.005340968               0.000918527              -0.000133911               0.001824942               0.001691030               0.000000000               0.000000000               0.000000000               0.000000000               0.001999028               0.005310310               0.000760339               0.000085845               0.001741470               0.001827316               0.000000000               0.000000000               0.000000000               0.000000000               0.002589263               0.005230084               0.000565488               0.000317210               0.001637607               0.001954817               0.000000000               0.000000000               0.000000000               0.000000000               0.003190692               0.005122109               0.000313806               0.000556240               0.001521939               0.002078180               0.000000000               0.000000000               0.000000000               0.000000000               0.003615550               0.005109162               0.000186612               0.000717179               0.001463977               0.002181156               0.000000000               0.000000000               0.000000000               0.000000000              -0.014301277              -0.001239692              -0.000755129              -0.005208014               0.001322765              -0.003885249               0.000000000               0.000000000               0.000000000               0.000000000              -0.009865969              -0.000538320              -0.000011434              -0.003632446               0.001031368              -0.002601077               0.000000000               0.000000000               0.000000000               0.000000000              -0.006354819              -0.000057901               0.000688241              -0.002375818               0.000772634              -0.001603184               0.000000000               0.000000000               0.000000000               0.000000000              -0.004422225               0.000857968               0.000926943              -0.001765578               0.000874509              -0.000891069               0.000000000               0.000000000               0.000000000               0.000000000              -0.003203494               0.001761957               0.000981058              -0.001421552               0.001061162              -0.000360390               0.000000000               0.000000000               0.000000000               0.000000000              -0.002333737               0.002558159               0.000961682              -0.001194919               0.001251017               0.000056098               0.000000000               0.000000000               0.000000000               0.000000000              -0.001643612               0.003238591               0.000912835              -0.001021176               0.001419911               0.000398735               0.000000000               0.000000000               0.000000000               0.000000000              -0.001047112               0.003802253               0.000853842              -0.000867947               0.001556720               0.000688774               0.000000000               0.000000000               0.000000000               0.000000000              -0.000494329               0.004256571               0.000789522              -0.000717443               0.001657990               0.000940547               0.000000000               0.000000000               0.000000000               0.000000000               0.000049491               0.004603700               0.000725153              -0.000556902               0.001720185               0.001163283               0.000000000               0.000000000               0.000000000               0.000000000               0.000597824               0.004852161               0.000666992              -0.000382336               0.001744816               0.001362480               0.000000000               0.000000000               0.000000000               0.000000000               0.001165203               0.005023522               0.000606418              -0.000190989               0.001738153               0.001547165               0.000000000               0.000000000               0.000000000               0.000000000               0.001762870               0.005127166               0.000533043               0.000020180               0.001702312               0.001722491               0.000000000               0.000000000               0.000000000               0.000000000               0.002410623               0.005167946               0.000443336               0.000257988               0.001636635               0.001894623               0.000000000               0.000000000               0.000000000               0.000000000               0.003125584               0.005150530               0.000330714               0.000528272               0.001540735               0.002069008               0.000000000               0.000000000               0.000000000               0.000000000               0.003924489               0.005085634               0.000182756               0.000835971               0.001416538               0.002252508               0.000000000               0.000000000               0.000000000               0.000000000               0.004530435               0.005108302               0.000110597               0.001060365               0.001349295               0.002409660               0.000000000               0.000000000               0.000000000               0.000000000              -0.014725363              -0.001264897              -0.000000000              -0.005363896               0.001366324              -0.003997572               0.000000000               0.000000000               0.000000000               0.000000000              -0.010108287              -0.000680591               0.000000000              -0.003705531               0.001008307              -0.002697225               0.000000000               0.000000000               0.000000000               0.000000000              -0.006417209              -0.000325649               0.000000000              -0.002365746               0.000680028              -0.001685718               0.000000000               0.000000000               0.000000000               0.000000000              -0.004392750               0.000545676               0.000000000              -0.001715489               0.000753717              -0.000961772               0.000000000               0.000000000               0.000000000               0.000000000              -0.003126305               0.001446846              -0.000000000              -0.001353218               0.000933348              -0.000419870               0.000000000               0.000000000               0.000000000               0.000000000              -0.002233522               0.002260758              -0.000000000              -0.001120163               0.001126966               0.000006803               0.000000000               0.000000000               0.000000000               0.000000000              -0.001534312               0.002966507              -0.000000000              -0.000946178               0.001304218               0.000358040               0.000000000               0.000000000               0.000000000               0.000000000              -0.000935318               0.003563147              -0.000000000              -0.000796136               0.001453082               0.000656947               0.000000000               0.000000000               0.000000000               0.000000000              -0.000381467               0.004050827              -0.000000000              -0.000649402               0.001566729               0.000917327               0.000000000               0.000000000               0.000000000               0.000000000               0.000162852               0.004428192               0.000000000              -0.000492454               0.001640201               0.001147747               0.000000000               0.000000000               0.000000000               0.000000000               0.000714136               0.004712942               0.000000000              -0.000321316               0.001678070               0.001356754               0.000000000               0.000000000               0.000000000               0.000000000               0.001283828               0.004913997               0.000000000              -0.000132814               0.001682254               0.001549440               0.000000000               0.000000000               0.000000000               0.000000000               0.001894573               0.005034410               0.000000000               0.000081163               0.001651066               0.001732228               0.000000000               0.000000000               0.000000000               0.000000000               0.002569885               0.005100395               0.000000000               0.000326154               0.001591397               0.001917551               0.000000000               0.000000000               0.000000000               0.000000000               0.003331580               0.005118016              -0.000000000               0.000609585               0.001502793               0.002112378               0.000000000               0.000000000               0.000000000               0.000000000               0.004202990               0.005075255              -0.000000000               0.000941705               0.001377833               0.002319538               0.000000000               0.000000000               0.000000000               0.000000000               0.004875666               0.005110600               0.000000000               0.001189538               0.001307004               0.002496541               0.000000000               0.000000000               0.000000000               0.000000000               0.002182262               0.023612246               0.000000000              -0.002133177               0.008581729               0.006448552               0.000000000               0.000000000               0.000000000               0.000000000               0.002049705               0.018100800               0.000000000              -0.001493957               0.006531525               0.005037568               0.000000000               0.000000000               0.000000000               0.000000000               0.002596506               0.013625405               0.000000000              -0.000729484               0.004784918               0.004055434               0.000000000               0.000000000               0.000000000               0.000000000               0.002358843               0.011097010              -0.000000000              -0.000502559               0.003866486               0.003363927               0.000000000               0.000000000               0.000000000               0.000000000               0.001931838               0.009485879               0.000000000              -0.000461295               0.003315693               0.002854398               0.000000000               0.000000000               0.000000000               0.000000000               0.001504417               0.008346296               0.000000000              -0.000479130               0.002941781               0.002462651               0.000000000               0.000000000               0.000000000               0.000000000               0.001128869               0.007467181              -0.000000000              -0.000510071               0.002659059               0.002148988               0.000000000               0.000000000               0.000000000               0.000000000               0.000813689               0.006727623              -0.000000000              -0.000535818               0.002421125               0.001885307               0.000000000               0.000000000               0.000000000               0.000000000               0.000564724               0.006062885              -0.000000000              -0.000546088               0.002202971               0.001656883               0.000000000               0.000000000               0.000000000               0.000000000               0.000372128               0.005429286               0.000000000              -0.000539112               0.001989448               0.001450336               0.000000000               0.000000000               0.000000000               0.000000000               0.000222903               0.004806919              -0.000000000              -0.000517275               0.001774715               0.001257440               0.000000000               0.000000000               0.000000000               0.000000000               0.000110532               0.004175210              -0.000000000              -0.000480450               0.001551873               0.001071422               0.000000000               0.000000000               0.000000000               0.000000000               0.000024031               0.003516228              -0.000000000              -0.000430516               0.001315569               0.000885054               0.000000000               0.000000000               0.000000000               0.000000000              -0.000036656               0.002817331               0.000000000              -0.000365912               0.001061071               0.000695160               0.000000000               0.000000000               0.000000000               0.000000000              -0.000059999               0.002063406              -0.000000000              -0.000280425               0.000781270               0.000500845               0.000000000               0.000000000               0.000000000               0.000000000              -0.000039821               0.001219224              -0.000000000              -0.000167335               0.000462182               0.000294847               0.000000000               0.000000000               0.000000000               0.000000000              -0.000087617               0.000572086               0.000000000              -0.000104367               0.000225482               0.000121115               0.000000000               0.000000000               0.000000000               0.000000000               0.002245101               0.023102583              -0.001546686              -0.002045905               0.008382752               0.006336847               0.000000000               0.000000000               0.000000000               0.000000000               0.001984536               0.017776199              -0.000677663              -0.001477820               0.006417947               0.004940127               0.000000000               0.000000000               0.000000000               0.000000000               0.002395606               0.013495805               0.000179808              -0.000788621               0.004761431               0.003972809               0.000000000               0.000000000               0.000000000               0.000000000               0.002104559               0.011070235               0.000528267              -0.000594569               0.003888231               0.003293662               0.000000000               0.000000000               0.000000000               0.000000000               0.001664746               0.009516418               0.000657318              -0.000565271               0.003360531               0.002795260               0.000000000               0.000000000               0.000000000               0.000000000               0.001247981               0.008407712               0.000692552              -0.000582970               0.002996866               0.002413896               0.000000000               0.000000000               0.000000000               0.000000000               0.000891364               0.007541066               0.000685699              -0.000608371               0.002716454               0.002108083               0.000000000               0.000000000               0.000000000               0.000000000               0.000603059               0.006810134               0.000657015              -0.000625118               0.002478395               0.001853276               0.000000000               0.000000000               0.000000000               0.000000000               0.000384055               0.006149294               0.000618680              -0.000624640               0.002257957               0.001633318               0.000000000               0.000000000               0.000000000               0.000000000               0.000219274               0.005522813               0.000578994              -0.000608123               0.002043627               0.001435504               0.000000000               0.000000000               0.000000000               0.000000000               0.000094004               0.004905723               0.000539385              -0.000577963               0.001827879               0.001249916               0.000000000               0.000000000               0.000000000               0.000000000               0.000005744               0.004283487               0.000495707              -0.000533281               0.001605575               0.001072294               0.000000000               0.000000000               0.000000000               0.000000000              -0.000050389               0.003642963               0.000448034              -0.000474265               0.001372397               0.000898132               0.000000000               0.000000000               0.000000000               0.000000000              -0.000079913               0.002974614               0.000392112              -0.000401793               0.001125459               0.000723666               0.000000000               0.000000000               0.000000000               0.000000000              -0.000082079               0.002265934               0.000310189              -0.000314021               0.000859977               0.000545956               0.000000000               0.000000000               0.000000000               0.000000000              -0.000051756               0.001495017               0.000180190              -0.000206285               0.000567096               0.000360810               0.000000000               0.000000000               0.000000000               0.000000000              -0.000088724               0.000919721               0.000112361              -0.000148236               0.000355983               0.000207746               0.000000000               0.000000000               0.000000000               0.000000000               0.002386515               0.021639015              -0.002854347              -0.001809930               0.007816243               0.006006312               0.000000000               0.000000000               0.000000000               0.000000000               0.001771495               0.016854055              -0.001242374              -0.001442443               0.006098776               0.004656334               0.000000000               0.000000000               0.000000000               0.000000000               0.001807256               0.013133750               0.000329389              -0.000963995               0.004699205               0.003735209               0.000000000               0.000000000               0.000000000               0.000000000               0.001388452               0.010993641               0.000943313              -0.000853534               0.003949022               0.003095488               0.000000000               0.000000000               0.000000000               0.000000000               0.000936682               0.009588238               0.001160668              -0.000847272               0.003478471               0.002631199               0.000000000               0.000000000               0.000000000               0.000000000               0.000558387               0.008558193               0.001210521              -0.000860377               0.003139495               0.002279117               0.000000000               0.000000000               0.000000000               0.000000000               0.000264084               0.007730790               0.001189390              -0.000867315               0.002866009               0.001998694               0.000000000               0.000000000               0.000000000               0.000000000               0.000048287               0.007015528               0.001133156              -0.000858831               0.002624763               0.001765931               0.000000000               0.000000000               0.000000000               0.000000000              -0.000094653               0.006366441               0.001061162              -0.000831298               0.002399225               0.001567927               0.000000000               0.000000000               0.000000000               0.000000000              -0.000180835               0.005751987               0.000987124              -0.000786810               0.002179580               0.001392770               0.000000000               0.000000000               0.000000000               0.000000000              -0.000224504               0.005154471               0.000911892              -0.000728496               0.001960972               0.001232475               0.000000000               0.000000000               0.000000000               0.000000000              -0.000233608               0.004561714               0.000832265              -0.000657816               0.001739828               0.001082012               0.000000000               0.000000000               0.000000000               0.000000000              -0.000218047               0.003969775               0.000746332              -0.000577988               0.001515908               0.000937919               0.000000000               0.000000000               0.000000000               0.000000000              -0.000185460               0.003381146               0.000644685              -0.000492190               0.001291100               0.000798911               0.000000000               0.000000000               0.000000000               0.000000000              -0.000138054               0.002794495               0.000500969              -0.000401081               0.001065183               0.000664101               0.000000000               0.000000000               0.000000000               0.000000000              -0.000075644               0.002212294               0.000287106              -0.000304902               0.000839058               0.000534155               0.000000000               0.000000000               0.000000000               0.000000000              -0.000080534               0.001814959               0.000174233              -0.000257070               0.000690670               0.000433601               0.000000000               0.000000000               0.000000000               0.000000000               0.002478222               0.019413123              -0.003738142              -0.001497305               0.006970077               0.005472772               0.000000000               0.000000000               0.000000000               0.000000000               0.001373699               0.015481041              -0.001617745              -0.001419990               0.005633625               0.004213635               0.000000000               0.000000000               0.000000000               0.000000000               0.000897110               0.012605380               0.000416476              -0.001239253               0.004614836               0.003375582               0.000000000               0.000000000               0.000000000               0.000000000               0.000345669               0.010865974               0.001161841              -0.001228618               0.004031494               0.002802876               0.000000000               0.000000000               0.000000000               0.000000000              -0.000083328               0.009653623               0.001403050              -0.001237948               0.003630492               0.002392543               0.000000000               0.000000000               0.000000000               0.000000000              -0.000377991               0.008718630               0.001441843              -0.001231573               0.003316705               0.002085132               0.000000000               0.000000000               0.000000000               0.000000000              -0.000562588               0.007939516               0.001397264              -0.001203407               0.003047614               0.001844207               0.000000000               0.000000000               0.000000000               0.000000000              -0.000658857               0.007248719               0.001316957              -0.001153159               0.002800602               0.001647443               0.000000000               0.000000000               0.000000000               0.000000000              -0.000685659               0.006614491               0.001221475              -0.001083931               0.002566118               0.001482187               0.000000000               0.000000000               0.000000000               0.000000000              -0.000660735               0.006016273               0.001123723              -0.000999808               0.002338673               0.001338866               0.000000000               0.000000000               0.000000000               0.000000000              -0.000594146               0.005445888               0.001024991              -0.000903539               0.002116457               0.001212919               0.000000000               0.000000000               0.000000000               0.000000000              -0.000502472               0.004897423               0.000920038              -0.000800603               0.001899326               0.001098722               0.000000000               0.000000000               0.000000000               0.000000000              -0.000402562               0.004379944               0.000811300              -0.000698452               0.001692784               0.000994332               0.000000000               0.000000000               0.000000000               0.000000000              -0.000299737               0.003902711               0.000685003              -0.000600239               0.001500970               0.000900731               0.000000000               0.000000000               0.000000000               0.000000000              -0.000194056               0.003474827               0.000514285              -0.000507123               0.001327305               0.000820182               0.000000000               0.000000000               0.000000000               0.000000000              -0.000093901               0.003114176               0.000282908              -0.000424484               0.001179543               0.000755059               0.000000000               0.000000000               0.000000000               0.000000000              -0.000062852               0.002911566               0.000159526              -0.000387514               0.001099684               0.000712170               0.000000000               0.000000000               0.000000000               0.000000000               0.002371478               0.016701197              -0.004116218              -0.001198345               0.005966458               0.004768113               0.000000000               0.000000000               0.000000000               0.000000000               0.000769950               0.013848370              -0.001792988              -0.001442312               0.005096848               0.003654535               0.000000000               0.000000000               0.000000000               0.000000000              -0.000227623               0.011974115               0.000395595              -0.001582119               0.004518705               0.002936585               0.000000000               0.000000000               0.000000000               0.000000000              -0.000845713               0.010667460               0.001134492              -0.001650571               0.004105975               0.002455404               0.000000000               0.000000000               0.000000000               0.000000000              -0.001181526               0.009650663               0.001345787              -0.001649401               0.003766656               0.002117254               0.000000000               0.000000000               0.000000000               0.000000000              -0.001332565               0.008807608               0.001359929              -0.001600659               0.003469393               0.001868734               0.000000000               0.000000000               0.000000000               0.000000000              -0.001363942               0.008068944               0.001300031              -0.001520093               0.003196319               0.001676226               0.000000000               0.000000000               0.000000000               0.000000000              -0.001311492               0.007399748               0.001208460              -0.001416775               0.002938816               0.001522041               0.000000000               0.000000000               0.000000000               0.000000000              -0.001200694               0.006780922               0.001105766              -0.001297873               0.002692909               0.001395036               0.000000000               0.000000000               0.000000000               0.000000000              -0.001047713               0.006207761               0.001001720              -0.001168860               0.002458853               0.001289993               0.000000000               0.000000000               0.000000000               0.000000000              -0.000869308               0.005671958               0.000896113              -0.001034983               0.002235628               0.001200645               0.000000000               0.000000000               0.000000000               0.000000000              -0.000683950               0.005187149               0.000786763              -0.000904873               0.002030657               0.001125784               0.000000000               0.000000000               0.000000000               0.000000000              -0.000511092               0.004761246               0.000675066              -0.000786813               0.001849337               0.001062524               0.000000000               0.000000000               0.000000000               0.000000000              -0.000356819               0.004398629               0.000548999              -0.000683634               0.001694073               0.001010439               0.000000000               0.000000000               0.000000000               0.000000000              -0.000215624               0.004115695               0.000389956              -0.000595320               0.001570325               0.000975005               0.000000000               0.000000000               0.000000000               0.000000000              -0.000099897               0.003927230               0.000199799              -0.000528364               0.001485185               0.000956821               0.000000000               0.000000000               0.000000000               0.000000000              -0.000052354               0.003854948               0.000101094              -0.000501500               0.001452137               0.000950637               0.000000000               0.000000000               0.000000000               0.000000000               0.001956343               0.013792330              -0.004014465              -0.000990413               0.004927534               0.003937121               0.000000000               0.000000000               0.000000000               0.000000000              -0.000021011               0.012130718              -0.001811038              -0.001524216               0.004551604               0.003027388               0.000000000               0.000000000               0.000000000               0.000000000              -0.001425051               0.011288426               0.000232715              -0.001945443               0.004411252               0.002465809               0.000000000               0.000000000               0.000000000               0.000000000              -0.001999881               0.010384527               0.000866775              -0.002048016               0.004144146               0.002096130               0.000000000               0.000000000               0.000000000               0.000000000              -0.002166957               0.009536717               0.001030727              -0.002004694               0.003847105               0.001842411               0.000000000               0.000000000               0.000000000               0.000000000              -0.002126746               0.008769683               0.001031160              -0.001893735               0.003554444               0.001660708               0.000000000               0.000000000               0.000000000               0.000000000              -0.001977668               0.008064970               0.000972941              -0.001749743               0.003271544               0.001521801               0.000000000               0.000000000               0.000000000               0.000000000              -0.001766400               0.007414707               0.000893211              -0.001589234               0.003001289               0.001412055               0.000000000               0.000000000               0.000000000               0.000000000              -0.001513885               0.006820028               0.000805415              -0.001420207               0.002746722               0.001326515               0.000000000               0.000000000               0.000000000               0.000000000              -0.001242725               0.006276257               0.000713010              -0.001250551               0.002508915               0.001258364               0.000000000               0.000000000               0.000000000               0.000000000              -0.000975635               0.005788681               0.000620515              -0.001089445               0.002292689               0.001203244               0.000000000               0.000000000               0.000000000               0.000000000              -0.000730783               0.005376077               0.000528506              -0.000946051               0.002107358               0.001161307               0.000000000               0.000000000               0.000000000               0.000000000              -0.000516478               0.005038084               0.000431924              -0.000823438               0.001953824               0.001130386               0.000000000               0.000000000               0.000000000               0.000000000              -0.000332349               0.004774108               0.000331072              -0.000721392               0.001831817               0.001110425               0.000000000               0.000000000               0.000000000               0.000000000              -0.000181611               0.004590688               0.000216060              -0.000641939               0.001744193               0.001102255               0.000000000               0.000000000               0.000000000               0.000000000              -0.000077042               0.004491843               0.000096484              -0.000590370               0.001694056               0.001103686               0.000000000               0.000000000               0.000000000               0.000000000              -0.000036565               0.004468858               0.000040050              -0.000572318               0.001680377               0.001108059               0.000000000               0.000000000               0.000000000               0.000000000               0.001169604               0.010941004              -0.003524880              -0.000929025               0.003956639               0.003027614               0.000000000               0.000000000               0.000000000               0.000000000              -0.000953215               0.010471517              -0.001728319              -0.001666392               0.004045934               0.002379542               0.000000000               0.000000000               0.000000000               0.000000000              -0.002559758               0.010577657              -0.000069309              -0.002282111               0.004286554               0.002004443               0.000000000               0.000000000               0.000000000               0.000000000              -0.002969427               0.010006116               0.000417674              -0.002364294               0.004123437               0.001759143               0.000000000               0.000000000               0.000000000               0.000000000              -0.002913689               0.009295352               0.000549152              -0.002254547               0.003849935               0.001595389               0.000000000               0.000000000               0.000000000               0.000000000              -0.002664185               0.008593080               0.000561419              -0.002073199               0.003555398               0.001482198               0.000000000               0.000000000               0.000000000               0.000000000              -0.002329591               0.007928503               0.000528703              -0.001864655               0.003264360               0.001399705               0.000000000               0.000000000               0.000000000               0.000000000              -0.001964616               0.007307141               0.000481883              -0.001650120               0.002985729               0.001335610               0.000000000               0.000000000               0.000000000               0.000000000              -0.001592637               0.006739644               0.000428020              -0.001439691               0.002726422               0.001286731               0.000000000               0.000000000               0.000000000               0.000000000              -0.001235649               0.006236301               0.000365470              -0.001242903               0.002493047               0.001250144               0.000000000               0.000000000               0.000000000               0.000000000              -0.000916228               0.005808209               0.000305781              -0.001069609               0.002292587               0.001222978               0.000000000               0.000000000               0.000000000               0.000000000              -0.000646166               0.005464279               0.000250249              -0.000925345               0.002129856               0.001204511               0.000000000               0.000000000               0.000000000               0.000000000              -0.000424312               0.005198946               0.000191086              -0.000808983               0.002002626               0.001193642               0.000000000               0.000000000               0.000000000               0.000000000              -0.000246918               0.005005161               0.000133303              -0.000718238               0.001907783               0.001189545               0.000000000               0.000000000               0.000000000               0.000000000              -0.000118434               0.004877676               0.000074003              -0.000654121               0.001843916               0.001189795               0.000000000               0.000000000               0.000000000               0.000000000              -0.000043430               0.004813407               0.000023618              -0.000617961               0.001810440               0.001192479               0.000000000               0.000000000               0.000000000               0.000000000              -0.000022410               0.004797019               0.000005602              -0.000608030               0.001801667               0.001193637               0.000000000               0.000000000               0.000000000               0.000000000               0.000050777               0.008323855              -0.002761825              -0.001021440               0.003115070               0.002093630               0.000000000               0.000000000               0.000000000               0.000000000              -0.001969600               0.008965791              -0.001596409              -0.001859320               0.003608340               0.001749020               0.000000000               0.000000000               0.000000000               0.000000000              -0.003521595               0.009834303              -0.000487355              -0.002549880               0.004128028               0.001578148               0.000000000               0.000000000               0.000000000               0.000000000              -0.003662335               0.009516373              -0.000131589              -0.002562916               0.004026398               0.001463482               0.000000000               0.000000000               0.000000000               0.000000000              -0.003359162               0.008932143               0.000000611              -0.002376198               0.003769417               0.001393219               0.000000000               0.000000000               0.000000000               0.000000000              -0.002910282               0.008301817               0.000050935              -0.002129077               0.003476937               0.001347860               0.000000000               0.000000000               0.000000000               0.000000000              -0.002413805               0.007684997               0.000064442              -0.001865797               0.003183572               0.001317776               0.000000000               0.000000000               0.000000000               0.000000000              -0.001920054               0.007102035               0.000063718              -0.001607771               0.002903245               0.001295474               0.000000000               0.000000000               0.000000000               0.000000000              -0.001459875               0.006573231               0.000058500              -0.001369103               0.002647423               0.001278319               0.000000000               0.000000000               0.000000000               0.000000000              -0.001054041               0.006118594               0.000044527              -0.001160087               0.002426207               0.001266120               0.000000000               0.000000000               0.000000000               0.000000000              -0.000720965               0.005750430               0.000032011              -0.000989163               0.002246512               0.001257349               0.000000000               0.000000000               0.000000000               0.000000000              -0.000457627               0.005464784               0.000027110              -0.000854706               0.002106478               0.001251772               0.000000000               0.000000000               0.000000000               0.000000000              -0.000255621               0.005252054               0.000018538              -0.000752363               0.002001455               0.001249092               0.000000000               0.000000000               0.000000000               0.000000000              -0.000117985               0.005101383               0.000007961              -0.000681916               0.001927749               0.001245834               0.000000000               0.000000000               0.000000000               0.000000000              -0.000041801               0.005004781              -0.000003467              -0.000641271               0.001882001               0.001240729               0.000000000               0.000000000               0.000000000               0.000000000              -0.000013128               0.004955561              -0.000009560              -0.000624366               0.001859959               0.001235593               0.000000000               0.000000000               0.000000000               0.000000000              -0.000012750               0.004938642              -0.000007143              -0.000622110               0.001853567               0.001231457               0.000000000               0.000000000               0.000000000               0.000000000              -0.001255462               0.006130326              -0.001848960              -0.001237087               0.002455783               0.001218696               0.000000000               0.000000000               0.000000000               0.000000000              -0.002957268               0.007619013              -0.001455060              -0.002061348               0.003226761               0.001165414               0.000000000               0.000000000               0.000000000               0.000000000              -0.004270241               0.009072324              -0.000982040              -0.002735374               0.003935869               0.001200495               0.000000000               0.000000000               0.000000000               0.000000000              -0.004130612               0.009025092              -0.000707465              -0.002677110               0.003900704               0.001223594               0.000000000               0.000000000               0.000000000               0.000000000              -0.003623599               0.008599083              -0.000546008              -0.002433729               0.003677575               0.001243846               0.000000000               0.000000000               0.000000000               0.000000000              -0.003020337               0.008063859              -0.000442318              -0.002140603               0.003401461               0.001260857               0.000000000               0.000000000               0.000000000               0.000000000              -0.002404535               0.007506792              -0.000370690              -0.001840045               0.003115587               0.001275542               0.000000000               0.000000000               0.000000000               0.000000000              -0.001816606               0.006974170              -0.000318189              -0.001552995               0.002842365               0.001289370               0.000000000               0.000000000               0.000000000               0.000000000              -0.001288411               0.006492016              -0.000272906              -0.001294653               0.002595535               0.001300882               0.000000000               0.000000000               0.000000000               0.000000000              -0.000850382               0.006078100              -0.000232346              -0.001078653               0.002385564               0.001306911               0.000000000               0.000000000               0.000000000               0.000000000              -0.000504107               0.005750146              -0.000192846              -0.000907806               0.002219298               0.001311492               0.000000000               0.000000000               0.000000000               0.000000000              -0.000246757               0.005494094              -0.000146102              -0.000779294               0.002091111               0.001311817               0.000000000               0.000000000               0.000000000               0.000000000              -0.000076968               0.005295486              -0.000103871              -0.000690797               0.001995410               0.001304613               0.000000000               0.000000000               0.000000000               0.000000000               0.000011171               0.005149377              -0.000070783              -0.000639481               0.001929602               0.001290121               0.000000000               0.000000000               0.000000000               0.000000000               0.000033789               0.005054293              -0.000044185              -0.000619114               0.001891119               0.001272005               0.000000000               0.000000000               0.000000000               0.000000000               0.000014742               0.005002397              -0.000021779              -0.000619770               0.001874039               0.001254269               0.000000000               0.000000000               0.000000000               0.000000000              -0.000005969               0.004983191              -0.000009140              -0.000625136               0.001869426               0.001244290               0.000000000               0.000000000               0.000000000               0.000000000              -0.002762166               0.004114535              -0.000902137              -0.001550125               0.001888206               0.000338080               0.000000000               0.000000000               0.000000000               0.000000000              -0.003793754               0.006054188              -0.001300972              -0.002179426               0.002744518               0.000565091               0.000000000               0.000000000               0.000000000               0.000000000              -0.004722192               0.007929163              -0.001493837              -0.002761961               0.003563681               0.000801721               0.000000000               0.000000000               0.000000000               0.000000000              -0.004430519               0.008290552              -0.001307161              -0.002697757               0.003662742               0.000964985               0.000000000               0.000000000               0.000000000               0.000000000              -0.003845727               0.008148151              -0.001113257              -0.002460661               0.003536243               0.001075583               0.000000000               0.000000000               0.000000000               0.000000000              -0.003195690               0.007815980              -0.000955532              -0.002175376               0.003330426               0.001155050               0.000000000               0.000000000               0.000000000               0.000000000              -0.002546742               0.007414333              -0.000826830              -0.001881815               0.003098691               0.001216876               0.000000000               0.000000000               0.000000000               0.000000000              -0.001929963               0.006999541              -0.000720301              -0.001598675               0.002866049               0.001267374               0.000000000               0.000000000               0.000000000               0.000000000              -0.001370587               0.006598318              -0.000623547              -0.001338757               0.002645669               0.001306913               0.000000000               0.000000000               0.000000000               0.000000000              -0.000893003               0.006236609              -0.000532846              -0.001114450               0.002450332               0.001335882               0.000000000               0.000000000               0.000000000               0.000000000              -0.000509796               0.005922798              -0.000446993              -0.000931521               0.002284753               0.001353232               0.000000000               0.000000000               0.000000000               0.000000000              -0.000216360               0.005664227              -0.000354939              -0.000789161               0.002151111               0.001361949               0.000000000               0.000000000               0.000000000               0.000000000              -0.000018404               0.005447885              -0.000260865              -0.000687886               0.002045239               0.001357353               0.000000000               0.000000000               0.000000000               0.000000000               0.000086477               0.005270136              -0.000175204              -0.000626337               0.001965473               0.001339137               0.000000000               0.000000000               0.000000000               0.000000000               0.000109628               0.005133236              -0.000098417              -0.000600542               0.001911242               0.001310700               0.000000000               0.000000000               0.000000000               0.000000000               0.000073047               0.005041478              -0.000037765              -0.000602791               0.001881406               0.001278615               0.000000000               0.000000000               0.000000000               0.000000000               0.000031474               0.005001479              -0.000008023              -0.000613380               0.001871603               0.001258223               0.000000000               0.000000000               0.000000000               0.000000000              -0.004666184               0.002299260               0.000005168              -0.002037223               0.001445485              -0.000591738               0.000000000               0.000000000               0.000000000               0.000000000              -0.004744446               0.004478232              -0.001085859              -0.002338941               0.002272375              -0.000066566               0.000000000               0.000000000               0.000000000               0.000000000              -0.005100064               0.006575544              -0.001901935              -0.002734461               0.003103312               0.000368852               0.000000000               0.000000000               0.000000000               0.000000000              -0.004667158               0.007315481              -0.001871333              -0.002664613               0.003326673               0.000662060               0.000000000               0.000000000               0.000000000               0.000000000              -0.004039838               0.007490873              -0.001680157              -0.002451292               0.003314030               0.000862737               0.000000000               0.000000000               0.000000000               0.000000000              -0.003375717               0.007407748              -0.001485332              -0.002191857               0.003199844               0.001007986               0.000000000               0.000000000               0.000000000               0.000000000              -0.002719458               0.007207482              -0.001310727              -0.001920728               0.003042712               0.001121985               0.000000000               0.000000000               0.000000000               0.000000000              -0.002091300               0.006951797              -0.001157411              -0.001653208               0.002868312               0.001215103               0.000000000               0.000000000               0.000000000               0.000000000              -0.001510875               0.006668805              -0.001016276              -0.001400176               0.002689638               0.001289462               0.000000000               0.000000000               0.000000000               0.000000000              -0.000991138               0.006381878              -0.000887186              -0.001169409               0.002517074               0.001347665               0.000000000               0.000000000               0.000000000               0.000000000              -0.000546569               0.006104784              -0.000768299              -0.000968059               0.002357594               0.001389535               0.000000000               0.000000000               0.000000000               0.000000000              -0.000184723               0.005851635              -0.000641894              -0.000800724               0.002217434               0.001416710               0.000000000               0.000000000               0.000000000               0.000000000               0.000080437               0.005623543              -0.000502159              -0.000672777               0.002098755               0.001425977               0.000000000               0.000000000               0.000000000               0.000000000               0.000241834               0.005424398              -0.000360043              -0.000587361               0.002003901               0.001416541               0.000000000               0.000000000               0.000000000               0.000000000               0.000303501               0.005249570              -0.000221508              -0.000542382               0.001930633               0.001388251               0.000000000               0.000000000               0.000000000               0.000000000               0.000276157               0.005106323              -0.000098779              -0.000534730               0.001880334               0.001345604               0.000000000               0.000000000               0.000000000               0.000000000               0.000218456               0.005029816              -0.000034903              -0.000546805               0.001858857               0.001312052               0.000000000               0.000000000               0.000000000               0.000000000              -0.006836463               0.000836750               0.000788043              -0.002668264               0.001168330              -0.001499934               0.000000000               0.000000000               0.000000000               0.000000000              -0.005844641               0.003002245              -0.000799716              -0.002567016               0.001856408              -0.000710609               0.000000000               0.000000000               0.000000000               0.000000000              -0.005421751               0.005031541              -0.002101953              -0.002662094               0.002564527              -0.000097567               0.000000000               0.000000000               0.000000000               0.000000000              -0.004758844               0.006025651              -0.002268339              -0.002537767               0.002854452               0.000316685               0.000000000               0.000000000               0.000000000               0.000000000              -0.004065426               0.006493883              -0.002131223              -0.002336265               0.002943360               0.000607095               0.000000000               0.000000000               0.000000000               0.000000000              -0.003389860               0.006676134              -0.001931484              -0.002105710               0.002927258               0.000821549               0.000000000               0.000000000               0.000000000               0.000000000              -0.002739392               0.006701063              -0.001734254              -0.001864901               0.002855298               0.000990398               0.000000000               0.000000000               0.000000000               0.000000000              -0.002114282               0.006633963              -0.001552167              -0.001622098               0.002751998               0.001129900               0.000000000               0.000000000               0.000000000               0.000000000              -0.001521786               0.006503543              -0.001383622              -0.001383610               0.002629029               0.001245419               0.000000000               0.000000000               0.000000000               0.000000000              -0.000974841               0.006326281              -0.001231702              -0.001156348               0.002494188               0.001337840               0.000000000               0.000000000               0.000000000               0.000000000              -0.000481250               0.006125219              -0.001093557              -0.000946119               0.002357092               0.001410973               0.000000000               0.000000000               0.000000000               0.000000000              -0.000053510               0.005916341              -0.000943221              -0.000759607               0.002225296               0.001465689               0.000000000               0.000000000               0.000000000               0.000000000               0.000289565               0.005709844              -0.000769063              -0.000605142               0.002104976               0.001499834               0.000000000               0.000000000               0.000000000               0.000000000               0.000532953               0.005511513              -0.000582699              -0.000489081               0.002000179               0.001511099               0.000000000               0.000000000               0.000000000               0.000000000               0.000671981               0.005322589              -0.000390298              -0.000413330               0.001911955               0.001498625               0.000000000               0.000000000               0.000000000               0.000000000               0.000699032               0.005149566              -0.000193662              -0.000381558               0.001843691               0.001462133               0.000000000               0.000000000               0.000000000               0.000000000               0.000660533               0.005055674              -0.000088668              -0.000384258               0.001813294               0.001429035               0.000000000               0.000000000               0.000000000               0.000000000              -0.009118623              -0.000198159               0.001327101              -0.003394711               0.001065510              -0.002329201               0.000000000               0.000000000               0.000000000               0.000000000              -0.007023577               0.001698089              -0.000490997              -0.002846099               0.001514719              -0.001331380               0.000000000               0.000000000               0.000000000               0.000000000              -0.005702493               0.003426649              -0.002063377              -0.002566761               0.001997789              -0.000568972               0.000000000               0.000000000               0.000000000               0.000000000              -0.004725839               0.004539019              -0.002403409              -0.002339562               0.002292844              -0.000046718               0.000000000               0.000000000               0.000000000               0.000000000              -0.003928796               0.005232006              -0.002352548              -0.002127295               0.002453082               0.000325787               0.000000000               0.000000000               0.000000000               0.000000000              -0.003229369               0.005658698              -0.002183330              -0.001918347               0.002525662               0.000607315               0.000000000               0.000000000               0.000000000               0.000000000              -0.002585060               0.005908885              -0.001991282              -0.001708005               0.002538943               0.000830938               0.000000000               0.000000000               0.000000000               0.000000000              -0.001972298               0.006037731              -0.001806373              -0.001494325               0.002510665               0.001016340               0.000000000               0.000000000               0.000000000               0.000000000              -0.001381397               0.006076125              -0.001631233              -0.001277537               0.002451200               0.001173663               0.000000000               0.000000000               0.000000000               0.000000000              -0.000819056               0.006041312              -0.001472624              -0.001062308               0.002367853               0.001305545               0.000000000               0.000000000               0.000000000               0.000000000              -0.000296947               0.005955736              -0.001328250              -0.000855821               0.002270499               0.001414678               0.000000000               0.000000000               0.000000000               0.000000000               0.000180287               0.005830049              -0.001172017              -0.000661147               0.002163712               0.001502565               0.000000000               0.000000000               0.000000000               0.000000000               0.000606652               0.005675694              -0.000988416              -0.000481967               0.002052534               0.001570568               0.000000000               0.000000000               0.000000000               0.000000000               0.000960616               0.005505701              -0.000783612              -0.000327981               0.001944542               0.001616561               0.000000000               0.000000000               0.000000000               0.000000000               0.001223270               0.005334977              -0.000555004              -0.000208146               0.001847690               0.001639544               0.000000000               0.000000000               0.000000000               0.000000000               0.001376262               0.005169286              -0.000292467              -0.000130062               0.001766432               0.001636370               0.000000000               0.000000000               0.000000000               0.000000000               0.001421017               0.005086201              -0.000152795              -0.000102894               0.001729681               0.001626787               0.000000000               0.000000000               0.000000000               0.000000000              -0.011287122              -0.000827296               0.001514860              -0.004129256               0.001100645              -0.003028611               0.000000000               0.000000000               0.000000000               0.000000000              -0.008181338               0.000645629              -0.000223082              -0.003148702               0.001264768              -0.001883934               0.000000000               0.000000000               0.000000000               0.000000000              -0.005958568               0.001933378              -0.001785055              -0.002476132               0.001469826              -0.001006306               0.000000000               0.000000000               0.000000000               0.000000000              -0.004619494               0.003037336              -0.002215454              -0.002111974               0.001716424              -0.000395550               0.000000000               0.000000000               0.000000000               0.000000000              -0.003680887               0.003867576              -0.002244922              -0.001863776               0.001910436               0.000046661               0.000000000               0.000000000               0.000000000               0.000000000              -0.002938996               0.004483043              -0.002131780              -0.001662501               0.002048499               0.000385998               0.000000000               0.000000000               0.000000000               0.000000000              -0.002289784               0.004932066              -0.001976047              -0.001475174               0.002135730               0.000660555               0.000000000               0.000000000               0.000000000               0.000000000              -0.001689382               0.005244169              -0.001816853              -0.001289037               0.002177717               0.000888680               0.000000000               0.000000000               0.000000000               0.000000000              -0.001111262               0.005452964              -0.001659653              -0.001098342               0.002183750               0.001085408               0.000000000               0.000000000               0.000000000               0.000000000              -0.000552615               0.005577142              -0.001510772              -0.000904372               0.002160486               0.001256114               0.000000000               0.000000000               0.000000000               0.000000000              -0.000016561               0.005627747              -0.001371382              -0.000709678               0.002112456               0.001402778               0.000000000               0.000000000               0.000000000               0.000000000               0.000499013               0.005614990              -0.001229877              -0.000514743               0.002043225               0.001528482               0.000000000               0.000000000               0.000000000               0.000000000               0.001001716               0.005547407              -0.001066311              -0.000317782               0.001955045               0.001637262               0.000000000               0.000000000               0.000000000               0.000000000               0.001474999               0.005435822              -0.000870976              -0.000126353               0.001854040               0.001727687               0.000000000               0.000000000               0.000000000               0.000000000               0.001896938               0.005298678              -0.000639212               0.000049016               0.001749870               0.001798886               0.000000000               0.000000000               0.000000000               0.000000000               0.002253041               0.005155398              -0.000350726               0.000200464               0.001651628               0.001852091               0.000000000               0.000000000               0.000000000               0.000000000               0.002461943               0.005103984              -0.000199503               0.000285228               0.001606235               0.001891463               0.000000000               0.000000000               0.000000000               0.000000000              -0.013094360              -0.001129765               0.001306935              -0.004769161               0.001213123              -0.003556038               0.000000000               0.000000000               0.000000000               0.000000000              -0.009181893              -0.000100518              -0.000051392              -0.003430642               0.001110034              -0.002320609               0.000000000               0.000000000               0.000000000               0.000000000              -0.006187508               0.000724397              -0.001306774              -0.002410863               0.001045079              -0.001365783               0.000000000               0.000000000               0.000000000               0.000000000              -0.004504229               0.001738393              -0.001703422              -0.001906382               0.001214916              -0.000691466               0.000000000               0.000000000               0.000000000               0.000000000              -0.003409547               0.002631779              -0.001771880              -0.001607550               0.001413099              -0.000194450               0.000000000               0.000000000               0.000000000               0.000000000              -0.002601392               0.003368513              -0.001715171              -0.001396583               0.001588354               0.000191770               0.000000000               0.000000000               0.000000000               0.000000000              -0.001933772               0.003964780              -0.001613106              -0.001220760               0.001728499               0.000507740               0.000000000               0.000000000               0.000000000               0.000000000              -0.001339955               0.004427949              -0.001500565              -0.001055975               0.001827959               0.000771985               0.000000000               0.000000000               0.000000000               0.000000000              -0.000779099               0.004782830              -0.001382655              -0.000890014               0.001890932               0.001000917               0.000000000               0.000000000               0.000000000               0.000000000              -0.000232359               0.005041770              -0.001265606              -0.000717355               0.001919691               0.001202336               0.000000000               0.000000000               0.000000000               0.000000000               0.000311503               0.005208713              -0.001156128              -0.000534275               0.001914312               0.001380037               0.000000000               0.000000000               0.000000000               0.000000000               0.000863025               0.005306876              -0.001046178              -0.000339725               0.001882182               0.001542458               0.000000000               0.000000000               0.000000000               0.000000000               0.001423227               0.005340968              -0.000918527              -0.000133911               0.001824942               0.001691030               0.000000000               0.000000000               0.000000000               0.000000000               0.001999028               0.005310310              -0.000760339               0.000085845               0.001741470               0.001827316               0.000000000               0.000000000               0.000000000               0.000000000               0.002589263               0.005230084              -0.000565488               0.000317210               0.001637607               0.001954817               0.000000000               0.000000000               0.000000000               0.000000000               0.003190692               0.005122109              -0.000313806               0.000556240               0.001521939               0.002078180               0.000000000               0.000000000               0.000000000               0.000000000               0.003615550               0.005109162              -0.000186612               0.000717179               0.001463977               0.002181156               0.000000000               0.000000000               0.000000000               0.000000000              -0.014301277              -0.001239692               0.000755129              -0.005208014               0.001322765              -0.003885249               0.000000000               0.000000000               0.000000000               0.000000000              -0.009865969              -0.000538320               0.000011434              -0.003632446               0.001031368              -0.002601077               0.000000000               0.000000000               0.000000000               0.000000000              -0.006354819              -0.000057901              -0.000688241              -0.002375818               0.000772634              -0.001603184               0.000000000               0.000000000               0.000000000               0.000000000              -0.004422225               0.000857968              -0.000926943              -0.001765578               0.000874509              -0.000891069               0.000000000               0.000000000               0.000000000               0.000000000              -0.003203494               0.001761957              -0.000981058              -0.001421552               0.001061162              -0.000360390               0.000000000               0.000000000               0.000000000               0.000000000              -0.002333737               0.002558159              -0.000961682              -0.001194919               0.001251017               0.000056098               0.000000000               0.000000000               0.000000000               0.000000000              -0.001643612               0.003238591              -0.000912835              -0.001021176               0.001419911               0.000398735               0.000000000               0.000000000               0.000000000               0.000000000              -0.001047112               0.003802253              -0.000853842              -0.000867947               0.001556720               0.000688774               0.000000000               0.000000000               0.000000000               0.000000000              -0.000494329               0.004256571              -0.000789522              -0.000717443               0.001657990               0.000940547               0.000000000               0.000000000               0.000000000               0.000000000               0.000049491               0.004603700              -0.000725153              -0.000556902               0.001720185               0.001163283               0.000000000               0.000000000               0.000000000               0.000000000               0.000597824               0.004852161              -0.000666992              -0.000382336               0.001744816               0.001362480               0.000000000               0.000000000               0.000000000               0.000000000               0.001165203               0.005023522              -0.000606418              -0.000190989               0.001738153               0.001547165               0.000000000               0.000000000               0.000000000               0.000000000               0.001762870               0.005127166              -0.000533043               0.000020180               0.001702312               0.001722491               0.000000000               0.000000000               0.000000000               0.000000000               0.002410623               0.005167946              -0.000443336               0.000257988               0.001636635               0.001894623               0.000000000               0.000000000               0.000000000               0.000000000               0.003125584               0.005150530              -0.000330714               0.000528272               0.001540735               0.002069008               0.000000000               0.000000000               0.000000000               0.000000000               0.003924489               0.005085634              -0.000182756               0.000835971               0.001416538               0.002252508               0.000000000               0.000000000               0.000000000               0.000000000               0.004530435               0.005108302              -0.000110597               0.001060365               0.001349295               0.002409660               0.000000000               0.000000000               0.000000000               0.000000000               0.000000000               0.000000000               0.000000000               0.000000000               0.000000000               0.000000000               0.000000000               0.000000000               0.000000000               0.000000000               0.000000000               0.000000000               0.000000000               0.000000000               0.000000000               0.000000000               0.000000000               0.000000000               0.000000000               0.000000000               0.000000000               0.000000000               0.000000000               0.000000000               0.000000000               0.000000000               0.000000000               0.000000000               0.000000000               0.000000000               0.000000000               0.000000000               0.000000000               0.000000000               0.000000000               0.000000000               0.000000000               0.000000000               0.000000000               0.000000000               0.000000000               0.000000000               0.000000000               0.000000000               0.000000000               0.000000000               0.000000000               0.000000000               0.000000000               0.000000000               0.000000000               0.000000000               0.000000000               0.000000000               0.000000000               0.000000000               0.000000000               0.000000000               0.000000000               0.000000000               0.000000000               0.000000000               0.000000000               0.000000000               0.000000000               0.000000000               0.000000000               0.000000000               0.000000000               0.000000000               0.000000000               0.000000000               0.000000000               0.000000000               0.000000000               0.000000000               0.000000000               0.000000000               0.000000000               0.000000000               0.000000000               0.000000000               0.000000000               0.000000000               0.000000000               0.000000000               0.000000000               0.000000000               0.000000000               0.000000000               0.000000000               0.000000000               0.000000000               0.000000000               0.000000000               0.000000000               0.000000000               0.000000000               0.000000000               0.000000000               0.000000000               0.000000000               0.000000000               0.000000000               0.000000000               0.000000000               0.000000000               0.000000000               0.000000000               0.000000000               0.000000000               0.000000000               0.000000000               0.000000000               0.000000000               0.000000000               0.000000000               0.000000000               0.000000000               0.000000000               0.000000000               0.000000000               0.000000000               0.000000000               0.000000000               0.000000000               0.000000000               0.000000000               0.000000000               0.000000000               0.000000000               0.000000000               0.000000000               0.000000000               0.000000000               0.000000000               0.000000000               0.000000000               0.000000000               0.000000000               0.000000000               0.000000000               0.000000000               0.000000000               0.000000000               0.000000000               0.000000000               0.000000000               0.000000000               0.000000000               0.000000000               0.000000000               0.000000000               0.000000000               0.000000000               0.000000000               0.000000000               0.000000000               0.000000000               0.000000000               0.000000000               0.000000000               0.000000000               0.000000000               0.000000000               0.000000000               0.000000000               0.000000000               0.000000000               0.000000000               0.000000000               0.000000000               0.000000000               0.000000000               0.000000000               0.000000000               0.000000000               0.000000000               0.000000000               0.000000000               0.000000000               0.000000000               0.000000000               0.000000000               0.000000000               0.000000000               0.000000000               0.000000000               0.000000000               0.000000000               0.000000000               0.000000000               0.000000000               0.000000000               0.000000000               0.000000000               0.000000000               0.000000000               0.000000000               0.000000000               0.000000000               0.000000000               0.000000000               0.000000000               0.000000000               0.000000000               0.000000000               0.000000000               0.000000000               0.000000000               0.000000000               0.000000000               0.000000000               0.000000000               0.000000000               0.000000000               0.000000000               0.000000000               0.000000000               0.000000000               0.000000000               0.000000000               0.000000000               0.000000000               0.000000000               0.000000000               0.000000000               0.000000000               0.000000000               0.000000000               0.000000000               0.000000000               0.000000000               0.000000000               0.000000000               0.000000000               0.000000000               0.000000000               0.000000000               0.000000000               0.000000000               0.000000000               0.000000000               0.000000000               0.000000000               0.000000000               0.000000000               0.000000000               0.000000000               0.000000000               0.000000000               0.000000000               0.000000000               0.000000000               0.000000000               0.000000000               0.000000000               0.000000000               0.000000000               0.000000000               0.000000000               0.000000000               0.000000000               0.000000000               0.000000000               0.000000000               0.000000000               0.000000000               0.000000000               0.000000000               0.000000000               0.000000000               0.000000000               0.000000000               0.000000000               0.000000000               0.000000000               0.000000000               0.000000000               0.000000000               0.000000000               0.000000000               0.000000000               0.000000000               0.000000000               0.000000000               0.000000000               0.000000000               0.000000000               0.000000000               0.000000000               0.000000000               0.000000000               0.000000000               0.000000000               0.000000000               0.000000000               0.000000000               0.000000000               0.000000000               0.000000000               0.000000000               0.000000000               0.000000000               0.000000000               0.000000000               0.000000000               0.000000000               0.000000000               0.000000000               0.000000000               0.000000000               0.000000000               0.000000000               0.000000000               0.000000000               0.000000000               0.000000000               0.000000000               0.000000000               0.000000000               0.000000000               0.000000000               0.000000000               0.000000000               0.000000000               0.000000000               0.000000000               0.000000000               0.000000000               0.000000000               0.000000000               0.000000000               0.000000000               0.000000000               0.000000000               0.000000000               0.000000000               0.000000000               0.000000000               0.002245101               0.023102583               0.001546686              -0.002045905               0.008382752               0.006336847               0.000000000               0.000000000               0.000000000               0.000000000               0.001984536               0.017776199               0.000677663              -0.001477820               0.006417947               0.004940127               0.000000000               0.000000000               0.000000000               0.000000000               0.002395606               0.013495805              -0.000179808              -0.000788621               0.004761431               0.003972809               0.000000000               0.000000000               0.000000000               0.000000000               0.002104559               0.011070235              -0.000528267              -0.000594569               0.003888231               0.003293662               0.000000000               0.000000000               0.000000000               0.000000000               0.001664746               0.009516418              -0.000657318              -0.000565271               0.003360531               0.002795260               0.000000000               0.000000000               0.000000000               0.000000000               0.001247981               0.008407712              -0.000692552              -0.000582970               0.002996866               0.002413896               0.000000000               0.000000000               0.000000000               0.000000000               0.000891364               0.007541066              -0.000685699              -0.000608371               0.002716454               0.002108083               0.000000000               0.000000000               0.000000000               0.000000000               0.000603059               0.006810134              -0.000657015              -0.000625118               0.002478395               0.001853276               0.000000000               0.000000000               0.000000000               0.000000000               0.000384055               0.006149294              -0.000618680              -0.000624640               0.002257957               0.001633318               0.000000000               0.000000000               0.000000000               0.000000000               0.000219274               0.005522813              -0.000578994              -0.000608123               0.002043627               0.001435504               0.000000000               0.000000000               0.000000000               0.000000000               0.000094004               0.004905723              -0.000539385              -0.000577963               0.001827879               0.001249916               0.000000000               0.000000000               0.000000000               0.000000000               0.000005744               0.004283487              -0.000495707              -0.000533281               0.001605575               0.001072294               0.000000000               0.000000000               0.000000000               0.000000000              -0.000050389               0.003642963              -0.000448034              -0.000474265               0.001372397               0.000898132               0.000000000               0.000000000               0.000000000               0.000000000              -0.000079913               0.002974614              -0.000392112              -0.000401793               0.001125459               0.000723666               0.000000000               0.000000000               0.000000000               0.000000000              -0.000082079               0.002265934              -0.000310189              -0.000314021               0.000859977               0.000545956               0.000000000               0.000000000               0.000000000               0.000000000              -0.000051756               0.001495017              -0.000180190              -0.000206285               0.000567096               0.000360810               0.000000000               0.000000000               0.000000000               0.000000000              -0.000088724               0.000919721              -0.000112361              -0.000148236               0.000355983               0.000207746               0.000000000               0.000000000               0.000000000               0.000000000               0.002386515               0.021639015               0.002854347              -0.001809930               0.007816243               0.006006312               0.000000000               0.000000000               0.000000000               0.000000000               0.001771495               0.016854055               0.001242374              -0.001442443               0.006098776               0.004656334               0.000000000               0.000000000               0.000000000               0.000000000               0.001807256               0.013133750              -0.000329389              -0.000963995               0.004699205               0.003735209               0.000000000               0.000000000               0.000000000               0.000000000               0.001388452               0.010993641              -0.000943313              -0.000853534               0.003949022               0.003095488               0.000000000               0.000000000               0.000000000               0.000000000               0.000936682               0.009588238              -0.001160668              -0.000847272               0.003478471               0.002631199               0.000000000               0.000000000               0.000000000               0.000000000               0.000558387               0.008558193              -0.001210521              -0.000860377               0.003139495               0.002279117               0.000000000               0.000000000               0.000000000               0.000000000               0.000264084               0.007730790              -0.001189390              -0.000867315               0.002866009               0.001998694               0.000000000               0.000000000               0.000000000               0.000000000               0.000048287               0.007015528              -0.001133156              -0.000858831               0.002624763               0.001765931               0.000000000               0.000000000               0.000000000               0.000000000              -0.000094653               0.006366441              -0.001061162              -0.000831298               0.002399225               0.001567927               0.000000000               0.000000000               0.000000000               0.000000000              -0.000180835               0.005751987              -0.000987124              -0.000786810               0.002179580               0.001392770               0.000000000               0.000000000               0.000000000               0.000000000              -0.000224504               0.005154471              -0.000911892              -0.000728496               0.001960972               0.001232475               0.000000000               0.000000000               0.000000000               0.000000000              -0.000233608               0.004561714              -0.000832265              -0.000657816               0.001739828               0.001082012               0.000000000               0.000000000               0.000000000               0.000000000              -0.000218047               0.003969775              -0.000746332              -0.000577988               0.001515908               0.000937919               0.000000000               0.000000000               0.000000000               0.000000000              -0.000185460               0.003381146              -0.000644685              -0.000492190               0.001291100               0.000798911               0.000000000               0.000000000               0.000000000               0.000000000              -0.000138054               0.002794495              -0.000500969              -0.000401081               0.001065183               0.000664101               0.000000000               0.000000000               0.000000000               0.000000000              -0.000075644               0.002212294              -0.000287106              -0.000304902               0.000839058               0.000534155               0.000000000               0.000000000               0.000000000               0.000000000              -0.000080534               0.001814959              -0.000174233              -0.000257070               0.000690670               0.000433601               0.000000000               0.000000000               0.000000000               0.000000000               0.002478222               0.019413123               0.003738142              -0.001497305               0.006970077               0.005472772               0.000000000               0.000000000               0.000000000               0.000000000               0.001373699               0.015481041               0.001617745              -0.001419990               0.005633625               0.004213635               0.000000000               0.000000000               0.000000000               0.000000000               0.000897110               0.012605380              -0.000416476              -0.001239253               0.004614836               0.003375582               0.000000000               0.000000000               0.000000000               0.000000000               0.000345669               0.010865974              -0.001161841              -0.001228618               0.004031494               0.002802876               0.000000000               0.000000000               0.000000000               0.000000000              -0.000083328               0.009653623              -0.001403050              -0.001237948               0.003630492               0.002392543               0.000000000               0.000000000               0.000000000               0.000000000              -0.000377991               0.008718630              -0.001441843              -0.001231573               0.003316705               0.002085132               0.000000000               0.000000000               0.000000000               0.000000000              -0.000562588               0.007939516              -0.001397264              -0.001203407               0.003047614               0.001844207               0.000000000               0.000000000               0.000000000               0.000000000              -0.000658857               0.007248719              -0.001316957              -0.001153159               0.002800602               0.001647443               0.000000000               0.000000000               0.000000000               0.000000000              -0.000685659               0.006614491              -0.001221475              -0.001083931               0.002566118               0.001482187               0.000000000               0.000000000               0.000000000               0.000000000              -0.000660735               0.006016273              -0.001123723              -0.000999808               0.002338673               0.001338866               0.000000000               0.000000000               0.000000000               0.000000000              -0.000594146               0.005445888              -0.001024991              -0.000903539               0.002116457               0.001212919               0.000000000               0.000000000               0.000000000               0.000000000              -0.000502472               0.004897423              -0.000920038              -0.000800603               0.001899326               0.001098722               0.000000000               0.000000000               0.000000000               0.000000000              -0.000402562               0.004379944              -0.000811300              -0.000698452               0.001692784               0.000994332               0.000000000               0.000000000               0.000000000               0.000000000              -0.000299737               0.003902711              -0.000685003              -0.000600239               0.001500970               0.000900731               0.000000000               0.000000000               0.000000000               0.000000000              -0.000194056               0.003474827              -0.000514285              -0.000507123               0.001327305               0.000820182               0.000000000               0.000000000               0.000000000               0.000000000              -0.000093901               0.003114176              -0.000282908              -0.000424484               0.001179543               0.000755059               0.000000000               0.000000000               0.000000000               0.000000000              -0.000062852               0.002911566              -0.000159526              -0.000387514               0.001099684               0.000712170               0.000000000               0.000000000               0.000000000               0.000000000               0.002371478               0.016701197               0.004116218              -0.001198345               0.005966458               0.004768113               0.000000000               0.000000000               0.000000000               0.000000000               0.000769950               0.013848370               0.001792988              -0.001442312               0.005096848               0.003654535               0.000000000               0.000000000               0.000000000               0.000000000              -0.000227623               0.011974115              -0.000395595              -0.001582119               0.004518705               0.002936585               0.000000000               0.000000000               0.000000000               0.000000000              -0.000845713               0.010667460              -0.001134492              -0.001650571               0.004105975               0.002455404               0.000000000               0.000000000               0.000000000               0.000000000              -0.001181526               0.009650663              -0.001345787              -0.001649401               0.003766656               0.002117254               0.000000000               0.000000000               0.000000000               0.000000000              -0.001332565               0.008807608              -0.001359929              -0.001600659               0.003469393               0.001868734               0.000000000               0.000000000               0.000000000               0.000000000              -0.001363942               0.008068944              -0.001300031              -0.001520093               0.003196319               0.001676226               0.000000000               0.000000000               0.000000000               0.000000000              -0.001311492               0.007399748              -0.001208460              -0.001416775               0.002938816               0.001522041               0.000000000               0.000000000               0.000000000               0.000000000              -0.001200694               0.006780922              -0.001105766              -0.001297873               0.002692909               0.001395036               0.000000000               0.000000000               0.000000000               0.000000000              -0.001047713               0.006207761              -0.001001720              -0.001168860               0.002458853               0.001289993               0.000000000               0.000000000               0.000000000               0.000000000              -0.000869308               0.005671958              -0.000896113              -0.001034983               0.002235628               0.001200645               0.000000000               0.000000000               0.000000000               0.000000000              -0.000683950               0.005187149              -0.000786763              -0.000904873               0.002030657               0.001125784               0.000000000               0.000000000               0.000000000               0.000000000              -0.000511092               0.004761246              -0.000675066              -0.000786813               0.001849337               0.001062524               0.000000000               0.000000000               0.000000000               0.000000000              -0.000356819               0.004398629              -0.000548999              -0.000683634               0.001694073               0.001010439               0.000000000               0.000000000               0.000000000               0.000000000              -0.000215624               0.004115695              -0.000389956              -0.000595320               0.001570325               0.000975005               0.000000000               0.000000000               0.000000000               0.000000000              -0.000099897               0.003927230              -0.000199799              -0.000528364               0.001485185               0.000956821               0.000000000               0.000000000               0.000000000               0.000000000              -0.000052354               0.003854948              -0.000101094              -0.000501500               0.001452137               0.000950637               0.000000000               0.000000000               0.000000000               0.000000000               0.001956343               0.013792330               0.004014465              -0.000990413               0.004927534               0.003937121               0.000000000               0.000000000               0.000000000               0.000000000              -0.000021011               0.012130718               0.001811038              -0.001524216               0.004551604               0.003027388               0.000000000               0.000000000               0.000000000               0.000000000              -0.001425051               0.011288426              -0.000232715              -0.001945443               0.004411252               0.002465809               0.000000000               0.000000000               0.000000000               0.000000000              -0.001999881               0.010384527              -0.000866775              -0.002048016               0.004144146               0.002096130               0.000000000               0.000000000               0.000000000               0.000000000              -0.002166957               0.009536717              -0.001030727              -0.002004694               0.003847105               0.001842411               0.000000000               0.000000000               0.000000000               0.000000000              -0.002126746               0.008769683              -0.001031160              -0.001893735               0.003554444               0.001660708               0.000000000               0.000000000               0.000000000               0.000000000              -0.001977668               0.008064970              -0.000972941              -0.001749743               0.003271544               0.001521801               0.000000000               0.000000000               0.000000000               0.000000000              -0.001766400               0.007414707              -0.000893211              -0.001589234               0.003001289               0.001412055               0.000000000               0.000000000               0.000000000               0.000000000              -0.001513885               0.006820028              -0.000805415              -0.001420207               0.002746722               0.001326515               0.000000000               0.000000000               0.000000000               0.000000000              -0.001242725               0.006276257              -0.000713010              -0.001250551               0.002508915               0.001258364               0.000000000               0.000000000               0.000000000               0.000000000              -0.000975635               0.005788681              -0.000620515              -0.001089445               0.002292689               0.001203244               0.000000000               0.000000000               0.000000000               0.000000000              -0.000730783               0.005376077              -0.000528506              -0.000946051               0.002107358               0.001161307               0.000000000               0.000000000               0.000000000               0.000000000              -0.000516478               0.005038084              -0.000431924              -0.000823438               0.001953824               0.001130386               0.000000000               0.000000000               0.000000000               0.000000000              -0.000332349               0.004774108              -0.000331072              -0.000721392               0.001831817               0.001110425               0.000000000               0.000000000               0.000000000               0.000000000              -0.000181611               0.004590688              -0.000216060              -0.000641939               0.001744193               0.001102255               0.000000000               0.000000000               0.000000000               0.000000000              -0.000077042               0.004491843              -0.000096484              -0.000590370               0.001694056               0.001103686               0.000000000               0.000000000               0.000000000               0.000000000              -0.000036565               0.004468858              -0.000040050              -0.000572318               0.001680377               0.001108059               0.000000000               0.000000000               0.000000000               0.000000000               0.001169604               0.010941004               0.003524880              -0.000929025               0.003956639               0.003027614               0.000000000               0.000000000               0.000000000               0.000000000              -0.000953215               0.010471517               0.001728319              -0.001666392               0.004045934               0.002379542               0.000000000               0.000000000               0.000000000               0.000000000              -0.002559758               0.010577657               0.000069309              -0.002282111               0.004286554               0.002004443               0.000000000               0.000000000               0.000000000               0.000000000              -0.002969427               0.010006116              -0.000417674              -0.002364294               0.004123437               0.001759143               0.000000000               0.000000000               0.000000000               0.000000000              -0.002913689               0.009295352              -0.000549152              -0.002254547               0.003849935               0.001595389               0.000000000               0.000000000               0.000000000               0.000000000              -0.002664185               0.008593080              -0.000561419              -0.002073199               0.003555398               0.001482198               0.000000000               0.000000000               0.000000000               0.000000000              -0.002329591               0.007928503              -0.000528703              -0.001864655               0.003264360               0.001399705               0.000000000               0.000000000               0.000000000               0.000000000              -0.001964616               0.007307141              -0.000481883              -0.001650120               0.002985729               0.001335610               0.000000000               0.000000000               0.000000000               0.000000000              -0.001592637               0.006739644              -0.000428020              -0.001439691               0.002726422               0.001286731               0.000000000               0.000000000               0.000000000               0.000000000              -0.001235649               0.006236301              -0.000365470              -0.001242903               0.002493047               0.001250144               0.000000000               0.000000000               0.000000000               0.000000000              -0.000916228               0.005808209              -0.000305781              -0.001069609               0.002292587               0.001222978               0.000000000               0.000000000               0.000000000               0.000000000              -0.000646166               0.005464279              -0.000250249              -0.000925345               0.002129856               0.001204511               0.000000000               0.000000000               0.000000000               0.000000000              -0.000424312               0.005198946              -0.000191086              -0.000808983               0.002002626               0.001193642               0.000000000               0.000000000               0.000000000               0.000000000              -0.000246918               0.005005161              -0.000133303              -0.000718238               0.001907783               0.001189545               0.000000000               0.000000000               0.000000000               0.000000000              -0.000118434               0.004877676              -0.000074003              -0.000654121               0.001843916               0.001189795               0.000000000               0.000000000               0.000000000               0.000000000              -0.000043430               0.004813407              -0.000023618              -0.000617961               0.001810440               0.001192479               0.000000000               0.000000000               0.000000000               0.000000000              -0.000022410               0.004797019              -0.000005602              -0.000608030               0.001801667               0.001193637               0.000000000               0.000000000               0.000000000               0.000000000               0.000050777               0.008323855               0.002761825              -0.001021440               0.003115070               0.002093630               0.000000000               0.000000000               0.000000000               0.000000000              -0.001969600               0.008965791               0.001596409              -0.001859320               0.003608340               0.001749020               0.000000000               0.000000000               0.000000000               0.000000000              -0.003521595               0.009834303               0.000487355              -0.002549880               0.004128028               0.001578148               0.000000000               0.000000000               0.000000000               0.000000000              -0.003662335               0.009516373               0.000131589              -0.002562916               0.004026398               0.001463482               0.000000000               0.000000000               0.000000000               0.000000000              -0.003359162               0.008932143              -0.000000611              -0.002376198               0.003769417               0.001393219               0.000000000               0.000000000               0.000000000               0.000000000              -0.002910282               0.008301817              -0.000050935              -0.002129077               0.003476937               0.001347860               0.000000000               0.000000000               0.000000000               0.000000000              -0.002413805               0.007684997              -0.000064442              -0.001865797               0.003183572               0.001317776               0.000000000               0.000000000               0.000000000               0.000000000              -0.001920054               0.007102035              -0.000063718              -0.001607771               0.002903245               0.001295474               0.000000000               0.000000000               0.000000000               0.000000000              -0.001459875               0.006573231              -0.000058500              -0.001369103               0.002647423               0.001278319               0.000000000               0.000000000               0.000000000               0.000000000              -0.001054041               0.006118594              -0.000044527              -0.001160087               0.002426207               0.001266120               0.000000000               0.000000000               0.000000000               0.000000000              -0.000720965               0.005750430              -0.000032011              -0.000989163               0.002246512               0.001257349               0.000000000               0.000000000               0.000000000               0.000000000              -0.000457627               0.005464784              -0.000027110              -0.000854706               0.002106478               0.001251772               0.000000000               0.000000000               0.000000000               0.000000000              -0.000255621               0.005252054              -0.000018538              -0.000752363               0.002001455               0.001249092               0.000000000               0.000000000               0.000000000               0.000000000              -0.000117985               0.005101383              -0.000007961              -0.000681916               0.001927749               0.001245834               0.000000000               0.000000000               0.000000000               0.000000000              -0.000041801               0.005004781               0.000003467              -0.000641271               0.001882001               0.001240729               0.000000000               0.000000000               0.000000000               0.000000000              -0.000013128               0.004955561               0.000009560              -0.000624366               0.001859959               0.001235593               0.000000000               0.000000000               0.000000000               0.000000000              -0.000012750               0.004938642               0.000007143              -0.000622110               0.001853567               0.001231457               0.000000000               0.000000000               0.000000000               0.000000000              -0.001255462               0.006130326               0.001848960              -0.001237087               0.002455783               0.001218696               0.000000000               0.000000000               0.000000000               0.000000000              -0.002957268               0.007619013               0.001455060              -0.002061348               0.003226761               0.001165414               0.000000000               0.000000000               0.000000000               0.000000000              -0.004270241               0.009072324               0.000982040              -0.002735374               0.003935869               0.001200495               0.000000000               0.000000000               0.000000000               0.000000000              -0.004130612               0.009025092               0.000707465              -0.002677110               0.003900704               0.001223594               0.000000000               0.000000000               0.000000000               0.000000000              -0.003623599               0.008599083               0.000546008              -0.002433729               0.003677575               0.001243846               0.000000000               0.000000000               0.000000000               0.000000000              -0.003020337               0.008063859               0.000442318              -0.002140603               0.003401461               0.001260857               0.000000000               0.000000000               0.000000000               0.000000000              -0.002404535               0.007506792               0.000370690              -0.001840045               0.003115587               0.001275542               0.000000000               0.000000000               0.000000000               0.000000000              -0.001816606               0.006974170               0.000318189              -0.001552995               0.002842365               0.001289370               0.000000000               0.000000000               0.000000000               0.000000000              -0.001288411               0.006492016               0.000272906              -0.001294653               0.002595535               0.001300882               0.000000000               0.000000000               0.000000000               0.000000000              -0.000850382               0.006078100               0.000232346              -0.001078653               0.002385564               0.001306911               0.000000000               0.000000000               0.000000000               0.000000000              -0.000504107               0.005750146               0.000192846              -0.000907806               0.002219298               0.001311492               0.000000000               0.000000000               0.000000000               0.000000000              -0.000246757               0.005494094               0.000146102              -0.000779294               0.002091111               0.001311817               0.000000000               0.000000000               0.000000000               0.000000000              -0.000076968               0.005295486               0.000103871              -0.000690797               0.001995410               0.001304613               0.000000000               0.000000000               0.000000000               0.000000000               0.000011171               0.005149377               0.000070783              -0.000639481               0.001929602               0.001290121               0.000000000               0.000000000               0.000000000               0.000000000               0.000033789               0.005054293               0.000044185              -0.000619114               0.001891119               0.001272005               0.000000000               0.000000000               0.000000000               0.000000000               0.000014742               0.005002397               0.000021779              -0.000619770               0.001874039               0.001254269               0.000000000               0.000000000               0.000000000               0.000000000              -0.000005969               0.004983191               0.000009140              -0.000625136               0.001869426               0.001244290               0.000000000               0.000000000               0.000000000               0.000000000              -0.002762166               0.004114535               0.000902137              -0.001550125               0.001888206               0.000338080               0.000000000               0.000000000               0.000000000               0.000000000              -0.003793754               0.006054188               0.001300972              -0.002179426               0.002744518               0.000565091               0.000000000               0.000000000               0.000000000               0.000000000              -0.004722192               0.007929163               0.001493837              -0.002761961               0.003563681               0.000801721               0.000000000               0.000000000               0.000000000               0.000000000              -0.004430519               0.008290552               0.001307161              -0.002697757               0.003662742               0.000964985               0.000000000               0.000000000               0.000000000               0.000000000              -0.003845727               0.008148151               0.001113257              -0.002460661               0.003536243               0.001075583               0.000000000               0.000000000               0.000000000               0.000000000              -0.003195690               0.007815980               0.000955532              -0.002175376               0.003330426               0.001155050               0.000000000               0.000000000               0.000000000               0.000000000              -0.002546742               0.007414333               0.000826830              -0.001881815               0.003098691               0.001216876               0.000000000               0.000000000               0.000000000               0.000000000              -0.001929963               0.006999541               0.000720301              -0.001598675               0.002866049               0.001267374               0.000000000               0.000000000               0.000000000               0.000000000              -0.001370587               0.006598318               0.000623547              -0.001338757               0.002645669               0.001306913               0.000000000               0.000000000               0.000000000               0.000000000              -0.000893003               0.006236609               0.000532846              -0.001114450               0.002450332               0.001335882               0.000000000               0.000000000               0.000000000               0.000000000              -0.000509796               0.005922798               0.000446993              -0.000931521               0.002284753               0.001353232               0.000000000               0.000000000               0.000000000               0.000000000              -0.000216360               0.005664227               0.000354939              -0.000789161               0.002151111               0.001361949               0.000000000               0.000000000               0.000000000               0.000000000              -0.000018404               0.005447885               0.000260865              -0.000687886               0.002045239               0.001357353               0.000000000               0.000000000               0.000000000               0.000000000               0.000086477               0.005270136               0.000175204              -0.000626337               0.001965473               0.001339137               0.000000000               0.000000000               0.000000000               0.000000000               0.000109628               0.005133236               0.000098417              -0.000600542               0.001911242               0.001310700               0.000000000               0.000000000               0.000000000               0.000000000               0.000073047               0.005041478               0.000037765              -0.000602791               0.001881406               0.001278615               0.000000000               0.000000000               0.000000000               0.000000000               0.000031474               0.005001479               0.000008023              -0.000613380               0.001871603               0.001258223               0.000000000               0.000000000               0.000000000               0.000000000              -0.004666184               0.002299260              -0.000005168              -0.002037223               0.001445485              -0.000591738               0.000000000               0.000000000               0.000000000               0.000000000              -0.004744446               0.004478232               0.001085859              -0.002338941               0.002272375              -0.000066566               0.000000000               0.000000000               0.000000000               0.000000000              -0.005100064               0.006575544               0.001901935              -0.002734461               0.003103312               0.000368852               0.000000000               0.000000000               0.000000000               0.000000000              -0.004667158               0.007315481               0.001871333              -0.002664613               0.003326673               0.000662060               0.000000000               0.000000000               0.000000000               0.000000000              -0.004039838               0.007490873               0.001680157              -0.002451292               0.003314030               0.000862737               0.000000000               0.000000000               0.000000000               0.000000000              -0.003375717               0.007407748               0.001485332              -0.002191857               0.003199844               0.001007986               0.000000000               0.000000000               0.000000000               0.000000000              -0.002719458               0.007207482               0.001310727              -0.001920728               0.003042712               0.001121985               0.000000000               0.000000000               0.000000000               0.000000000              -0.002091300               0.006951797               0.001157411              -0.001653208               0.002868312               0.001215103               0.000000000               0.000000000               0.000000000               0.000000000              -0.001510875               0.006668805               0.001016276              -0.001400176               0.002689638               0.001289462               0.000000000               0.000000000               0.000000000               0.000000000              -0.000991138               0.006381878               0.000887186              -0.001169409               0.002517074               0.001347665               0.000000000               0.000000000               0.000000000               0.000000000              -0.000546569               0.006104784               0.000768299              -0.000968059               0.002357594               0.001389535               0.000000000               0.000000000               0.000000000               0.000000000              -0.000184723               0.005851635               0.000641894              -0.000800724               0.002217434               0.001416710               0.000000000               0.000000000               0.000000000               0.000000000               0.000080437               0.005623543               0.000502159              -0.000672777               0.002098755               0.001425977               0.000000000               0.000000000               0.000000000               0.000000000               0.000241834               0.005424398               0.000360043              -0.000587361               0.002003901               0.001416541               0.000000000               0.000000000               0.000000000               0.000000000               0.000303501               0.005249570               0.000221508              -0.000542382               0.001930633               0.001388251               0.000000000               0.000000000               0.000000000               0.000000000               0.000276157               0.005106323               0.000098779              -0.000534730               0.001880334               0.001345604               0.000000000               0.000000000               0.000000000               0.000000000               0.000218456               0.005029816               0.000034903              -0.000546805               0.001858857               0.001312052               0.000000000               0.000000000               0.000000000               0.000000000              -0.006836463               0.000836750              -0.000788043              -0.002668264               0.001168330              -0.001499934               0.000000000               0.000000000               0.000000000               0.000000000              -0.005844641               0.003002245               0.000799716              -0.002567016               0.001856408              -0.000710609               0.000000000               0.000000000               0.000000000               0.000000000              -0.005421751               0.005031541               0.002101953              -0.002662094               0.002564527              -0.000097567               0.000000000               0.000000000               0.000000000               0.000000000              -0.004758844               0.006025651               0.002268339              -0.002537767               0.002854452               0.000316685               0.000000000               0.000000000               0.000000000               0.000000000              -0.004065426               0.006493883               0.002131223              -0.002336265               0.002943360               0.000607095               0.000000000               0.000000000               0.000000000               0.000000000              -0.003389860               0.006676134               0.001931484              -0.002105710               0.002927258               0.000821549               0.000000000               0.000000000               0.000000000               0.000000000              -0.002739392               0.006701063               0.001734254              -0.001864901               0.002855298               0.000990398               0.000000000               0.000000000               0.000000000               0.000000000              -0.002114282               0.006633963               0.001552167              -0.001622098               0.002751998               0.001129900               0.000000000               0.000000000               0.000000000               0.000000000              -0.001521786               0.006503543               0.001383622              -0.001383610               0.002629029               0.001245419               0.000000000               0.000000000               0.000000000               0.000000000              -0.000974841               0.006326281               0.001231702              -0.001156348               0.002494188               0.001337840               0.000000000               0.000000000               0.000000000               0.000000000              -0.000481250               0.006125219               0.001093557              -0.000946119               0.002357092               0.001410973               0.000000000               0.000000000               0.000000000               0.000000000              -0.000053510               0.005916341               0.000943221              -0.000759607               0.002225296               0.001465689               0.000000000               0.000000000               0.000000000               0.000000000               0.000289565               0.005709844               0.000769063              -0.000605142               0.002104976               0.001499834               0.000000000               0.000000000               0.000000000               0.000000000               0.000532953               0.005511513               0.000582699              -0.000489081               0.002000179               0.001511099               0.000000000               0.000000000               0.000000000               0.000000000               0.000671981               0.005322589               0.000390298              -0.000413330               0.001911955               0.001498625               0.000000000               0.000000000               0.000000000               0.000000000               0.000699032               0.005149566               0.000193662              -0.000381558               0.001843691               0.001462133               0.000000000               0.000000000               0.000000000               0.000000000               0.000660533               0.005055674               0.000088668              -0.000384258               0.001813294               0.001429035               0.000000000               0.000000000               0.000000000               0.000000000              -0.009118623              -0.000198159              -0.001327101              -0.003394711               0.001065510              -0.002329201               0.000000000               0.000000000               0.000000000               0.000000000              -0.007023577               0.001698089               0.000490997              -0.002846099               0.001514719              -0.001331380               0.000000000               0.000000000               0.000000000               0.000000000              -0.005702493               0.003426649               0.002063377              -0.002566761               0.001997789              -0.000568972               0.000000000               0.000000000               0.000000000               0.000000000              -0.004725839               0.004539019               0.002403409              -0.002339562               0.002292844              -0.000046718               0.000000000               0.000000000               0.000000000               0.000000000              -0.003928796               0.005232006               0.002352548              -0.002127295               0.002453082               0.000325787               0.000000000               0.000000000               0.000000000               0.000000000              -0.003229369               0.005658698               0.002183330              -0.001918347               0.002525662               0.000607315               0.000000000               0.000000000               0.000000000               0.000000000              -0.002585060               0.005908885               0.001991282              -0.001708005               0.002538943               0.000830938               0.000000000               0.000000000               0.000000000               0.000000000              -0.001972298               0.006037731               0.001806373              -0.001494325               0.002510665               0.001016340               0.000000000               0.000000000               0.000000000               0.000000000              -0.001381397               0.006076125               0.001631233              -0.001277537               0.002451200               0.001173663               0.000000000               0.000000000               0.000000000               0.000000000              -0.000819056               0.006041312               0.001472624              -0.001062308               0.002367853               0.001305545               0.000000000               0.000000000               0.000000000               0.000000000              -0.000296947               0.005955736               0.001328250              -0.000855821               0.002270499               0.001414678               0.000000000               0.000000000               0.000000000               0.000000000               0.000180287               0.005830049               0.001172017              -0.000661147               0.002163712               0.001502565               0.000000000               0.000000000               0.000000000               0.000000000               0.000606652               0.005675694               0.000988416              -0.000481967               0.002052534               0.001570568               0.000000000               0.000000000               0.000000000               0.000000000               0.000960616               0.005505701               0.000783612              -0.000327981               0.001944542               0.001616561               0.000000000               0.000000000               0.000000000               0.000000000               0.001223270               0.005334977               0.000555004              -0.000208146               0.001847690               0.001639544               0.000000000               0.000000000               0.000000000               0.000000000               0.001376262               0.005169286               0.000292467              -0.000130062               0.001766432               0.001636370               0.000000000               0.000000000               0.000000000               0.000000000               0.001421017               0.005086201               0.000152795              -0.000102894               0.001729681               0.001626787               0.000000000               0.000000000               0.000000000               0.000000000              -0.011287122              -0.000827296              -0.001514860              -0.004129256               0.001100645              -0.003028611               0.000000000               0.000000000               0.000000000               0.000000000              -0.008181338               0.000645629               0.000223082              -0.003148702               0.001264768              -0.001883934               0.000000000               0.000000000               0.000000000               0.000000000              -0.005958568               0.001933378               0.001785055              -0.002476132               0.001469826              -0.001006306               0.000000000               0.000000000               0.000000000               0.000000000              -0.004619494               0.003037336               0.002215454              -0.002111974               0.001716424              -0.000395550               0.000000000               0.000000000               0.000000000               0.000000000              -0.003680887               0.003867576               0.002244922              -0.001863776               0.001910436               0.000046661               0.000000000               0.000000000               0.000000000               0.000000000              -0.002938996               0.004483043               0.002131780              -0.001662501               0.002048499               0.000385998               0.000000000               0.000000000               0.000000000               0.000000000              -0.002289784               0.004932066               0.001976047              -0.001475174               0.002135730               0.000660555               0.000000000               0.000000000               0.000000000               0.000000000              -0.001689382               0.005244169               0.001816853              -0.001289037               0.002177717               0.000888680               0.000000000               0.000000000               0.000000000               0.000000000              -0.001111262               0.005452964               0.001659653              -0.001098342               0.002183750               0.001085408               0.000000000               0.000000000               0.000000000               0.000000000              -0.000552615               0.005577142               0.001510772              -0.000904372               0.002160486               0.001256114               0.000000000               0.000000000               0.000000000               0.000000000              -0.000016561               0.005627747               0.001371382              -0.000709678               0.002112456               0.001402778               0.000000000               0.000000000               0.000000000               0.000000000               0.000499013               0.005614990               0.001229877              -0.000514743               0.002043225               0.001528482               0.000000000               0.000000000               0.000000000               0.000000000               0.001001716               0.005547407               0.001066311              -0.000317782               0.001955045               0.001637262               0.000000000               0.000000000               0.000000000               0.000000000               0.001474999               0.005435822               0.000870976              -0.000126353               0.001854040               0.001727687               0.000000000               0.000000000               0.000000000               0.000000000               0.001896938               0.005298678               0.000639212               0.000049016               0.001749870               0.001798886               0.000000000               0.000000000               0.000000000               0.000000000               0.002253041               0.005155398               0.000350726               0.000200464               0.001651628               0.001852091               0.000000000               0.000000000               0.000000000               0.000000000               0.002461943               0.005103984               0.000199503               0.000285228               0.001606235               0.001891463               0.000000000               0.000000000               0.000000000               0.000000000              -0.013094360              -0.001129765              -0.001306935              -0.004769161               0.001213123              -0.003556038               0.000000000               0.000000000               0.000000000               0.000000000              -0.009181893              -0.000100518               0.000051392              -0.003430642               0.001110034              -0.002320609               0.000000000               0.000000000               0.000000000               0.000000000              -0.006187508               0.000724397               0.001306774              -0.002410863               0.001045079              -0.001365783               0.000000000               0.000000000               0.000000000               0.000000000              -0.004504229               0.001738393               0.001703422              -0.001906382               0.001214916              -0.000691466               0.000000000               0.000000000               0.000000000               0.000000000              -0.003409547               0.002631779               0.001771880              -0.001607550               0.001413099              -0.000194450               0.000000000               0.000000000               0.000000000               0.000000000              -0.002601392               0.003368513               0.001715171              -0.001396583               0.001588354               0.000191770               0.000000000               0.000000000               0.000000000               0.000000000              -0.001933772               0.003964780               0.001613106              -0.001220760               0.001728499               0.000507740               0.000000000               0.000000000               0.000000000               0.000000000              -0.001339955               0.004427949               0.001500565              -0.001055975               0.001827959               0.000771985               0.000000000               0.000000000               0.000000000               0.000000000              -0.000779099               0.004782830               0.001382655              -0.000890014               0.001890932               0.001000917               0.000000000               0.000000000               0.000000000               0.000000000              -0.000232359               0.005041770               0.001265606              -0.000717355               0.001919691               0.001202336               0.000000000               0.000000000               0.000000000               0.000000000               0.000311503               0.005208713               0.001156128              -0.000534275               0.001914312               0.001380037               0.000000000               0.000000000               0.000000000               0.000000000               0.000863025               0.005306876               0.001046178              -0.000339725               0.001882182               0.001542458               0.000000000               0.000000000               0.000000000               0.000000000               0.001423227               0.005340968               0.000918527              -0.000133911               0.001824942               0.001691030               0.000000000               0.000000000               0.000000000               0.000000000               0.001999028               0.005310310               0.000760339               0.000085845               0.001741470               0.001827316               0.000000000               0.000000000               0.000000000               0.000000000               0.002589263               0.005230084               0.000565488               0.000317210               0.001637607               0.001954817               0.000000000               0.000000000               0.000000000               0.000000000               0.003190692               0.005122109               0.000313806               0.000556240               0.001521939               0.002078180               0.000000000               0.000000000               0.000000000               0.000000000               0.003615550               0.005109162               0.000186612               0.000717179               0.001463977               0.002181156               0.000000000               0.000000000               0.000000000               0.000000000              -0.014301277              -0.001239692              -0.000755129              -0.005208014               0.001322765              -0.003885249               0.000000000               0.000000000               0.000000000               0.000000000              -0.009865969              -0.000538320              -0.000011434              -0.003632446               0.001031368              -0.002601077               0.000000000               0.000000000               0.000000000               0.000000000              -0.006354819              -0.000057901               0.000688241              -0.002375818               0.000772634              -0.001603184               0.000000000               0.000000000               0.000000000               0.000000000              -0.004422225               0.000857968               0.000926943              -0.001765578               0.000874509              -0.000891069               0.000000000               0.000000000               0.000000000               0.000000000              -0.003203494               0.001761957               0.000981058              -0.001421552               0.001061162              -0.000360390               0.000000000               0.000000000               0.000000000               0.000000000              -0.002333737               0.002558159               0.000961682              -0.001194919               0.001251017               0.000056098               0.000000000               0.000000000               0.000000000               0.000000000              -0.001643612               0.003238591               0.000912835              -0.001021176               0.001419911               0.000398735               0.000000000               0.000000000               0.000000000               0.000000000              -0.001047112               0.003802253               0.000853842              -0.000867947               0.001556720               0.000688774               0.000000000               0.000000000               0.000000000               0.000000000              -0.000494329               0.004256571               0.000789522              -0.000717443               0.001657990               0.000940547               0.000000000               0.000000000               0.000000000               0.000000000               0.000049491               0.004603700               0.000725153              -0.000556902               0.001720185               0.001163283               0.000000000               0.000000000               0.000000000               0.000000000               0.000597824               0.004852161               0.000666992              -0.000382336               0.001744816               0.001362480               0.000000000               0.000000000               0.000000000               0.000000000               0.001165203               0.005023522               0.000606418              -0.000190989               0.001738153               0.001547165               0.000000000               0.000000000               0.000000000               0.000000000               0.001762870               0.005127166               0.000533043               0.000020180               0.001702312               0.001722491               0.000000000               0.000000000               0.000000000               0.000000000               0.002410623               0.005167946               0.000443336               0.000257988               0.001636635               0.001894623               0.000000000               0.000000000               0.000000000               0.000000000               0.003125584               0.005150530               0.000330714               0.000528272               0.001540735               0.002069008               0.000000000               0.000000000               0.000000000               0.000000000               0.003924489               0.005085634               0.000182756               0.000835971               0.001416538               0.002252508               0.000000000               0.000000000               0.000000000               0.000000000               0.004530435               0.005108302               0.000110597               0.001060365               0.001349295               0.002409660               0.000000000               0.000000000               0.000000000               0.000000000               0.000000000               0.000000000               0.000000000               0.000000000               0.000000000               0.000000000               0.000000000               0.000000000               0.000000000               0.000000000               0.000000000               0.000000000               0.000000000               0.000000000               0.000000000               0.000000000               0.000000000               0.000000000               0.000000000               0.000000000               0.000000000               0.000000000               0.000000000               0.000000000               0.000000000               0.000000000               0.000000000               0.000000000               0.000000000               0.000000000               0.000000000               0.000000000               0.000000000               0.000000000               0.000000000               0.000000000               0.000000000               0.000000000               0.000000000               0.000000000               0.000000000               0.000000000               0.000000000               0.000000000               0.000000000               0.000000000               0.000000000               0.000000000               0.000000000               0.000000000               0.000000000               0.000000000               0.000000000               0.000000000               0.000000000               0.000000000               0.000000000               0.000000000               0.000000000               0.000000000               0.000000000               0.000000000               0.000000000               0.000000000               0.000000000               0.000000000               0.000000000               0.000000000               0.000000000               0.000000000               0.000000000               0.000000000               0.000000000               0.000000000               0.000000000               0.000000000               0.000000000               0.000000000               0.000000000               0.000000000               0.000000000               0.000000000               0.000000000               0.000000000               0.000000000               0.000000000               0.000000000               0.000000000               0.000000000               0.000000000               0.000000000               0.000000000               0.000000000               0.000000000               0.000000000               0.000000000               0.000000000               0.000000000               0.000000000               0.000000000               0.000000000               0.000000000               0.000000000               0.000000000               0.000000000               0.000000000               0.000000000               0.000000000               0.000000000               0.000000000               0.000000000               0.000000000               0.000000000               0.000000000               0.000000000               0.000000000               0.000000000               0.000000000               0.000000000               0.000000000               0.000000000               0.000000000               0.000000000               0.000000000               0.000000000               0.000000000               0.000000000               0.000000000               0.000000000               0.000000000               0.000000000               0.000000000               0.000000000               0.000000000               0.000000000               0.000000000               0.000000000               0.000000000               0.000000000               0.000000000               0.000000000               0.000000000               0.000000000               0.000000000               0.000000000               0.000000000               0.000000000               0.000000000               0.000000000               0.000000000               0.000000000               0.000000000               0.000000000               0.000000000               0.000000000               0.000000000               0.000000000               0.000000000               0.000000000               0.000000000               0.000000000               0.000000000               0.000000000               0.000000000               0.000000000               0.000000000               0.000000000               0.000000000               0.000000000               0.000000000 </DataArray>
</PointData>
</Piece>
</UnstructuredGrid> </VTKFile>
