<?xml version="1.0"?>
<VTKFile type="UnstructuredGrid" version="0.1">
<UnstructuredGrid>
<Piece NumberOfPoints="      1156" NumberOfCells="      1024">
<Points>
<DataArray type="Float64"                                    Name="coordinates"                                                      NumberOfComponents=" 3" format="ascii">
              0.133000000               0.000000000               0.000000000               0.155937500               0.000000000               0.000000000               0.178875000               0.000000000               0.000000000               0.201812500               0.000000000               0.000000000               0.224750000               0.000000000               0.000000000               0.247687500               0.000000000               0.000000000               0.270625000               0.000000000               0.000000000               0.293562500               0.000000000               0.000000000               0.316500000               0.000000000               0.000000000               0.339437500               0.000000000               0.000000000               0.362375000               0.000000000               0.000000000               0.385312500               0.000000000               0.000000000               0.408250000               0.000000000               0.000000000               0.431187500               0.000000000               0.000000000               0.454125000               0.000000000               0.000000000               0.477062500               0.000000000               0.000000000               0.500000000               0.000000000               0.000000000               0.132359569               0.013036280               0.000000000               0.155337096               0.016127762               0.000000000               0.178314623               0.019219245               0.000000000               0.201292150               0.022310727               0.000000000               0.224269676               0.025402210               0.000000000               0.247247203               0.028493692               0.000000000               0.270224730               0.031585175               0.000000000               0.293202257               0.034676657               0.000000000               0.316179784               0.037768140               0.000000000               0.339157311               0.040859622               0.000000000               0.362134838               0.043951105               0.000000000               0.385112365               0.047042587               0.000000000               0.408089892               0.050134070               0.000000000               0.431067419               0.053225552               0.000000000               0.454044946               0.056317035               0.000000000               0.477022473               0.059408517               0.000000000               0.500000000               0.062500000               0.000000000               0.130444442               0.025947013               0.000000000               0.153541665               0.032137825               0.000000000               0.176638887               0.038328636               0.000000000               0.199736109               0.044519448               0.000000000               0.222833332               0.050710260               0.000000000               0.245930554               0.056901071               0.000000000               0.269027776               0.063091883               0.000000000               0.292124999               0.069282695               0.000000000               0.315222221               0.075473506               0.000000000               0.338319444               0.081664318               0.000000000               0.361416666               0.087855130               0.000000000               0.384513888               0.094045942               0.000000000               0.407611111               0.100236753               0.000000000               0.430708333               0.106427565               0.000000000               0.453805555               0.112618377               0.000000000               0.476902778               0.118809188               0.000000000               0.500000000               0.125000000               0.000000000               0.127273065               0.038607862               0.000000000               0.150568498               0.047913621               0.000000000               0.173863932               0.057219379               0.000000000               0.197159365               0.066525138               0.000000000               0.220454798               0.075830897               0.000000000               0.243750232               0.085136655               0.000000000               0.267045665               0.094442414               0.000000000               0.290341099               0.103748172               0.000000000               0.313636532               0.113053931               0.000000000               0.336931966               0.122359690               0.000000000               0.360227399               0.131665448               0.000000000               0.383522833               0.140971207               0.000000000               0.406818266               0.150276966               0.000000000               0.430113700               0.159582724               0.000000000               0.453409133               0.168888483               0.000000000               0.476704567               0.178194241               0.000000000               0.500000000               0.187500000               0.000000000               0.122875978               0.050896897               0.000000000               0.146446229               0.063340840               0.000000000               0.170016481               0.075784784               0.000000000               0.193586732               0.088228728               0.000000000               0.217156983               0.100672672               0.000000000               0.240727235               0.113116616               0.000000000               0.264297486               0.125560560               0.000000000               0.287867738               0.138004504               0.000000000               0.311437989               0.150448448               0.000000000               0.335008240               0.162892392               0.000000000               0.358578492               0.175336336               0.000000000               0.382148743               0.187780280               0.000000000               0.405718994               0.200224224               0.000000000               0.429289246               0.212668168               0.000000000               0.452859497               0.225112112               0.000000000               0.476429749               0.237556056               0.000000000               0.500000000               0.250000000               0.000000000               0.117295528               0.062695766               0.000000000               0.141214558               0.078308531               0.000000000               0.165133587               0.093921295               0.000000000               0.189052617               0.109534060               0.000000000               0.212971646               0.125146824               0.000000000               0.236890676               0.140759589               0.000000000               0.260809705               0.156372354               0.000000000               0.284728735               0.171985118               0.000000000               0.308647764               0.187597883               0.000000000               0.332566794               0.203210648               0.000000000               0.356485823               0.218823412               0.000000000               0.380404853               0.234436177               0.000000000               0.404323882               0.250048941               0.000000000               0.428242912               0.265661706               0.000000000               0.452161941               0.281274471               0.000000000               0.476080971               0.296887235               0.000000000               0.500000000               0.312500000               0.000000000               0.110585458               0.073890841               0.000000000               0.134923867               0.092710163               0.000000000               0.159262276               0.111529486               0.000000000               0.183600685               0.130348808               0.000000000               0.207939094               0.149168131               0.000000000               0.232277503               0.167987453               0.000000000               0.256615912               0.186806776               0.000000000               0.280954320               0.205626098               0.000000000               0.305292729               0.224445420               0.000000000               0.329631138               0.243264743               0.000000000               0.353969547               0.262084065               0.000000000               0.378307956               0.280903388               0.000000000               0.402646365               0.299722710               0.000000000               0.426984773               0.318542033               0.000000000               0.451323182               0.337361355               0.000000000               0.475661591               0.356180678               0.000000000               0.500000000               0.375000000               0.000000000               0.102810390               0.084374307               0.000000000               0.127634741               0.106444663               0.000000000               0.152459092               0.128515018               0.000000000               0.177283442               0.150585374               0.000000000               0.202107793               0.172655730               0.000000000               0.226932143               0.194726086               0.000000000               0.251756494               0.216796442               0.000000000               0.276580845               0.238866798               0.000000000               0.301405195               0.260937153               0.000000000               0.326229546               0.283007509               0.000000000               0.351053896               0.305077865               0.000000000               0.375878247               0.327148221               0.000000000               0.400702598               0.349218577               0.000000000               0.425526948               0.371288933               0.000000000               0.450351299               0.393359288               0.000000000               0.475175649               0.415429644               0.000000000               0.500000000               0.437500000               0.000000000               0.094045202               0.094045202               0.000000000               0.119417377               0.119417377               0.000000000               0.144789552               0.144789552               0.000000000               0.170161727               0.170161727               0.000000000               0.195533901               0.195533901               0.000000000               0.220906076               0.220906076               0.000000000               0.246278251               0.246278251               0.000000000               0.271650426               0.271650426               0.000000000               0.297022601               0.297022601               0.000000000               0.322394776               0.322394776               0.000000000               0.347766951               0.347766951               0.000000000               0.373139126               0.373139126               0.000000000               0.398511300               0.398511300               0.000000000               0.423883475               0.423883475               0.000000000               0.449255650               0.449255650               0.000000000               0.474627825               0.474627825               0.000000000               0.500000000               0.500000000               0.000000000               0.084374307               0.102810390               0.000000000               0.106444663               0.127634741               0.000000000               0.128515018               0.152459092               0.000000000               0.150585374               0.177283442               0.000000000               0.172655730               0.202107793               0.000000000               0.194726086               0.226932143               0.000000000               0.216796442               0.251756494               0.000000000               0.238866798               0.276580845               0.000000000               0.260937153               0.301405195               0.000000000               0.283007509               0.326229546               0.000000000               0.305077865               0.351053896               0.000000000               0.327148221               0.375878247               0.000000000               0.349218577               0.400702598               0.000000000               0.371288933               0.425526948               0.000000000               0.393359288               0.450351299               0.000000000               0.415429644               0.475175649               0.000000000               0.437500000               0.500000000               0.000000000               0.073890841               0.110585458               0.000000000               0.092710163               0.134923867               0.000000000               0.111529486               0.159262276               0.000000000               0.130348808               0.183600685               0.000000000               0.149168131               0.207939094               0.000000000               0.167987453               0.232277503               0.000000000               0.186806776               0.256615912               0.000000000               0.205626098               0.280954320               0.000000000               0.224445420               0.305292729               0.000000000               0.243264743               0.329631138               0.000000000               0.262084065               0.353969547               0.000000000               0.280903388               0.378307956               0.000000000               0.299722710               0.402646365               0.000000000               0.318542033               0.426984773               0.000000000               0.337361355               0.451323182               0.000000000               0.356180678               0.475661591               0.000000000               0.375000000               0.500000000               0.000000000               0.062695766               0.117295528               0.000000000               0.078308531               0.141214558               0.000000000               0.093921295               0.165133587               0.000000000               0.109534060               0.189052617               0.000000000               0.125146824               0.212971646               0.000000000               0.140759589               0.236890676               0.000000000               0.156372354               0.260809705               0.000000000               0.171985118               0.284728735               0.000000000               0.187597883               0.308647764               0.000000000               0.203210648               0.332566794               0.000000000               0.218823412               0.356485823               0.000000000               0.234436177               0.380404853               0.000000000               0.250048941               0.404323882               0.000000000               0.265661706               0.428242912               0.000000000               0.281274471               0.452161941               0.000000000               0.296887235               0.476080971               0.000000000               0.312500000               0.500000000               0.000000000               0.050896897               0.122875978               0.000000000               0.063340840               0.146446229               0.000000000               0.075784784               0.170016481               0.000000000               0.088228728               0.193586732               0.000000000               0.100672672               0.217156983               0.000000000               0.113116616               0.240727235               0.000000000               0.125560560               0.264297486               0.000000000               0.138004504               0.287867738               0.000000000               0.150448448               0.311437989               0.000000000               0.162892392               0.335008240               0.000000000               0.175336336               0.358578492               0.000000000               0.187780280               0.382148743               0.000000000               0.200224224               0.405718994               0.000000000               0.212668168               0.429289246               0.000000000               0.225112112               0.452859497               0.000000000               0.237556056               0.476429749               0.000000000               0.250000000               0.500000000               0.000000000               0.038607862               0.127273065               0.000000000               0.047913621               0.150568498               0.000000000               0.057219379               0.173863932               0.000000000               0.066525138               0.197159365               0.000000000               0.075830897               0.220454798               0.000000000               0.085136655               0.243750232               0.000000000               0.094442414               0.267045665               0.000000000               0.103748172               0.290341099               0.000000000               0.113053931               0.313636532               0.000000000               0.122359690               0.336931966               0.000000000               0.131665448               0.360227399               0.000000000               0.140971207               0.383522833               0.000000000               0.150276966               0.406818266               0.000000000               0.159582724               0.430113700               0.000000000               0.168888483               0.453409133               0.000000000               0.178194241               0.476704567               0.000000000               0.187500000               0.500000000               0.000000000               0.025947013               0.130444442               0.000000000               0.032137825               0.153541665               0.000000000               0.038328636               0.176638887               0.000000000               0.044519448               0.199736109               0.000000000               0.050710260               0.222833332               0.000000000               0.056901071               0.245930554               0.000000000               0.063091883               0.269027776               0.000000000               0.069282695               0.292124999               0.000000000               0.075473506               0.315222221               0.000000000               0.081664318               0.338319444               0.000000000               0.087855130               0.361416666               0.000000000               0.094045942               0.384513888               0.000000000               0.100236753               0.407611111               0.000000000               0.106427565               0.430708333               0.000000000               0.112618377               0.453805555               0.000000000               0.118809188               0.476902778               0.000000000               0.125000000               0.500000000               0.000000000               0.013036280               0.132359569               0.000000000               0.016127762               0.155337096               0.000000000               0.019219245               0.178314623               0.000000000               0.022310727               0.201292150               0.000000000               0.025402210               0.224269676               0.000000000               0.028493692               0.247247203               0.000000000               0.031585175               0.270224730               0.000000000               0.034676657               0.293202257               0.000000000               0.037768140               0.316179784               0.000000000               0.040859622               0.339157311               0.000000000               0.043951105               0.362134838               0.000000000               0.047042587               0.385112365               0.000000000               0.050134070               0.408089892               0.000000000               0.053225552               0.431067419               0.000000000               0.056317035               0.454044946               0.000000000               0.059408517               0.477022473               0.000000000               0.062500000               0.500000000               0.000000000               0.000000000               0.133000000               0.000000000               0.000000000               0.155937500               0.000000000               0.000000000               0.178875000               0.000000000               0.000000000               0.201812500               0.000000000               0.000000000               0.224750000               0.000000000               0.000000000               0.247687500               0.000000000               0.000000000               0.270625000               0.000000000               0.000000000               0.293562500               0.000000000               0.000000000               0.316500000               0.000000000               0.000000000               0.339437500               0.000000000               0.000000000               0.362375000               0.000000000               0.000000000               0.385312500               0.000000000               0.000000000               0.408250000               0.000000000               0.000000000               0.431187500               0.000000000               0.000000000               0.454125000               0.000000000               0.000000000               0.477062500               0.000000000               0.000000000               0.500000000               0.000000000               0.133000000               0.000000000               0.000000000               0.155937500               0.000000000               0.000000000               0.178875000               0.000000000               0.000000000               0.201812500               0.000000000               0.000000000               0.224750000               0.000000000               0.000000000               0.247687500               0.000000000               0.000000000               0.270625000               0.000000000               0.000000000               0.293562500               0.000000000               0.000000000               0.316500000               0.000000000               0.000000000               0.339437500               0.000000000               0.000000000               0.362375000               0.000000000               0.000000000               0.385312500               0.000000000               0.000000000               0.408250000               0.000000000               0.000000000               0.431187500               0.000000000               0.000000000               0.454125000               0.000000000               0.000000000               0.477062500               0.000000000               0.000000000               0.500000000               0.000000000               0.000000000               0.132359569              -0.013036280               0.000000000               0.155337096              -0.016127762               0.000000000               0.178314623              -0.019219245               0.000000000               0.201292150              -0.022310727               0.000000000               0.224269676              -0.025402210               0.000000000               0.247247203              -0.028493692               0.000000000               0.270224730              -0.031585175               0.000000000               0.293202257              -0.034676657               0.000000000               0.316179784              -0.037768140               0.000000000               0.339157311              -0.040859622               0.000000000               0.362134838              -0.043951105               0.000000000               0.385112365              -0.047042587               0.000000000               0.408089892              -0.050134070               0.000000000               0.431067419              -0.053225552               0.000000000               0.454044946              -0.056317035               0.000000000               0.477022473              -0.059408517               0.000000000               0.500000000              -0.062500000               0.000000000               0.130444442              -0.025947013               0.000000000               0.153541665              -0.032137825               0.000000000               0.176638887              -0.038328636               0.000000000               0.199736109              -0.044519448               0.000000000               0.222833332              -0.050710260               0.000000000               0.245930554              -0.056901071               0.000000000               0.269027776              -0.063091883               0.000000000               0.292124999              -0.069282695               0.000000000               0.315222221              -0.075473506               0.000000000               0.338319444              -0.081664318               0.000000000               0.361416666              -0.087855130               0.000000000               0.384513888              -0.094045942               0.000000000               0.407611111              -0.100236753               0.000000000               0.430708333              -0.106427565               0.000000000               0.453805555              -0.112618377               0.000000000               0.476902778              -0.118809188               0.000000000               0.500000000              -0.125000000               0.000000000               0.127273065              -0.038607862               0.000000000               0.150568498              -0.047913621               0.000000000               0.173863932              -0.057219379               0.000000000               0.197159365              -0.066525138               0.000000000               0.220454798              -0.075830897               0.000000000               0.243750232              -0.085136655               0.000000000               0.267045665              -0.094442414               0.000000000               0.290341099              -0.103748172               0.000000000               0.313636532              -0.113053931               0.000000000               0.336931966              -0.122359690               0.000000000               0.360227399              -0.131665448               0.000000000               0.383522833              -0.140971207               0.000000000               0.406818266              -0.150276966               0.000000000               0.430113700              -0.159582724               0.000000000               0.453409133              -0.168888483               0.000000000               0.476704567              -0.178194241               0.000000000               0.500000000              -0.187500000               0.000000000               0.122875978              -0.050896897               0.000000000               0.146446229              -0.063340840               0.000000000               0.170016481              -0.075784784               0.000000000               0.193586732              -0.088228728               0.000000000               0.217156983              -0.100672672               0.000000000               0.240727235              -0.113116616               0.000000000               0.264297486              -0.125560560               0.000000000               0.287867738              -0.138004504               0.000000000               0.311437989              -0.150448448               0.000000000               0.335008240              -0.162892392               0.000000000               0.358578492              -0.175336336               0.000000000               0.382148743              -0.187780280               0.000000000               0.405718994              -0.200224224               0.000000000               0.429289246              -0.212668168               0.000000000               0.452859497              -0.225112112               0.000000000               0.476429749              -0.237556056               0.000000000               0.500000000              -0.250000000               0.000000000               0.117295528              -0.062695766               0.000000000               0.141214558              -0.078308531               0.000000000               0.165133587              -0.093921295               0.000000000               0.189052617              -0.109534060               0.000000000               0.212971646              -0.125146824               0.000000000               0.236890676              -0.140759589               0.000000000               0.260809705              -0.156372354               0.000000000               0.284728735              -0.171985118               0.000000000               0.308647764              -0.187597883               0.000000000               0.332566794              -0.203210648               0.000000000               0.356485823              -0.218823412               0.000000000               0.380404853              -0.234436177               0.000000000               0.404323882              -0.250048941               0.000000000               0.428242912              -0.265661706               0.000000000               0.452161941              -0.281274471               0.000000000               0.476080971              -0.296887235               0.000000000               0.500000000              -0.312500000               0.000000000               0.110585458              -0.073890841               0.000000000               0.134923867              -0.092710163               0.000000000               0.159262276              -0.111529486               0.000000000               0.183600685              -0.130348808               0.000000000               0.207939094              -0.149168131               0.000000000               0.232277503              -0.167987453               0.000000000               0.256615912              -0.186806776               0.000000000               0.280954320              -0.205626098               0.000000000               0.305292729              -0.224445420               0.000000000               0.329631138              -0.243264743               0.000000000               0.353969547              -0.262084065               0.000000000               0.378307956              -0.280903388               0.000000000               0.402646365              -0.299722710               0.000000000               0.426984773              -0.318542033               0.000000000               0.451323182              -0.337361355               0.000000000               0.475661591              -0.356180678               0.000000000               0.500000000              -0.375000000               0.000000000               0.102810390              -0.084374307               0.000000000               0.127634741              -0.106444663               0.000000000               0.152459092              -0.128515018               0.000000000               0.177283442              -0.150585374               0.000000000               0.202107793              -0.172655730               0.000000000               0.226932143              -0.194726086               0.000000000               0.251756494              -0.216796442               0.000000000               0.276580845              -0.238866798               0.000000000               0.301405195              -0.260937153               0.000000000               0.326229546              -0.283007509               0.000000000               0.351053896              -0.305077865               0.000000000               0.375878247              -0.327148221               0.000000000               0.400702598              -0.349218577               0.000000000               0.425526948              -0.371288933               0.000000000               0.450351299              -0.393359288               0.000000000               0.475175649              -0.415429644               0.000000000               0.500000000              -0.437500000               0.000000000               0.094045202              -0.094045202               0.000000000               0.119417377              -0.119417377               0.000000000               0.144789552              -0.144789552               0.000000000               0.170161727              -0.170161727               0.000000000               0.195533901              -0.195533901               0.000000000               0.220906076              -0.220906076               0.000000000               0.246278251              -0.246278251               0.000000000               0.271650426              -0.271650426               0.000000000               0.297022601              -0.297022601               0.000000000               0.322394776              -0.322394776               0.000000000               0.347766951              -0.347766951               0.000000000               0.373139126              -0.373139126               0.000000000               0.398511300              -0.398511300               0.000000000               0.423883475              -0.423883475               0.000000000               0.449255650              -0.449255650               0.000000000               0.474627825              -0.474627825               0.000000000               0.500000000              -0.500000000               0.000000000               0.084374307              -0.102810390               0.000000000               0.106444663              -0.127634741               0.000000000               0.128515018              -0.152459092               0.000000000               0.150585374              -0.177283442               0.000000000               0.172655730              -0.202107793               0.000000000               0.194726086              -0.226932143               0.000000000               0.216796442              -0.251756494               0.000000000               0.238866798              -0.276580845               0.000000000               0.260937153              -0.301405195               0.000000000               0.283007509              -0.326229546               0.000000000               0.305077865              -0.351053896               0.000000000               0.327148221              -0.375878247               0.000000000               0.349218577              -0.400702598               0.000000000               0.371288933              -0.425526948               0.000000000               0.393359288              -0.450351299               0.000000000               0.415429644              -0.475175649               0.000000000               0.437500000              -0.500000000               0.000000000               0.073890841              -0.110585458               0.000000000               0.092710163              -0.134923867               0.000000000               0.111529486              -0.159262276               0.000000000               0.130348808              -0.183600685               0.000000000               0.149168131              -0.207939094               0.000000000               0.167987453              -0.232277503               0.000000000               0.186806776              -0.256615912               0.000000000               0.205626098              -0.280954320               0.000000000               0.224445420              -0.305292729               0.000000000               0.243264743              -0.329631138               0.000000000               0.262084065              -0.353969547               0.000000000               0.280903388              -0.378307956               0.000000000               0.299722710              -0.402646365               0.000000000               0.318542033              -0.426984773               0.000000000               0.337361355              -0.451323182               0.000000000               0.356180678              -0.475661591               0.000000000               0.375000000              -0.500000000               0.000000000               0.062695766              -0.117295528               0.000000000               0.078308531              -0.141214558               0.000000000               0.093921295              -0.165133587               0.000000000               0.109534060              -0.189052617               0.000000000               0.125146824              -0.212971646               0.000000000               0.140759589              -0.236890676               0.000000000               0.156372354              -0.260809705               0.000000000               0.171985118              -0.284728735               0.000000000               0.187597883              -0.308647764               0.000000000               0.203210648              -0.332566794               0.000000000               0.218823412              -0.356485823               0.000000000               0.234436177              -0.380404853               0.000000000               0.250048941              -0.404323882               0.000000000               0.265661706              -0.428242912               0.000000000               0.281274471              -0.452161941               0.000000000               0.296887235              -0.476080971               0.000000000               0.312500000              -0.500000000               0.000000000               0.050896897              -0.122875978               0.000000000               0.063340840              -0.146446229               0.000000000               0.075784784              -0.170016481               0.000000000               0.088228728              -0.193586732               0.000000000               0.100672672              -0.217156983               0.000000000               0.113116616              -0.240727235               0.000000000               0.125560560              -0.264297486               0.000000000               0.138004504              -0.287867738               0.000000000               0.150448448              -0.311437989               0.000000000               0.162892392              -0.335008240               0.000000000               0.175336336              -0.358578492               0.000000000               0.187780280              -0.382148743               0.000000000               0.200224224              -0.405718994               0.000000000               0.212668168              -0.429289246               0.000000000               0.225112112              -0.452859497               0.000000000               0.237556056              -0.476429749               0.000000000               0.250000000              -0.500000000               0.000000000               0.038607862              -0.127273065               0.000000000               0.047913621              -0.150568498               0.000000000               0.057219379              -0.173863932               0.000000000               0.066525138              -0.197159365               0.000000000               0.075830897              -0.220454798               0.000000000               0.085136655              -0.243750232               0.000000000               0.094442414              -0.267045665               0.000000000               0.103748172              -0.290341099               0.000000000               0.113053931              -0.313636532               0.000000000               0.122359690              -0.336931966               0.000000000               0.131665448              -0.360227399               0.000000000               0.140971207              -0.383522833               0.000000000               0.150276966              -0.406818266               0.000000000               0.159582724              -0.430113700               0.000000000               0.168888483              -0.453409133               0.000000000               0.178194241              -0.476704567               0.000000000               0.187500000              -0.500000000               0.000000000               0.025947013              -0.130444442               0.000000000               0.032137825              -0.153541665               0.000000000               0.038328636              -0.176638887               0.000000000               0.044519448              -0.199736109               0.000000000               0.050710260              -0.222833332               0.000000000               0.056901071              -0.245930554               0.000000000               0.063091883              -0.269027776               0.000000000               0.069282695              -0.292124999               0.000000000               0.075473506              -0.315222221               0.000000000               0.081664318              -0.338319444               0.000000000               0.087855130              -0.361416666               0.000000000               0.094045942              -0.384513888               0.000000000               0.100236753              -0.407611111               0.000000000               0.106427565              -0.430708333               0.000000000               0.112618377              -0.453805555               0.000000000               0.118809188              -0.476902778               0.000000000               0.125000000              -0.500000000               0.000000000               0.013036280              -0.132359569               0.000000000               0.016127762              -0.155337096               0.000000000               0.019219245              -0.178314623               0.000000000               0.022310727              -0.201292150               0.000000000               0.025402210              -0.224269676               0.000000000               0.028493692              -0.247247203               0.000000000               0.031585175              -0.270224730               0.000000000               0.034676657              -0.293202257               0.000000000               0.037768140              -0.316179784               0.000000000               0.040859622              -0.339157311               0.000000000               0.043951105              -0.362134838               0.000000000               0.047042587              -0.385112365               0.000000000               0.050134070              -0.408089892               0.000000000               0.053225552              -0.431067419               0.000000000               0.056317035              -0.454044946               0.000000000               0.059408517              -0.477022473               0.000000000               0.062500000              -0.500000000               0.000000000               0.000000000              -0.133000000               0.000000000               0.000000000              -0.155937500               0.000000000               0.000000000              -0.178875000               0.000000000               0.000000000              -0.201812500               0.000000000               0.000000000              -0.224750000               0.000000000               0.000000000              -0.247687500               0.000000000               0.000000000              -0.270625000               0.000000000               0.000000000              -0.293562500               0.000000000               0.000000000              -0.316500000               0.000000000               0.000000000              -0.339437500               0.000000000               0.000000000              -0.362375000               0.000000000               0.000000000              -0.385312500               0.000000000               0.000000000              -0.408250000               0.000000000               0.000000000              -0.431187500               0.000000000               0.000000000              -0.454125000               0.000000000               0.000000000              -0.477062500               0.000000000               0.000000000              -0.500000000               0.000000000              -0.133000000               0.000000000               0.000000000              -0.155937500               0.000000000               0.000000000              -0.178875000               0.000000000               0.000000000              -0.201812500               0.000000000               0.000000000              -0.224750000               0.000000000               0.000000000              -0.247687500               0.000000000               0.000000000              -0.270625000               0.000000000               0.000000000              -0.293562500               0.000000000               0.000000000              -0.316500000               0.000000000               0.000000000              -0.339437500               0.000000000               0.000000000              -0.362375000               0.000000000               0.000000000              -0.385312500               0.000000000               0.000000000              -0.408250000               0.000000000               0.000000000              -0.431187500               0.000000000               0.000000000              -0.454125000               0.000000000               0.000000000              -0.477062500               0.000000000               0.000000000              -0.500000000               0.000000000               0.000000000              -0.132359569              -0.013036280               0.000000000              -0.155337096              -0.016127762               0.000000000              -0.178314623              -0.019219245               0.000000000              -0.201292150              -0.022310727               0.000000000              -0.224269676              -0.025402210               0.000000000              -0.247247203              -0.028493692               0.000000000              -0.270224730              -0.031585175               0.000000000              -0.293202257              -0.034676657               0.000000000              -0.316179784              -0.037768140               0.000000000              -0.339157311              -0.040859622               0.000000000              -0.362134838              -0.043951105               0.000000000              -0.385112365              -0.047042587               0.000000000              -0.408089892              -0.050134070               0.000000000              -0.431067419              -0.053225552               0.000000000              -0.454044946              -0.056317035               0.000000000              -0.477022473              -0.059408517               0.000000000              -0.500000000              -0.062500000               0.000000000              -0.130444442              -0.025947013               0.000000000              -0.153541665              -0.032137825               0.000000000              -0.176638887              -0.038328636               0.000000000              -0.199736109              -0.044519448               0.000000000              -0.222833332              -0.050710260               0.000000000              -0.245930554              -0.056901071               0.000000000              -0.269027776              -0.063091883               0.000000000              -0.292124999              -0.069282695               0.000000000              -0.315222221              -0.075473506               0.000000000              -0.338319444              -0.081664318               0.000000000              -0.361416666              -0.087855130               0.000000000              -0.384513888              -0.094045942               0.000000000              -0.407611111              -0.100236753               0.000000000              -0.430708333              -0.106427565               0.000000000              -0.453805555              -0.112618377               0.000000000              -0.476902778              -0.118809188               0.000000000              -0.500000000              -0.125000000               0.000000000              -0.127273065              -0.038607862               0.000000000              -0.150568498              -0.047913621               0.000000000              -0.173863932              -0.057219379               0.000000000              -0.197159365              -0.066525138               0.000000000              -0.220454798              -0.075830897               0.000000000              -0.243750232              -0.085136655               0.000000000              -0.267045665              -0.094442414               0.000000000              -0.290341099              -0.103748172               0.000000000              -0.313636532              -0.113053931               0.000000000              -0.336931966              -0.122359690               0.000000000              -0.360227399              -0.131665448               0.000000000              -0.383522833              -0.140971207               0.000000000              -0.406818266              -0.150276966               0.000000000              -0.430113700              -0.159582724               0.000000000              -0.453409133              -0.168888483               0.000000000              -0.476704567              -0.178194241               0.000000000              -0.500000000              -0.187500000               0.000000000              -0.122875978              -0.050896897               0.000000000              -0.146446229              -0.063340840               0.000000000              -0.170016481              -0.075784784               0.000000000              -0.193586732              -0.088228728               0.000000000              -0.217156983              -0.100672672               0.000000000              -0.240727235              -0.113116616               0.000000000              -0.264297486              -0.125560560               0.000000000              -0.287867738              -0.138004504               0.000000000              -0.311437989              -0.150448448               0.000000000              -0.335008240              -0.162892392               0.000000000              -0.358578492              -0.175336336               0.000000000              -0.382148743              -0.187780280               0.000000000              -0.405718994              -0.200224224               0.000000000              -0.429289246              -0.212668168               0.000000000              -0.452859497              -0.225112112               0.000000000              -0.476429749              -0.237556056               0.000000000              -0.500000000              -0.250000000               0.000000000              -0.117295528              -0.062695766               0.000000000              -0.141214558              -0.078308531               0.000000000              -0.165133587              -0.093921295               0.000000000              -0.189052617              -0.109534060               0.000000000              -0.212971646              -0.125146824               0.000000000              -0.236890676              -0.140759589               0.000000000              -0.260809705              -0.156372354               0.000000000              -0.284728735              -0.171985118               0.000000000              -0.308647764              -0.187597883               0.000000000              -0.332566794              -0.203210648               0.000000000              -0.356485823              -0.218823412               0.000000000              -0.380404853              -0.234436177               0.000000000              -0.404323882              -0.250048941               0.000000000              -0.428242912              -0.265661706               0.000000000              -0.452161941              -0.281274471               0.000000000              -0.476080971              -0.296887235               0.000000000              -0.500000000              -0.312500000               0.000000000              -0.110585458              -0.073890841               0.000000000              -0.134923867              -0.092710163               0.000000000              -0.159262276              -0.111529486               0.000000000              -0.183600685              -0.130348808               0.000000000              -0.207939094              -0.149168131               0.000000000              -0.232277503              -0.167987453               0.000000000              -0.256615912              -0.186806776               0.000000000              -0.280954320              -0.205626098               0.000000000              -0.305292729              -0.224445420               0.000000000              -0.329631138              -0.243264743               0.000000000              -0.353969547              -0.262084065               0.000000000              -0.378307956              -0.280903388               0.000000000              -0.402646365              -0.299722710               0.000000000              -0.426984773              -0.318542033               0.000000000              -0.451323182              -0.337361355               0.000000000              -0.475661591              -0.356180678               0.000000000              -0.500000000              -0.375000000               0.000000000              -0.102810390              -0.084374307               0.000000000              -0.127634741              -0.106444663               0.000000000              -0.152459092              -0.128515018               0.000000000              -0.177283442              -0.150585374               0.000000000              -0.202107793              -0.172655730               0.000000000              -0.226932143              -0.194726086               0.000000000              -0.251756494              -0.216796442               0.000000000              -0.276580845              -0.238866798               0.000000000              -0.301405195              -0.260937153               0.000000000              -0.326229546              -0.283007509               0.000000000              -0.351053896              -0.305077865               0.000000000              -0.375878247              -0.327148221               0.000000000              -0.400702598              -0.349218577               0.000000000              -0.425526948              -0.371288933               0.000000000              -0.450351299              -0.393359288               0.000000000              -0.475175649              -0.415429644               0.000000000              -0.500000000              -0.437500000               0.000000000              -0.094045202              -0.094045202               0.000000000              -0.119417377              -0.119417377               0.000000000              -0.144789552              -0.144789552               0.000000000              -0.170161727              -0.170161727               0.000000000              -0.195533901              -0.195533901               0.000000000              -0.220906076              -0.220906076               0.000000000              -0.246278251              -0.246278251               0.000000000              -0.271650426              -0.271650426               0.000000000              -0.297022601              -0.297022601               0.000000000              -0.322394776              -0.322394776               0.000000000              -0.347766951              -0.347766951               0.000000000              -0.373139126              -0.373139126               0.000000000              -0.398511300              -0.398511300               0.000000000              -0.423883475              -0.423883475               0.000000000              -0.449255650              -0.449255650               0.000000000              -0.474627825              -0.474627825               0.000000000              -0.500000000              -0.500000000               0.000000000              -0.084374307              -0.102810390               0.000000000              -0.106444663              -0.127634741               0.000000000              -0.128515018              -0.152459092               0.000000000              -0.150585374              -0.177283442               0.000000000              -0.172655730              -0.202107793               0.000000000              -0.194726086              -0.226932143               0.000000000              -0.216796442              -0.251756494               0.000000000              -0.238866798              -0.276580845               0.000000000              -0.260937153              -0.301405195               0.000000000              -0.283007509              -0.326229546               0.000000000              -0.305077865              -0.351053896               0.000000000              -0.327148221              -0.375878247               0.000000000              -0.349218577              -0.400702598               0.000000000              -0.371288933              -0.425526948               0.000000000              -0.393359288              -0.450351299               0.000000000              -0.415429644              -0.475175649               0.000000000              -0.437500000              -0.500000000               0.000000000              -0.073890841              -0.110585458               0.000000000              -0.092710163              -0.134923867               0.000000000              -0.111529486              -0.159262276               0.000000000              -0.130348808              -0.183600685               0.000000000              -0.149168131              -0.207939094               0.000000000              -0.167987453              -0.232277503               0.000000000              -0.186806776              -0.256615912               0.000000000              -0.205626098              -0.280954320               0.000000000              -0.224445420              -0.305292729               0.000000000              -0.243264743              -0.329631138               0.000000000              -0.262084065              -0.353969547               0.000000000              -0.280903388              -0.378307956               0.000000000              -0.299722710              -0.402646365               0.000000000              -0.318542033              -0.426984773               0.000000000              -0.337361355              -0.451323182               0.000000000              -0.356180678              -0.475661591               0.000000000              -0.375000000              -0.500000000               0.000000000              -0.062695766              -0.117295528               0.000000000              -0.078308531              -0.141214558               0.000000000              -0.093921295              -0.165133587               0.000000000              -0.109534060              -0.189052617               0.000000000              -0.125146824              -0.212971646               0.000000000              -0.140759589              -0.236890676               0.000000000              -0.156372354              -0.260809705               0.000000000              -0.171985118              -0.284728735               0.000000000              -0.187597883              -0.308647764               0.000000000              -0.203210648              -0.332566794               0.000000000              -0.218823412              -0.356485823               0.000000000              -0.234436177              -0.380404853               0.000000000              -0.250048941              -0.404323882               0.000000000              -0.265661706              -0.428242912               0.000000000              -0.281274471              -0.452161941               0.000000000              -0.296887235              -0.476080971               0.000000000              -0.312500000              -0.500000000               0.000000000              -0.050896897              -0.122875978               0.000000000              -0.063340840              -0.146446229               0.000000000              -0.075784784              -0.170016481               0.000000000              -0.088228728              -0.193586732               0.000000000              -0.100672672              -0.217156983               0.000000000              -0.113116616              -0.240727235               0.000000000              -0.125560560              -0.264297486               0.000000000              -0.138004504              -0.287867738               0.000000000              -0.150448448              -0.311437989               0.000000000              -0.162892392              -0.335008240               0.000000000              -0.175336336              -0.358578492               0.000000000              -0.187780280              -0.382148743               0.000000000              -0.200224224              -0.405718994               0.000000000              -0.212668168              -0.429289246               0.000000000              -0.225112112              -0.452859497               0.000000000              -0.237556056              -0.476429749               0.000000000              -0.250000000              -0.500000000               0.000000000              -0.038607862              -0.127273065               0.000000000              -0.047913621              -0.150568498               0.000000000              -0.057219379              -0.173863932               0.000000000              -0.066525138              -0.197159365               0.000000000              -0.075830897              -0.220454798               0.000000000              -0.085136655              -0.243750232               0.000000000              -0.094442414              -0.267045665               0.000000000              -0.103748172              -0.290341099               0.000000000              -0.113053931              -0.313636532               0.000000000              -0.122359690              -0.336931966               0.000000000              -0.131665448              -0.360227399               0.000000000              -0.140971207              -0.383522833               0.000000000              -0.150276966              -0.406818266               0.000000000              -0.159582724              -0.430113700               0.000000000              -0.168888483              -0.453409133               0.000000000              -0.178194241              -0.476704567               0.000000000              -0.187500000              -0.500000000               0.000000000              -0.025947013              -0.130444442               0.000000000              -0.032137825              -0.153541665               0.000000000              -0.038328636              -0.176638887               0.000000000              -0.044519448              -0.199736109               0.000000000              -0.050710260              -0.222833332               0.000000000              -0.056901071              -0.245930554               0.000000000              -0.063091883              -0.269027776               0.000000000              -0.069282695              -0.292124999               0.000000000              -0.075473506              -0.315222221               0.000000000              -0.081664318              -0.338319444               0.000000000              -0.087855130              -0.361416666               0.000000000              -0.094045942              -0.384513888               0.000000000              -0.100236753              -0.407611111               0.000000000              -0.106427565              -0.430708333               0.000000000              -0.112618377              -0.453805555               0.000000000              -0.118809188              -0.476902778               0.000000000              -0.125000000              -0.500000000               0.000000000              -0.013036280              -0.132359569               0.000000000              -0.016127762              -0.155337096               0.000000000              -0.019219245              -0.178314623               0.000000000              -0.022310727              -0.201292150               0.000000000              -0.025402210              -0.224269676               0.000000000              -0.028493692              -0.247247203               0.000000000              -0.031585175              -0.270224730               0.000000000              -0.034676657              -0.293202257               0.000000000              -0.037768140              -0.316179784               0.000000000              -0.040859622              -0.339157311               0.000000000              -0.043951105              -0.362134838               0.000000000              -0.047042587              -0.385112365               0.000000000              -0.050134070              -0.408089892               0.000000000              -0.053225552              -0.431067419               0.000000000              -0.056317035              -0.454044946               0.000000000              -0.059408517              -0.477022473               0.000000000              -0.062500000              -0.500000000               0.000000000               0.000000000              -0.133000000               0.000000000               0.000000000              -0.155937500               0.000000000               0.000000000              -0.178875000               0.000000000               0.000000000              -0.201812500               0.000000000               0.000000000              -0.224750000               0.000000000               0.000000000              -0.247687500               0.000000000               0.000000000              -0.270625000               0.000000000               0.000000000              -0.293562500               0.000000000               0.000000000              -0.316500000               0.000000000               0.000000000              -0.339437500               0.000000000               0.000000000              -0.362375000               0.000000000               0.000000000              -0.385312500               0.000000000               0.000000000              -0.408250000               0.000000000               0.000000000              -0.431187500               0.000000000               0.000000000              -0.454125000               0.000000000               0.000000000              -0.477062500               0.000000000               0.000000000              -0.500000000               0.000000000              -0.133000000               0.000000000               0.000000000              -0.155937500               0.000000000               0.000000000              -0.178875000               0.000000000               0.000000000              -0.201812500               0.000000000               0.000000000              -0.224750000               0.000000000               0.000000000              -0.247687500               0.000000000               0.000000000              -0.270625000               0.000000000               0.000000000              -0.293562500               0.000000000               0.000000000              -0.316500000               0.000000000               0.000000000              -0.339437500               0.000000000               0.000000000              -0.362375000               0.000000000               0.000000000              -0.385312500               0.000000000               0.000000000              -0.408250000               0.000000000               0.000000000              -0.431187500               0.000000000               0.000000000              -0.454125000               0.000000000               0.000000000              -0.477062500               0.000000000               0.000000000              -0.500000000               0.000000000               0.000000000              -0.132359569               0.013036280               0.000000000              -0.155337096               0.016127762               0.000000000              -0.178314623               0.019219245               0.000000000              -0.201292150               0.022310727               0.000000000              -0.224269676               0.025402210               0.000000000              -0.247247203               0.028493692               0.000000000              -0.270224730               0.031585175               0.000000000              -0.293202257               0.034676657               0.000000000              -0.316179784               0.037768140               0.000000000              -0.339157311               0.040859622               0.000000000              -0.362134838               0.043951105               0.000000000              -0.385112365               0.047042587               0.000000000              -0.408089892               0.050134070               0.000000000              -0.431067419               0.053225552               0.000000000              -0.454044946               0.056317035               0.000000000              -0.477022473               0.059408517               0.000000000              -0.500000000               0.062500000               0.000000000              -0.130444442               0.025947013               0.000000000              -0.153541665               0.032137825               0.000000000              -0.176638887               0.038328636               0.000000000              -0.199736109               0.044519448               0.000000000              -0.222833332               0.050710260               0.000000000              -0.245930554               0.056901071               0.000000000              -0.269027776               0.063091883               0.000000000              -0.292124999               0.069282695               0.000000000              -0.315222221               0.075473506               0.000000000              -0.338319444               0.081664318               0.000000000              -0.361416666               0.087855130               0.000000000              -0.384513888               0.094045942               0.000000000              -0.407611111               0.100236753               0.000000000              -0.430708333               0.106427565               0.000000000              -0.453805555               0.112618377               0.000000000              -0.476902778               0.118809188               0.000000000              -0.500000000               0.125000000               0.000000000              -0.127273065               0.038607862               0.000000000              -0.150568498               0.047913621               0.000000000              -0.173863932               0.057219379               0.000000000              -0.197159365               0.066525138               0.000000000              -0.220454798               0.075830897               0.000000000              -0.243750232               0.085136655               0.000000000              -0.267045665               0.094442414               0.000000000              -0.290341099               0.103748172               0.000000000              -0.313636532               0.113053931               0.000000000              -0.336931966               0.122359690               0.000000000              -0.360227399               0.131665448               0.000000000              -0.383522833               0.140971207               0.000000000              -0.406818266               0.150276966               0.000000000              -0.430113700               0.159582724               0.000000000              -0.453409133               0.168888483               0.000000000              -0.476704567               0.178194241               0.000000000              -0.500000000               0.187500000               0.000000000              -0.122875978               0.050896897               0.000000000              -0.146446229               0.063340840               0.000000000              -0.170016481               0.075784784               0.000000000              -0.193586732               0.088228728               0.000000000              -0.217156983               0.100672672               0.000000000              -0.240727235               0.113116616               0.000000000              -0.264297486               0.125560560               0.000000000              -0.287867738               0.138004504               0.000000000              -0.311437989               0.150448448               0.000000000              -0.335008240               0.162892392               0.000000000              -0.358578492               0.175336336               0.000000000              -0.382148743               0.187780280               0.000000000              -0.405718994               0.200224224               0.000000000              -0.429289246               0.212668168               0.000000000              -0.452859497               0.225112112               0.000000000              -0.476429749               0.237556056               0.000000000              -0.500000000               0.250000000               0.000000000              -0.117295528               0.062695766               0.000000000              -0.141214558               0.078308531               0.000000000              -0.165133587               0.093921295               0.000000000              -0.189052617               0.109534060               0.000000000              -0.212971646               0.125146824               0.000000000              -0.236890676               0.140759589               0.000000000              -0.260809705               0.156372354               0.000000000              -0.284728735               0.171985118               0.000000000              -0.308647764               0.187597883               0.000000000              -0.332566794               0.203210648               0.000000000              -0.356485823               0.218823412               0.000000000              -0.380404853               0.234436177               0.000000000              -0.404323882               0.250048941               0.000000000              -0.428242912               0.265661706               0.000000000              -0.452161941               0.281274471               0.000000000              -0.476080971               0.296887235               0.000000000              -0.500000000               0.312500000               0.000000000              -0.110585458               0.073890841               0.000000000              -0.134923867               0.092710163               0.000000000              -0.159262276               0.111529486               0.000000000              -0.183600685               0.130348808               0.000000000              -0.207939094               0.149168131               0.000000000              -0.232277503               0.167987453               0.000000000              -0.256615912               0.186806776               0.000000000              -0.280954320               0.205626098               0.000000000              -0.305292729               0.224445420               0.000000000              -0.329631138               0.243264743               0.000000000              -0.353969547               0.262084065               0.000000000              -0.378307956               0.280903388               0.000000000              -0.402646365               0.299722710               0.000000000              -0.426984773               0.318542033               0.000000000              -0.451323182               0.337361355               0.000000000              -0.475661591               0.356180678               0.000000000              -0.500000000               0.375000000               0.000000000              -0.102810390               0.084374307               0.000000000              -0.127634741               0.106444663               0.000000000              -0.152459092               0.128515018               0.000000000              -0.177283442               0.150585374               0.000000000              -0.202107793               0.172655730               0.000000000              -0.226932143               0.194726086               0.000000000              -0.251756494               0.216796442               0.000000000              -0.276580845               0.238866798               0.000000000              -0.301405195               0.260937153               0.000000000              -0.326229546               0.283007509               0.000000000              -0.351053896               0.305077865               0.000000000              -0.375878247               0.327148221               0.000000000              -0.400702598               0.349218577               0.000000000              -0.425526948               0.371288933               0.000000000              -0.450351299               0.393359288               0.000000000              -0.475175649               0.415429644               0.000000000              -0.500000000               0.437500000               0.000000000              -0.094045202               0.094045202               0.000000000              -0.119417377               0.119417377               0.000000000              -0.144789552               0.144789552               0.000000000              -0.170161727               0.170161727               0.000000000              -0.195533901               0.195533901               0.000000000              -0.220906076               0.220906076               0.000000000              -0.246278251               0.246278251               0.000000000              -0.271650426               0.271650426               0.000000000              -0.297022601               0.297022601               0.000000000              -0.322394776               0.322394776               0.000000000              -0.347766951               0.347766951               0.000000000              -0.373139126               0.373139126               0.000000000              -0.398511300               0.398511300               0.000000000              -0.423883475               0.423883475               0.000000000              -0.449255650               0.449255650               0.000000000              -0.474627825               0.474627825               0.000000000              -0.500000000               0.500000000               0.000000000              -0.084374307               0.102810390               0.000000000              -0.106444663               0.127634741               0.000000000              -0.128515018               0.152459092               0.000000000              -0.150585374               0.177283442               0.000000000              -0.172655730               0.202107793               0.000000000              -0.194726086               0.226932143               0.000000000              -0.216796442               0.251756494               0.000000000              -0.238866798               0.276580845               0.000000000              -0.260937153               0.301405195               0.000000000              -0.283007509               0.326229546               0.000000000              -0.305077865               0.351053896               0.000000000              -0.327148221               0.375878247               0.000000000              -0.349218577               0.400702598               0.000000000              -0.371288933               0.425526948               0.000000000              -0.393359288               0.450351299               0.000000000              -0.415429644               0.475175649               0.000000000              -0.437500000               0.500000000               0.000000000              -0.073890841               0.110585458               0.000000000              -0.092710163               0.134923867               0.000000000              -0.111529486               0.159262276               0.000000000              -0.130348808               0.183600685               0.000000000              -0.149168131               0.207939094               0.000000000              -0.167987453               0.232277503               0.000000000              -0.186806776               0.256615912               0.000000000              -0.205626098               0.280954320               0.000000000              -0.224445420               0.305292729               0.000000000              -0.243264743               0.329631138               0.000000000              -0.262084065               0.353969547               0.000000000              -0.280903388               0.378307956               0.000000000              -0.299722710               0.402646365               0.000000000              -0.318542033               0.426984773               0.000000000              -0.337361355               0.451323182               0.000000000              -0.356180678               0.475661591               0.000000000              -0.375000000               0.500000000               0.000000000              -0.062695766               0.117295528               0.000000000              -0.078308531               0.141214558               0.000000000              -0.093921295               0.165133587               0.000000000              -0.109534060               0.189052617               0.000000000              -0.125146824               0.212971646               0.000000000              -0.140759589               0.236890676               0.000000000              -0.156372354               0.260809705               0.000000000              -0.171985118               0.284728735               0.000000000              -0.187597883               0.308647764               0.000000000              -0.203210648               0.332566794               0.000000000              -0.218823412               0.356485823               0.000000000              -0.234436177               0.380404853               0.000000000              -0.250048941               0.404323882               0.000000000              -0.265661706               0.428242912               0.000000000              -0.281274471               0.452161941               0.000000000              -0.296887235               0.476080971               0.000000000              -0.312500000               0.500000000               0.000000000              -0.050896897               0.122875978               0.000000000              -0.063340840               0.146446229               0.000000000              -0.075784784               0.170016481               0.000000000              -0.088228728               0.193586732               0.000000000              -0.100672672               0.217156983               0.000000000              -0.113116616               0.240727235               0.000000000              -0.125560560               0.264297486               0.000000000              -0.138004504               0.287867738               0.000000000              -0.150448448               0.311437989               0.000000000              -0.162892392               0.335008240               0.000000000              -0.175336336               0.358578492               0.000000000              -0.187780280               0.382148743               0.000000000              -0.200224224               0.405718994               0.000000000              -0.212668168               0.429289246               0.000000000              -0.225112112               0.452859497               0.000000000              -0.237556056               0.476429749               0.000000000              -0.250000000               0.500000000               0.000000000              -0.038607862               0.127273065               0.000000000              -0.047913621               0.150568498               0.000000000              -0.057219379               0.173863932               0.000000000              -0.066525138               0.197159365               0.000000000              -0.075830897               0.220454798               0.000000000              -0.085136655               0.243750232               0.000000000              -0.094442414               0.267045665               0.000000000              -0.103748172               0.290341099               0.000000000              -0.113053931               0.313636532               0.000000000              -0.122359690               0.336931966               0.000000000              -0.131665448               0.360227399               0.000000000              -0.140971207               0.383522833               0.000000000              -0.150276966               0.406818266               0.000000000              -0.159582724               0.430113700               0.000000000              -0.168888483               0.453409133               0.000000000              -0.178194241               0.476704567               0.000000000              -0.187500000               0.500000000               0.000000000              -0.025947013               0.130444442               0.000000000              -0.032137825               0.153541665               0.000000000              -0.038328636               0.176638887               0.000000000              -0.044519448               0.199736109               0.000000000              -0.050710260               0.222833332               0.000000000              -0.056901071               0.245930554               0.000000000              -0.063091883               0.269027776               0.000000000              -0.069282695               0.292124999               0.000000000              -0.075473506               0.315222221               0.000000000              -0.081664318               0.338319444               0.000000000              -0.087855130               0.361416666               0.000000000              -0.094045942               0.384513888               0.000000000              -0.100236753               0.407611111               0.000000000              -0.106427565               0.430708333               0.000000000              -0.112618377               0.453805555               0.000000000              -0.118809188               0.476902778               0.000000000              -0.125000000               0.500000000               0.000000000              -0.013036280               0.132359569               0.000000000              -0.016127762               0.155337096               0.000000000              -0.019219245               0.178314623               0.000000000              -0.022310727               0.201292150               0.000000000              -0.025402210               0.224269676               0.000000000              -0.028493692               0.247247203               0.000000000              -0.031585175               0.270224730               0.000000000              -0.034676657               0.293202257               0.000000000              -0.037768140               0.316179784               0.000000000              -0.040859622               0.339157311               0.000000000              -0.043951105               0.362134838               0.000000000              -0.047042587               0.385112365               0.000000000              -0.050134070               0.408089892               0.000000000              -0.053225552               0.431067419               0.000000000              -0.056317035               0.454044946               0.000000000              -0.059408517               0.477022473               0.000000000              -0.062500000               0.500000000               0.000000000               0.000000000               0.133000000               0.000000000               0.000000000               0.155937500               0.000000000               0.000000000               0.178875000               0.000000000               0.000000000               0.201812500               0.000000000               0.000000000               0.224750000               0.000000000               0.000000000               0.247687500               0.000000000               0.000000000               0.270625000               0.000000000               0.000000000               0.293562500               0.000000000               0.000000000               0.316500000               0.000000000               0.000000000               0.339437500               0.000000000               0.000000000               0.362375000               0.000000000               0.000000000               0.385312500               0.000000000               0.000000000               0.408250000               0.000000000               0.000000000               0.431187500               0.000000000               0.000000000               0.454125000               0.000000000               0.000000000               0.477062500               0.000000000               0.000000000               0.500000000               0.000000000 </DataArray>
</Points>
<Cells>
<DataArray type="Int32"                                    Name="connectivity"                                                      NumberOfComponents=" 1" format="ascii">
         0          1         18         17          1          2         19         18          2          3         20         19          3          4         21         20          4          5         22         21          5          6         23         22          6          7         24         23          7          8         25         24          8          9         26         25          9         10         27         26         10         11         28         27         11         12         29         28         12         13         30         29         13         14         31         30         14         15         32         31         15         16         33         32         17         18         35         34         18         19         36         35         19         20         37         36         20         21         38         37         21         22         39         38         22         23         40         39         23         24         41         40         24         25         42         41         25         26         43         42         26         27         44         43         27         28         45         44         28         29         46         45         29         30         47         46         30         31         48         47         31         32         49         48         32         33         50         49         34         35         52         51         35         36         53         52         36         37         54         53         37         38         55         54         38         39         56         55         39         40         57         56         40         41         58         57         41         42         59         58         42         43         60         59         43         44         61         60         44         45         62         61         45         46         63         62         46         47         64         63         47         48         65         64         48         49         66         65         49         50         67         66         51         52         69         68         52         53         70         69         53         54         71         70         54         55         72         71         55         56         73         72         56         57         74         73         57         58         75         74         58         59         76         75         59         60         77         76         60         61         78         77         61         62         79         78         62         63         80         79         63         64         81         80         64         65         82         81         65         66         83         82         66         67         84         83         68         69         86         85         69         70         87         86         70         71         88         87         71         72         89         88         72         73         90         89         73         74         91         90         74         75         92         91         75         76         93         92         76         77         94         93         77         78         95         94         78         79         96         95         79         80         97         96         80         81         98         97         81         82         99         98         82         83        100         99         83         84        101        100         85         86        103        102         86         87        104        103         87         88        105        104         88         89        106        105         89         90        107        106         90         91        108        107         91         92        109        108         92         93        110        109         93         94        111        110         94         95        112        111         95         96        113        112         96         97        114        113         97         98        115        114         98         99        116        115         99        100        117        116        100        101        118        117        102        103        120        119        103        104        121        120        104        105        122        121        105        106        123        122        106        107        124        123        107        108        125        124        108        109        126        125        109        110        127        126        110        111        128        127        111        112        129        128        112        113        130        129        113        114        131        130        114        115        132        131        115        116        133        132        116        117        134        133        117        118        135        134        119        120        137        136        120        121        138        137        121        122        139        138        122        123        140        139        123        124        141        140        124        125        142        141        125        126        143        142        126        127        144        143        127        128        145        144        128        129        146        145        129        130        147        146        130        131        148        147        131        132        149        148        132        133        150        149        133        134        151        150        134        135        152        151        136        137        154        153        137        138        155        154        138        139        156        155        139        140        157        156        140        141        158        157        141        142        159        158        142        143        160        159        143        144        161        160        144        145        162        161        145        146        163        162        146        147        164        163        147        148        165        164        148        149        166        165        149        150        167        166        150        151        168        167        151        152        169        168        153        154        171        170        154        155        172        171        155        156        173        172        156        157        174        173        157        158        175        174        158        159        176        175        159        160        177        176        160        161        178        177        161        162        179        178        162        163        180        179        163        164        181        180        164        165        182        181        165        166        183        182        166        167        184        183        167        168        185        184        168        169        186        185        170        171        188        187        171        172        189        188        172        173        190        189        173        174        191        190        174        175        192        191        175        176        193        192        176        177        194        193        177        178        195        194        178        179        196        195        179        180        197        196        180        181        198        197        181        182        199        198        182        183        200        199        183        184        201        200        184        185        202        201        185        186        203        202        187        188        205        204        188        189        206        205        189        190        207        206        190        191        208        207        191        192        209        208        192        193        210        209        193        194        211        210        194        195        212        211        195        196        213        212        196        197        214        213        197        198        215        214        198        199        216        215        199        200        217        216        200        201        218        217        201        202        219        218        202        203        220        219        204        205        222        221        205        206        223        222        206        207        224        223        207        208        225        224        208        209        226        225        209        210        227        226        210        211        228        227        211        212        229        228        212        213        230        229        213        214        231        230        214        215        232        231        215        216        233        232        216        217        234        233        217        218        235        234        218        219        236        235        219        220        237        236        221        222        239        238        222        223        240        239        223        224        241        240        224        225        242        241        225        226        243        242        226        227        244        243        227        228        245        244        228        229        246        245        229        230        247        246        230        231        248        247        231        232        249        248        232        233        250        249        233        234        251        250        234        235        252        251        235        236        253        252        236        237        254        253        238        239        256        255        239        240        257        256        240        241        258        257        241        242        259        258        242        243        260        259        243        244        261        260        244        245        262        261        245        246        263        262        246        247        264        263        247        248        265        264        248        249        266        265        249        250        267        266        250        251        268        267        251        252        269        268        252        253        270        269        253        254        271        270        255        256        273        272        256        257        274        273        257        258        275        274        258        259        276        275        259        260        277        276        260        261        278        277        261        262        279        278        262        263        280        279        263        264        281        280        264        265        282        281        265        266        283        282        266        267        284        283        267        268        285        284        268        269        286        285        269        270        287        286        270        271        288        287        306        307          1          0        307        308          2          1        308        309          3          2        309        310          4          3        310        311          5          4        311        312          6          5        312        313          7          6        313        314          8          7        314        315          9          8        315        316         10          9        316        317         11         10        317        318         12         11        318        319         13         12        319        320         14         13        320        321         15         14        321        322         16         15        323        324        307        306        324        325        308        307        325        326        309        308        326        327        310        309        327        328        311        310        328        329        312        311        329        330        313        312        330        331        314        313        331        332        315        314        332        333        316        315        333        334        317        316        334        335        318        317        335        336        319        318        336        337        320        319        337        338        321        320        338        339        322        321        340        341        324        323        341        342        325        324        342        343        326        325        343        344        327        326        344        345        328        327        345        346        329        328        346        347        330        329        347        348        331        330        348        349        332        331        349        350        333        332        350        351        334        333        351        352        335        334        352        353        336        335        353        354        337        336        354        355        338        337        355        356        339        338        357        358        341        340        358        359        342        341        359        360        343        342        360        361        344        343        361        362        345        344        362        363        346        345        363        364        347        346        364        365        348        347        365        366        349        348        366        367        350        349        367        368        351        350        368        369        352        351        369        370        353        352        370        371        354        353        371        372        355        354        372        373        356        355        374        375        358        357        375        376        359        358        376        377        360        359        377        378        361        360        378        379        362        361        379        380        363        362        380        381        364        363        381        382        365        364        382        383        366        365        383        384        367        366        384        385        368        367        385        386        369        368        386        387        370        369        387        388        371        370        388        389        372        371        389        390        373        372        391        392        375        374        392        393        376        375        393        394        377        376        394        395        378        377        395        396        379        378        396        397        380        379        397        398        381        380        398        399        382        381        399        400        383        382        400        401        384        383        401        402        385        384        402        403        386        385        403        404        387        386        404        405        388        387        405        406        389        388        406        407        390        389        408        409        392        391        409        410        393        392        410        411        394        393        411        412        395        394        412        413        396        395        413        414        397        396        414        415        398        397        415        416        399        398        416        417        400        399        417        418        401        400        418        419        402        401        419        420        403        402        420        421        404        403        421        422        405        404        422        423        406        405        423        424        407        406        425        426        409        408        426        427        410        409        427        428        411        410        428        429        412        411        429        430        413        412        430        431        414        413        431        432        415        414        432        433        416        415        433        434        417        416        434        435        418        417        435        436        419        418        436        437        420        419        437        438        421        420        438        439        422        421        439        440        423        422        440        441        424        423        442        443        426        425        443        444        427        426        444        445        428        427        445        446        429        428        446        447        430        429        447        448        431        430        448        449        432        431        449        450        433        432        450        451        434        433        451        452        435        434        452        453        436        435        453        454        437        436        454        455        438        437        455        456        439        438        456        457        440        439        457        458        441        440        459        460        443        442        460        461        444        443        461        462        445        444        462        463        446        445        463        464        447        446        464        465        448        447        465        466        449        448        466        467        450        449        467        468        451        450        468        469        452        451        469        470        453        452        470        471        454        453        471        472        455        454        472        473        456        455        473        474        457        456        474        475        458        457        476        477        460        459        477        478        461        460        478        479        462        461        479        480        463        462        480        481        464        463        481        482        465        464        482        483        466        465        483        484        467        466        484        485        468        467        485        486        469        468        486        487        470        469        487        488        471        470        488        489        472        471        489        490        473        472        490        491        474        473        491        492        475        474        493        494        477        476        494        495        478        477        495        496        479        478        496        497        480        479        497        498        481        480        498        499        482        481        499        500        483        482        500        501        484        483        501        502        485        484        502        503        486        485        503        504        487        486        504        505        488        487        505        506        489        488        506        507        490        489        507        508        491        490        508        509        492        491        510        511        494        493        511        512        495        494        512        513        496        495        513        514        497        496        514        515        498        497        515        516        499        498        516        517        500        499        517        518        501        500        518        519        502        501        519        520        503        502        520        521        504        503        521        522        505        504        522        523        506        505        523        524        507        506        524        525        508        507        525        526        509        508        527        528        511        510        528        529        512        511        529        530        513        512        530        531        514        513        531        532        515        514        532        533        516        515        533        534        517        516        534        535        518        517        535        536        519        518        536        537        520        519        537        538        521        520        538        539        522        521        539        540        523        522        540        541        524        523        541        542        525        524        542        543        526        525        544        545        528        527        545        546        529        528        546        547        530        529        547        548        531        530        548        549        532        531        549        550        533        532        550        551        534        533        551        552        535        534        552        553        536        535        553        554        537        536        554        555        538        537        555        556        539        538        556        557        540        539        557        558        541        540        558        559        542        541        559        560        543        542        561        562        545        544        562        563        546        545        563        564        547        546        564        565        548        547        565        566        549        548        566        567        550        549        567        568        551        550        568        569        552        551        569        570        553        552        570        571        554        553        571        572        555        554        572        573        556        555        573        574        557        556        574        575        558        557        575        576        559        558        576        577        560        559        578        579        596        595        579        580        597        596        580        581        598        597        581        582        599        598        582        583        600        599        583        584        601        600        584        585        602        601        585        586        603        602        586        587        604        603        587        588        605        604        588        589        606        605        589        590        607        606        590        591        608        607        591        592        609        608        592        593        610        609        593        594        611        610        595        596        613        612        596        597        614        613        597        598        615        614        598        599        616        615        599        600        617        616        600        601        618        617        601        602        619        618        602        603        620        619        603        604        621        620        604        605        622        621        605        606        623        622        606        607        624        623        607        608        625        624        608        609        626        625        609        610        627        626        610        611        628        627        612        613        630        629        613        614        631        630        614        615        632        631        615        616        633        632        616        617        634        633        617        618        635        634        618        619        636        635        619        620        637        636        620        621        638        637        621        622        639        638        622        623        640        639        623        624        641        640        624        625        642        641        625        626        643        642        626        627        644        643        627        628        645        644        629        630        647        646        630        631        648        647        631        632        649        648        632        633        650        649        633        634        651        650        634        635        652        651        635        636        653        652        636        637        654        653        637        638        655        654        638        639        656        655        639        640        657        656        640        641        658        657        641        642        659        658        642        643        660        659        643        644        661        660        644        645        662        661        646        647        664        663        647        648        665        664        648        649        666        665        649        650        667        666        650        651        668        667        651        652        669        668        652        653        670        669        653        654        671        670        654        655        672        671        655        656        673        672        656        657        674        673        657        658        675        674        658        659        676        675        659        660        677        676        660        661        678        677        661        662        679        678        663        664        681        680        664        665        682        681        665        666        683        682        666        667        684        683        667        668        685        684        668        669        686        685        669        670        687        686        670        671        688        687        671        672        689        688        672        673        690        689        673        674        691        690        674        675        692        691        675        676        693        692        676        677        694        693        677        678        695        694        678        679        696        695        680        681        698        697        681        682        699        698        682        683        700        699        683        684        701        700        684        685        702        701        685        686        703        702        686        687        704        703        687        688        705        704        688        689        706        705        689        690        707        706        690        691        708        707        691        692        709        708        692        693        710        709        693        694        711        710        694        695        712        711        695        696        713        712        697        698        715        714        698        699        716        715        699        700        717        716        700        701        718        717        701        702        719        718        702        703        720        719        703        704        721        720        704        705        722        721        705        706        723        722        706        707        724        723        707        708        725        724        708        709        726        725        709        710        727        726        710        711        728        727        711        712        729        728        712        713        730        729        714        715        732        731        715        716        733        732        716        717        734        733        717        718        735        734        718        719        736        735        719        720        737        736        720        721        738        737        721        722        739        738        722        723        740        739        723        724        741        740        724        725        742        741        725        726        743        742        726        727        744        743        727        728        745        744        728        729        746        745        729        730        747        746        731        732        749        748        732        733        750        749        733        734        751        750        734        735        752        751        735        736        753        752        736        737        754        753        737        738        755        754        738        739        756        755        739        740        757        756        740        741        758        757        741        742        759        758        742        743        760        759        743        744        761        760        744        745        762        761        745        746        763        762        746        747        764        763        748        749        766        765        749        750        767        766        750        751        768        767        751        752        769        768        752        753        770        769        753        754        771        770        754        755        772        771        755        756        773        772        756        757        774        773        757        758        775        774        758        759        776        775        759        760        777        776        760        761        778        777        761        762        779        778        762        763        780        779        763        764        781        780        765        766        783        782        766        767        784        783        767        768        785        784        768        769        786        785        769        770        787        786        770        771        788        787        771        772        789        788        772        773        790        789        773        774        791        790        774        775        792        791        775        776        793        792        776        777        794        793        777        778        795        794        778        779        796        795        779        780        797        796        780        781        798        797        782        783        800        799        783        784        801        800        784        785        802        801        785        786        803        802        786        787        804        803        787        788        805        804        788        789        806        805        789        790        807        806        790        791        808        807        791        792        809        808        792        793        810        809        793        794        811        810        794        795        812        811        795        796        813        812        796        797        814        813        797        798        815        814        799        800        817        816        800        801        818        817        801        802        819        818        802        803        820        819        803        804        821        820        804        805        822        821        805        806        823        822        806        807        824        823        807        808        825        824        808        809        826        825        809        810        827        826        810        811        828        827        811        812        829        828        812        813        830        829        813        814        831        830        814        815        832        831        816        817        834        833        817        818        835        834        818        819        836        835        819        820        837        836        820        821        838        837        821        822        839        838        822        823        840        839        823        824        841        840        824        825        842        841        825        826        843        842        826        827        844        843        827        828        845        844        828        829        846        845        829        830        847        846        830        831        848        847        831        832        849        848        833        834        562        561        834        835        563        562        835        836        564        563        836        837        565        564        837        838        566        565        838        839        567        566        839        840        568        567        840        841        569        568        841        842        570        569        842        843        571        570        843        844        572        571        844        845        573        572        845        846        574        573        846        847        575        574        847        848        576        575        848        849        577        576        884        885        579        578        885        886        580        579        886        887        581        580        887        888        582        581        888        889        583        582        889        890        584        583        890        891        585        584        891        892        586        585        892        893        587        586        893        894        588        587        894        895        589        588        895        896        590        589        896        897        591        590        897        898        592        591        898        899        593        592        899        900        594        593        901        902        885        884        902        903        886        885        903        904        887        886        904        905        888        887        905        906        889        888        906        907        890        889        907        908        891        890        908        909        892        891        909        910        893        892        910        911        894        893        911        912        895        894        912        913        896        895        913        914        897        896        914        915        898        897        915        916        899        898        916        917        900        899        918        919        902        901        919        920        903        902        920        921        904        903        921        922        905        904        922        923        906        905        923        924        907        906        924        925        908        907        925        926        909        908        926        927        910        909        927        928        911        910        928        929        912        911        929        930        913        912        930        931        914        913        931        932        915        914        932        933        916        915        933        934        917        916        935        936        919        918        936        937        920        919        937        938        921        920        938        939        922        921        939        940        923        922        940        941        924        923        941        942        925        924        942        943        926        925        943        944        927        926        944        945        928        927        945        946        929        928        946        947        930        929        947        948        931        930        948        949        932        931        949        950        933        932        950        951        934        933        952        953        936        935        953        954        937        936        954        955        938        937        955        956        939        938        956        957        940        939        957        958        941        940        958        959        942        941        959        960        943        942        960        961        944        943        961        962        945        944        962        963        946        945        963        964        947        946        964        965        948        947        965        966        949        948        966        967        950        949        967        968        951        950        969        970        953        952        970        971        954        953        971        972        955        954        972        973        956        955        973        974        957        956        974        975        958        957        975        976        959        958        976        977        960        959        977        978        961        960        978        979        962        961        979        980        963        962        980        981        964        963        981        982        965        964        982        983        966        965        983        984        967        966        984        985        968        967        986        987        970        969        987        988        971        970        988        989        972        971        989        990        973        972        990        991        974        973        991        992        975        974        992        993        976        975        993        994        977        976        994        995        978        977        995        996        979        978        996        997        980        979        997        998        981        980        998        999        982        981        999       1000        983        982       1000       1001        984        983       1001       1002        985        984       1003       1004        987        986       1004       1005        988        987       1005       1006        989        988       1006       1007        990        989       1007       1008        991        990       1008       1009        992        991       1009       1010        993        992       1010       1011        994        993       1011       1012        995        994       1012       1013        996        995       1013       1014        997        996       1014       1015        998        997       1015       1016        999        998       1016       1017       1000        999       1017       1018       1001       1000       1018       1019       1002       1001       1020       1021       1004       1003       1021       1022       1005       1004       1022       1023       1006       1005       1023       1024       1007       1006       1024       1025       1008       1007       1025       1026       1009       1008       1026       1027       1010       1009       1027       1028       1011       1010       1028       1029       1012       1011       1029       1030       1013       1012       1030       1031       1014       1013       1031       1032       1015       1014       1032       1033       1016       1015       1033       1034       1017       1016       1034       1035       1018       1017       1035       1036       1019       1018       1037       1038       1021       1020       1038       1039       1022       1021       1039       1040       1023       1022       1040       1041       1024       1023       1041       1042       1025       1024       1042       1043       1026       1025       1043       1044       1027       1026       1044       1045       1028       1027       1045       1046       1029       1028       1046       1047       1030       1029       1047       1048       1031       1030       1048       1049       1032       1031       1049       1050       1033       1032       1050       1051       1034       1033       1051       1052       1035       1034       1052       1053       1036       1035       1054       1055       1038       1037       1055       1056       1039       1038       1056       1057       1040       1039       1057       1058       1041       1040       1058       1059       1042       1041       1059       1060       1043       1042       1060       1061       1044       1043       1061       1062       1045       1044       1062       1063       1046       1045       1063       1064       1047       1046       1064       1065       1048       1047       1065       1066       1049       1048       1066       1067       1050       1049       1067       1068       1051       1050       1068       1069       1052       1051       1069       1070       1053       1052       1071       1072       1055       1054       1072       1073       1056       1055       1073       1074       1057       1056       1074       1075       1058       1057       1075       1076       1059       1058       1076       1077       1060       1059       1077       1078       1061       1060       1078       1079       1062       1061       1079       1080       1063       1062       1080       1081       1064       1063       1081       1082       1065       1064       1082       1083       1066       1065       1083       1084       1067       1066       1084       1085       1068       1067       1085       1086       1069       1068       1086       1087       1070       1069       1088       1089       1072       1071       1089       1090       1073       1072       1090       1091       1074       1073       1091       1092       1075       1074       1092       1093       1076       1075       1093       1094       1077       1076       1094       1095       1078       1077       1095       1096       1079       1078       1096       1097       1080       1079       1097       1098       1081       1080       1098       1099       1082       1081       1099       1100       1083       1082       1100       1101       1084       1083       1101       1102       1085       1084       1102       1103       1086       1085       1103       1104       1087       1086       1105       1106       1089       1088       1106       1107       1090       1089       1107       1108       1091       1090       1108       1109       1092       1091       1109       1110       1093       1092       1110       1111       1094       1093       1111       1112       1095       1094       1112       1113       1096       1095       1113       1114       1097       1096       1114       1115       1098       1097       1115       1116       1099       1098       1116       1117       1100       1099       1117       1118       1101       1100       1118       1119       1102       1101       1119       1120       1103       1102       1120       1121       1104       1103       1122       1123       1106       1105       1123       1124       1107       1106       1124       1125       1108       1107       1125       1126       1109       1108       1126       1127       1110       1109       1127       1128       1111       1110       1128       1129       1112       1111       1129       1130       1113       1112       1130       1131       1114       1113       1131       1132       1115       1114       1132       1133       1116       1115       1133       1134       1117       1116       1134       1135       1118       1117       1135       1136       1119       1118       1136       1137       1120       1119       1137       1138       1121       1120        272        273       1123       1122        273        274       1124       1123        274        275       1125       1124        275        276       1126       1125        276        277       1127       1126        277        278       1128       1127        278        279       1129       1128        279        280       1130       1129        280        281       1131       1130        281        282       1132       1131        282        283       1133       1132        283        284       1134       1133        284        285       1135       1134        285        286       1136       1135        286        287       1137       1136        287        288       1138       1137 </DataArray>
<DataArray type="Int32"                                    Name="offsets"                                                      NumberOfComponents=" 1" format="ascii">
         4          8         12         16         20         24         28         32         36         40         44         48         52         56         60         64         68         72         76         80         84         88         92         96        100        104        108        112        116        120        124        128        132        136        140        144        148        152        156        160        164        168        172        176        180        184        188        192        196        200        204        208        212        216        220        224        228        232        236        240        244        248        252        256        260        264        268        272        276        280        284        288        292        296        300        304        308        312        316        320        324        328        332        336        340        344        348        352        356        360        364        368        372        376        380        384        388        392        396        400        404        408        412        416        420        424        428        432        436        440        444        448        452        456        460        464        468        472        476        480        484        488        492        496        500        504        508        512        516        520        524        528        532        536        540        544        548        552        556        560        564        568        572        576        580        584        588        592        596        600        604        608        612        616        620        624        628        632        636        640        644        648        652        656        660        664        668        672        676        680        684        688        692        696        700        704        708        712        716        720        724        728        732        736        740        744        748        752        756        760        764        768        772        776        780        784        788        792        796        800        804        808        812        816        820        824        828        832        836        840        844        848        852        856        860        864        868        872        876        880        884        888        892        896        900        904        908        912        916        920        924        928        932        936        940        944        948        952        956        960        964        968        972        976        980        984        988        992        996       1000       1004       1008       1012       1016       1020       1024       1028       1032       1036       1040       1044       1048       1052       1056       1060       1064       1068       1072       1076       1080       1084       1088       1092       1096       1100       1104       1108       1112       1116       1120       1124       1128       1132       1136       1140       1144       1148       1152       1156       1160       1164       1168       1172       1176       1180       1184       1188       1192       1196       1200       1204       1208       1212       1216       1220       1224       1228       1232       1236       1240       1244       1248       1252       1256       1260       1264       1268       1272       1276       1280       1284       1288       1292       1296       1300       1304       1308       1312       1316       1320       1324       1328       1332       1336       1340       1344       1348       1352       1356       1360       1364       1368       1372       1376       1380       1384       1388       1392       1396       1400       1404       1408       1412       1416       1420       1424       1428       1432       1436       1440       1444       1448       1452       1456       1460       1464       1468       1472       1476       1480       1484       1488       1492       1496       1500       1504       1508       1512       1516       1520       1524       1528       1532       1536       1540       1544       1548       1552       1556       1560       1564       1568       1572       1576       1580       1584       1588       1592       1596       1600       1604       1608       1612       1616       1620       1624       1628       1632       1636       1640       1644       1648       1652       1656       1660       1664       1668       1672       1676       1680       1684       1688       1692       1696       1700       1704       1708       1712       1716       1720       1724       1728       1732       1736       1740       1744       1748       1752       1756       1760       1764       1768       1772       1776       1780       1784       1788       1792       1796       1800       1804       1808       1812       1816       1820       1824       1828       1832       1836       1840       1844       1848       1852       1856       1860       1864       1868       1872       1876       1880       1884       1888       1892       1896       1900       1904       1908       1912       1916       1920       1924       1928       1932       1936       1940       1944       1948       1952       1956       1960       1964       1968       1972       1976       1980       1984       1988       1992       1996       2000       2004       2008       2012       2016       2020       2024       2028       2032       2036       2040       2044       2048       2052       2056       2060       2064       2068       2072       2076       2080       2084       2088       2092       2096       2100       2104       2108       2112       2116       2120       2124       2128       2132       2136       2140       2144       2148       2152       2156       2160       2164       2168       2172       2176       2180       2184       2188       2192       2196       2200       2204       2208       2212       2216       2220       2224       2228       2232       2236       2240       2244       2248       2252       2256       2260       2264       2268       2272       2276       2280       2284       2288       2292       2296       2300       2304       2308       2312       2316       2320       2324       2328       2332       2336       2340       2344       2348       2352       2356       2360       2364       2368       2372       2376       2380       2384       2388       2392       2396       2400       2404       2408       2412       2416       2420       2424       2428       2432       2436       2440       2444       2448       2452       2456       2460       2464       2468       2472       2476       2480       2484       2488       2492       2496       2500       2504       2508       2512       2516       2520       2524       2528       2532       2536       2540       2544       2548       2552       2556       2560       2564       2568       2572       2576       2580       2584       2588       2592       2596       2600       2604       2608       2612       2616       2620       2624       2628       2632       2636       2640       2644       2648       2652       2656       2660       2664       2668       2672       2676       2680       2684       2688       2692       2696       2700       2704       2708       2712       2716       2720       2724       2728       2732       2736       2740       2744       2748       2752       2756       2760       2764       2768       2772       2776       2780       2784       2788       2792       2796       2800       2804       2808       2812       2816       2820       2824       2828       2832       2836       2840       2844       2848       2852       2856       2860       2864       2868       2872       2876       2880       2884       2888       2892       2896       2900       2904       2908       2912       2916       2920       2924       2928       2932       2936       2940       2944       2948       2952       2956       2960       2964       2968       2972       2976       2980       2984       2988       2992       2996       3000       3004       3008       3012       3016       3020       3024       3028       3032       3036       3040       3044       3048       3052       3056       3060       3064       3068       3072       3076       3080       3084       3088       3092       3096       3100       3104       3108       3112       3116       3120       3124       3128       3132       3136       3140       3144       3148       3152       3156       3160       3164       3168       3172       3176       3180       3184       3188       3192       3196       3200       3204       3208       3212       3216       3220       3224       3228       3232       3236       3240       3244       3248       3252       3256       3260       3264       3268       3272       3276       3280       3284       3288       3292       3296       3300       3304       3308       3312       3316       3320       3324       3328       3332       3336       3340       3344       3348       3352       3356       3360       3364       3368       3372       3376       3380       3384       3388       3392       3396       3400       3404       3408       3412       3416       3420       3424       3428       3432       3436       3440       3444       3448       3452       3456       3460       3464       3468       3472       3476       3480       3484       3488       3492       3496       3500       3504       3508       3512       3516       3520       3524       3528       3532       3536       3540       3544       3548       3552       3556       3560       3564       3568       3572       3576       3580       3584       3588       3592       3596       3600       3604       3608       3612       3616       3620       3624       3628       3632       3636       3640       3644       3648       3652       3656       3660       3664       3668       3672       3676       3680       3684       3688       3692       3696       3700       3704       3708       3712       3716       3720       3724       3728       3732       3736       3740       3744       3748       3752       3756       3760       3764       3768       3772       3776       3780       3784       3788       3792       3796       3800       3804       3808       3812       3816       3820       3824       3828       3832       3836       3840       3844       3848       3852       3856       3860       3864       3868       3872       3876       3880       3884       3888       3892       3896       3900       3904       3908       3912       3916       3920       3924       3928       3932       3936       3940       3944       3948       3952       3956       3960       3964       3968       3972       3976       3980       3984       3988       3992       3996       4000       4004       4008       4012       4016       4020       4024       4028       4032       4036       4040       4044       4048       4052       4056       4060       4064       4068       4072       4076       4080       4084       4088       4092       4096 </DataArray>
<DataArray type="UInt8"                                    Name="types"                                                      NumberOfComponents=" 1" format="ascii">
         9          9          9          9          9          9          9          9          9          9          9          9          9          9          9          9          9          9          9          9          9          9          9          9          9          9          9          9          9          9          9          9          9          9          9          9          9          9          9          9          9          9          9          9          9          9          9          9          9          9          9          9          9          9          9          9          9          9          9          9          9          9          9          9          9          9          9          9          9          9          9          9          9          9          9          9          9          9          9          9          9          9          9          9          9          9          9          9          9          9          9          9          9          9          9          9          9          9          9          9          9          9          9          9          9          9          9          9          9          9          9          9          9          9          9          9          9          9          9          9          9          9          9          9          9          9          9          9          9          9          9          9          9          9          9          9          9          9          9          9          9          9          9          9          9          9          9          9          9          9          9          9          9          9          9          9          9          9          9          9          9          9          9          9          9          9          9          9          9          9          9          9          9          9          9          9          9          9          9          9          9          9          9          9          9          9          9          9          9          9          9          9          9          9          9          9          9          9          9          9          9          9          9          9          9          9          9          9          9          9          9          9          9          9          9          9          9          9          9          9          9          9          9          9          9          9          9          9          9          9          9          9          9          9          9          9          9          9          9          9          9          9          9          9          9          9          9          9          9          9          9          9          9          9          9          9          9          9          9          9          9          9          9          9          9          9          9          9          9          9          9          9          9          9          9          9          9          9          9          9          9          9          9          9          9          9          9          9          9          9          9          9          9          9          9          9          9          9          9          9          9          9          9          9          9          9          9          9          9          9          9          9          9          9          9          9          9          9          9          9          9          9          9          9          9          9          9          9          9          9          9          9          9          9          9          9          9          9          9          9          9          9          9          9          9          9          9          9          9          9          9          9          9          9          9          9          9          9          9          9          9          9          9          9          9          9          9          9          9          9          9          9          9          9          9          9          9          9          9          9          9          9          9          9          9          9          9          9          9          9          9          9          9          9          9          9          9          9          9          9          9          9          9          9          9          9          9          9          9          9          9          9          9          9          9          9          9          9          9          9          9          9          9          9          9          9          9          9          9          9          9          9          9          9          9          9          9          9          9          9          9          9          9          9          9          9          9          9          9          9          9          9          9          9          9          9          9          9          9          9          9          9          9          9          9          9          9          9          9          9          9          9          9          9          9          9          9          9          9          9          9          9          9          9          9          9          9          9          9          9          9          9          9          9          9          9          9          9          9          9          9          9          9          9          9          9          9          9          9          9          9          9          9          9          9          9          9          9          9          9          9          9          9          9          9          9          9          9          9          9          9          9          9          9          9          9          9          9          9          9          9          9          9          9          9          9          9          9          9          9          9          9          9          9          9          9          9          9          9          9          9          9          9          9          9          9          9          9          9          9          9          9          9          9          9          9          9          9          9          9          9          9          9          9          9          9          9          9          9          9          9          9          9          9          9          9          9          9          9          9          9          9          9          9          9          9          9          9          9          9          9          9          9          9          9          9          9          9          9          9          9          9          9          9          9          9          9          9          9          9          9          9          9          9          9          9          9          9          9          9          9          9          9          9          9          9          9          9          9          9          9          9          9          9          9          9          9          9          9          9          9          9          9          9          9          9          9          9          9          9          9          9          9          9          9          9          9          9          9          9          9          9          9          9          9          9          9          9          9          9          9          9          9          9          9          9          9          9          9          9          9          9          9          9          9          9          9          9          9          9          9          9          9          9          9          9          9          9          9          9          9          9          9          9          9          9          9          9          9          9          9          9          9          9          9          9          9          9          9          9          9          9          9          9          9          9          9          9          9          9          9          9          9          9          9          9          9          9          9          9          9          9          9          9          9          9          9          9          9          9          9          9          9          9          9          9          9          9          9          9          9          9          9          9          9          9          9          9          9          9          9          9          9          9          9          9          9          9          9          9          9          9          9          9          9          9          9          9          9          9          9          9          9          9          9          9          9          9          9          9          9          9          9          9          9          9          9          9          9          9          9          9          9          9          9          9          9          9          9          9          9          9          9          9          9          9          9          9          9          9          9          9          9          9          9          9          9          9          9          9          9          9          9          9          9          9          9          9          9          9          9          9          9          9          9          9          9          9          9          9          9          9          9          9          9          9          9          9          9          9          9          9          9          9          9          9          9          9          9          9          9          9          9          9          9          9          9          9          9          9          9          9          9          9          9          9          9          9          9          9          9          9          9          9          9          9          9          9          9          9          9          9          9          9          9          9          9          9          9          9          9          9          9          9          9          9          9          9          9          9          9          9          9          9          9          9          9          9          9          9          9          9          9          9          9          9          9          9          9          9          9          9          9          9          9          9          9          9          9          9          9          9          9          9          9          9          9          9          9          9          9          9          9          9          9          9          9          9          9          9          9          9          9          9          9          9          9          9          9          9          9          9          9          9          9          9          9          9          9          9          9          9          9          9 </DataArray>
</Cells>
<CellData>
<DataArray type="Int32"                                    Name="material"                                                      NumberOfComponents=" 1" format="ascii">
         1          1          1          1          1          1          1          1          1          1          1          1          1          1          1          1          1          1          1          1          1          1          1          1          1          1          1          1          1          1          1          1          1          1          1          1          1          1          1          1          1          1          1          1          1          1          1          1          1          1          1          1          1          1          1          1          1          1          1          1          1          1          1          1          1          1          1          1          1          1          1          1          1          1          1          1          1          1          1          1          1          1          1          1          1          1          1          1          1          1          1          1          1          1          1          1          1          1          1          1          1          1          1          1          1          1          1          1          1          1          1          1          1          1          1          1          1          1          1          1          1          1          1          1          1          1          1          1          1          1          1          1          1          1          1          1          1          1          1          1          1          1          1          1          1          1          1          1          1          1          1          1          1          1          1          1          1          1          1          1          1          1          1          1          1          1          1          1          1          1          1          1          1          1          1          1          1          1          1          1          1          1          1          1          1          1          1          1          1          1          1          1          1          1          1          1          1          1          1          1          1          1          1          1          1          1          1          1          1          1          1          1          1          1          1          1          1          1          1          1          1          1          1          1          1          1          1          1          1          1          1          1          1          1          1          1          1          1          1          1          1          1          1          1          1          1          1          1          1          1          1          1          1          1          1          1          1          1          1          1          1          1          1          1          1          1          1          1          1          1          1          1          1          1          1          1          1          1          1          1          1          1          1          1          1          1          1          1          1          1          1          1          1          1          1          1          1          1          1          1          1          1          1          1          1          1          1          1          1          1          1          1          1          1          1          1          1          1          1          1          1          1          1          1          1          1          1          1          1          1          1          1          1          1          1          1          1          1          1          1          1          1          1          1          1          1          1          1          1          1          1          1          1          1          1          1          1          1          1          1          1          1          1          1          1          1          1          1          1          1          1          1          1          1          1          1          1          1          1          1          1          1          1          1          1          1          1          1          1          1          1          1          1          1          1          1          1          1          1          1          1          1          1          1          1          1          1          1          1          1          1          1          1          1          1          1          1          1          1          1          1          1          1          1          1          1          1          1          1          1          1          1          1          1          1          1          1          1          1          1          1          1          1          1          1          1          1          1          1          1          1          1          1          1          1          1          1          1          1          1          1          1          1          1          1          1          1          1          1          1          1          1          1          1          1          1          1          1          1          1          1          1          1          1          1          1          1          1          1          1          1          1          1          1          1          1          1          1          1          1          1          1          1          1          1          1          1          1          1          1          1          1          1          1          1          1          1          1          1          1          1          1          1          1          1          1          1          1          1          1          1          1          1          1          1          1          1          1          1          1          1          1          1          1          1          1          1          1          1          1          1          1          1          1          1          1          1          1          1          1          1          1          1          1          1          1          1          1          1          1          1          1          1          1          1          1          1          1          1          1          1          1          1          1          1          1          1          1          1          1          1          1          1          1          1          1          1          1          1          1          1          1          1          1          1          1          1          1          1          1          1          1          1          1          1          1          1          1          1          1          1          1          1          1          1          1          1          1          1          1          1          1          1          1          1          1          1          1          1          1          1          1          1          1          1          1          1          1          1          1          1          1          1          1          1          1          1          1          1          1          1          1          1          1          1          1          1          1          1          1          1          1          1          1          1          1          1          1          1          1          1          1          1          1          1          1          1          1          1          1          1          1          1          1          1          1          1          1          1          1          1          1          1          1          1          1          1          1          1          1          1          1          1          1          1          1          1          1          1          1          1          1          1          1          1          1          1          1          1          1          1          1          1          1          1          1          1          1          1          1          1          1          1          1          1          1          1          1          1          1          1          1          1          1          1          1          1          1          1          1          1          1          1          1          1          1          1          1          1          1          1          1          1          1          1          1          1          1          1          1          1          1          1          1          1          1          1          1          1          1          1          1          1          1          1          1          1          1          1          1          1          1          1          1          1          1          1          1          1          1          1          1          1          1          1          1          1          1          1          1          1          1          1          1          1          1          1          1          1          1          1          1          1          1          1          1          1          1          1          1          1          1          1          1          1          1          1          1          1          1          1          1          1          1          1          1          1          1          1          1          1          1          1          1          1          1          1          1          1          1          1          1          1          1          1          1          1          1          1          1          1          1          1          1          1          1          1          1          1          1          1          1          1          1          1          1          1          1          1          1          1          1          1          1          1          1          1          1          1          1          1          1          1          1          1          1          1          1          1          1          1          1          1          1          1          1          1          1          1          1          1          1          1          1          1          1          1          1          1          1          1          1          1          1          1          1          1          1          1          1          1          1          1          1          1          1          1          1          1          1          1          1          1          1          1          1          1          1          1          1          1          1          1          1          1          1          1          1          1          1          1          1          1          1          1          1          1          1          1          1          1          1          1          1          1          1          1          1          1          1          1          1          1          1          1          1          1          1          1          1          1          1          1          1          1          1          1          1          1          1          1          1          1          1 </DataArray>
</CellData>
<PointData>
<DataArray type="Float64"                                    Name="u"                                                      NumberOfComponents=" 3" format="ascii">
             -0.000628577              -0.000000000               0.999999984              -0.000676009               0.000000000               0.999999984              -0.000696702              -0.000000000               0.999999984              -0.000708230              -0.000000000               0.999999984              -0.000717197               0.000000000               0.999999984              -0.000726190               0.000000000               0.999999984              -0.000736130              -0.000000000               0.999999984              -0.000747178               0.000000000               0.999999984              -0.000759310               0.000000000               0.999999984              -0.000772459               0.000000000               0.999999984              -0.000786453               0.000000000               0.999999984              -0.000800970               0.000000000               0.999999984              -0.000815792               0.000000000               0.999999984              -0.000830491              -0.000000000               0.999999984              -0.000844785               0.000000000               0.999999984              -0.000858212               0.000000000               0.999999984              -0.000869994               0.000000000               0.999999984              -0.000625127               0.000122431               0.999999984              -0.000669053               0.000100390               0.999999984              -0.000687474               0.000091118               0.999999984              -0.000697612               0.000088345               0.999999984              -0.000705785               0.000089010               0.999999984              -0.000714255               0.000091476               0.999999984              -0.000723729               0.000094782               0.999999984              -0.000734342               0.000098250               0.999999984              -0.000745944               0.000101402               0.999999984              -0.000758315               0.000104332               0.999999984              -0.000771347               0.000106790               0.999999984              -0.000784734               0.000108361               0.999999984              -0.000798216               0.000108715               0.999999984              -0.000811593               0.000107541               0.999999984              -0.000824461               0.000104336               0.999999984              -0.000836343               0.000098248               0.999999984              -0.000846759               0.000088365               0.999999984              -0.000614727               0.000243682               0.999999984              -0.000648606               0.000200123               0.999999984              -0.000660973               0.000182642               0.999999984              -0.000667489               0.000178005               0.999999984              -0.000673316               0.000180020               0.999999984              -0.000680067               0.000185495               0.999999984              -0.000688186               0.000192575               0.999999984              -0.000697448               0.000199815               0.999999984              -0.000707563               0.000206538               0.999999984              -0.000718264               0.000212489               0.999999984              -0.000729141               0.000217269               0.999999984              -0.000739856               0.000220448               0.999999984              -0.000750191               0.000221570               0.999999984              -0.000759924               0.000219946               0.999999984              -0.000768797               0.000214918               0.999999984              -0.000776592               0.000205295               0.999999984              -0.000783104               0.000190005               0.999999984              -0.000597623               0.000362610               0.999999984              -0.000615773               0.000298813               0.999999984              -0.000619399               0.000274979               0.999999984              -0.000620995               0.000270058               0.999999984              -0.000624039               0.000274581               0.999999984              -0.000628995               0.000283830               0.999999984              -0.000635537               0.000294967               0.999999984              -0.000643131               0.000306277               0.999999984              -0.000651316               0.000316598               0.999999984              -0.000659544               0.000325447               0.999999984              -0.000667380               0.000332470               0.999999984              -0.000674482               0.000337242               0.999999984              -0.000680668               0.000339255               0.999999984              -0.000685700               0.000337900               0.999999984              -0.000689382               0.000332463               0.999999984              -0.000691677               0.000322047               0.999999984              -0.000692621               0.000305936               0.999999984              -0.000574224               0.000478091               0.999999984              -0.000572115               0.000396248               0.999999984              -0.000565995               0.000368478               0.999999984              -0.000563134               0.000364945               0.999999984              -0.000564020               0.000373001               0.999999984              -0.000567674               0.000386403               0.999999984              -0.000572921               0.000401740               0.999999984              -0.000578834               0.000416818               0.999999984              -0.000584631               0.000430540               0.999999984              -0.000589765               0.000442135               0.999999984              -0.000593864               0.000451288               0.999999984              -0.000596784               0.000457583               0.999999984              -0.000598171               0.000460596               0.999999984              -0.000597841               0.000459875               0.999999984              -0.000595689               0.000454932               0.999999984              -0.000591781               0.000445337               0.999999984              -0.000586398               0.000431060               0.999999984              -0.000544841               0.000589088               0.999999984              -0.000519969               0.000492352               0.999999984              -0.000505047               0.000463108               0.999999984              -0.000499039               0.000462377               0.999999984              -0.000498880               0.000474493               0.999999984              -0.000502050               0.000492016               0.999999984              -0.000506465               0.000511137               0.999999984              -0.000510826               0.000529563               0.999999984              -0.000514202               0.000545994               0.999999984              -0.000516086               0.000559813               0.999999984              -0.000516175               0.000570762               0.999999984              -0.000514195               0.000578480               0.999999984              -0.000509979               0.000582576               0.999999984              -0.000503517               0.000582678               0.999999984              -0.000494794               0.000578718               0.999999984              -0.000484099               0.000570880               0.999999984              -0.000471852               0.000559660               0.999999984              -0.000510045               0.000694528               0.999999984              -0.000462019               0.000587145               0.999999984              -0.000440481               0.000558480               0.999999984              -0.000433465               0.000561155               0.999999984              -0.000433836               0.000577209               0.999999984              -0.000437158               0.000598496               0.999999984              -0.000440979               0.000620838               0.999999984              -0.000443748               0.000641974               0.999999984              -0.000444462               0.000660516               0.999999984              -0.000442563               0.000675965               0.999999984              -0.000437788               0.000688179               0.999999984              -0.000430127               0.000697056               0.999999984              -0.000419575               0.000702198               0.999999984              -0.000406135               0.000703263               0.999999984              -0.000390162               0.000700668               0.999999984              -0.000372272               0.000695135               0.999999984              -0.000353249               0.000687642               0.999999984              -0.000470632               0.000793283               0.999999984              -0.000401045               0.000680335               0.999999984              -0.000376019               0.000653627               0.999999984              -0.000370344               0.000659610               0.999999984              -0.000372202               0.000679189               0.999999984              -0.000376229               0.000703626               0.999999984              -0.000379578               0.000728593               0.999999984              -0.000380428               0.000751681               0.999999984              -0.000377750               0.000771691               0.999999984              -0.000371188               0.000788221               0.999999984              -0.000360799               0.000801437               0.999999984              -0.000346680               0.000811183               0.999999984              -0.000328907               0.000817108               0.999999984              -0.000307981               0.000819112               0.999999984              -0.000284739               0.000818162               0.999999984              -0.000260107               0.000815582               0.999999984              -0.000234798               0.000812189               0.999999984              -0.000427947               0.000883632               0.999999984              -0.000339241               0.000771659               0.999999984              -0.000315121               0.000747136               0.999999984              -0.000312247               0.000755882               0.999999984              -0.000316284               0.000778372               0.999999984              -0.000321088               0.000805504               0.999999984              -0.000323514               0.000832496               0.999999984              -0.000321603               0.000857005               0.999999984              -0.000314525               0.000878089               0.999999984              -0.000302392               0.000895592               0.999999984              -0.000285503               0.000909484               0.999999984              -0.000264009               0.000919603               0.999999984              -0.000238382               0.000925980               0.999999984              -0.000209837               0.000929275               0.999999984              -0.000179572               0.000930785               0.999999984              -0.000148555               0.000931567               0.999999984              -0.000117281               0.000932021               0.999999984              -0.000384035               0.000968942               0.999999984              -0.000288007               0.000872112               0.999999984              -0.000260832               0.000842824               0.999999984              -0.000256663               0.000845403               0.999999984              -0.000260389               0.000862958               0.999999984              -0.000265551               0.000887096               0.999999984              -0.000269143               0.000912964               0.999999984              -0.000268939               0.000938062               0.999999984              -0.000263975               0.000960927               0.999999984              -0.000254172               0.000981128               0.999999984              -0.000239800               0.000998397               0.999999984              -0.000220936               0.001012841               0.999999984              -0.000197445               0.001024294               0.999999984              -0.000170160               0.001033101               0.999999984              -0.000139968               0.001039744               0.999999984              -0.000108032               0.001045237               0.999999984              -0.000075717               0.001050133               0.999999984              -0.000335980               0.001046408               0.999999984              -0.000239628               0.000968980               0.999999984              -0.000209481               0.000940517               0.999999984              -0.000203296               0.000939114               0.999999984              -0.000205921               0.000952760               0.999999984              -0.000210745               0.000974260               0.999999984              -0.000214620               0.000999113               0.999999984              -0.000215565               0.001024733               0.999999984              -0.000212408               0.001049405               0.999999984              -0.000204864               0.001072161               0.999999984              -0.000192907               0.001092655               0.999999984              -0.000176506               0.001110806               0.999999984              -0.000155420               0.001126591               0.999999984              -0.000129668               0.001140090               0.999999984              -0.000099820               0.001151615               0.999999984              -0.000066926               0.001161759               0.999999984              -0.000032430               0.001171115               0.999999984              -0.000284783               0.001114217               0.999999984              -0.000194136               0.001059414               0.999999984              -0.000162718               0.001035688               0.999999984              -0.000154304               0.001033427               0.999999984              -0.000155204               0.001044773               0.999999984              -0.000159025               0.001064312               0.999999984              -0.000162481               0.001088457               0.999999984              -0.000163981               0.001114592               0.999999984              -0.000162234               0.001141078               0.999999984              -0.000156730               0.001166584               0.999999984              -0.000146998               0.001190569               0.999999984              -0.000132840               0.001212672               0.999999984              -0.000114072               0.001232852               0.999999984              -0.000090281               0.001250948               0.999999984              -0.000061418               0.001267110               0.999999984              -0.000027976               0.001281698               0.999999984               0.000009064               0.001295363               0.999999984              -0.000230965               0.001171135               0.999999984              -0.000151584               0.001139691               0.999999984              -0.000121204               0.001123840               0.999999984              -0.000111351               0.001123294               0.999999984              -0.000110463               0.001134229               0.999999984              -0.000112786               0.001152983               0.999999984              -0.000115378               0.001176879               0.999999984              -0.000116820               0.001203715               0.999999984              -0.000116030               0.001231913               0.999999984              -0.000112268               0.001260256               0.999999984              -0.000104723               0.001287899               0.999999984              -0.000092992               0.001314257               0.999999984              -0.000076733               0.001339182               0.999999984              -0.000055533               0.001362356               0.999999984              -0.000028794               0.001383681               0.999999984               0.000004128               0.001403231               0.999999984               0.000043055               0.001421568               0.999999984              -0.000175044               0.001216265               0.999999984              -0.000111596               0.001206177               0.999999984              -0.000085097               0.001199701               0.999999984              -0.000075185               0.001202919               0.999999984              -0.000073026               0.001215084               0.999999984              -0.000074005               0.001234179               0.999999984              -0.000075619               0.001258305               0.999999984              -0.000076634               0.001285975               0.999999984              -0.000076314               0.001315832               0.999999984              -0.000073859               0.001346744               0.999999984              -0.000068371               0.001377946               0.999999984              -0.000059317               0.001408699               0.999999984              -0.000046229               0.001438540               0.999999984              -0.000028594               0.001467063               0.999999984              -0.000005476               0.001494115               0.999999984               0.000024410               0.001519408               0.999999984               0.000062074               0.001543070               0.999999984              -0.000117544               0.001248927               0.999999984              -0.000073476               0.001255924               0.999999984              -0.000053795               0.001258200               0.999999984              -0.000045671               0.001265720               0.999999984              -0.000043214               0.001279970               0.999999984              -0.000043256               0.001300202               0.999999984              -0.000044078               0.001325242               0.999999984              -0.000044697               0.001353895               0.999999984              -0.000044557               0.001385191               0.999999984              -0.000042947               0.001418310               0.999999984              -0.000039292               0.001452469               0.999999984              -0.000033097               0.001487012               0.999999984              -0.000023957               0.001521408               0.999999984              -0.000011172               0.001555121               0.999999984               0.000006219               0.001587688               0.999999984               0.000029433               0.001618716               0.999999984               0.000060153               0.001647865               0.999999984              -0.000059016               0.001268636               0.999999984              -0.000036480               0.001286650               0.999999984              -0.000026001               0.001295211               0.999999984              -0.000021431               0.001306077               0.999999984              -0.000019780               0.001322237               0.999999984              -0.000019541               0.001343653               0.999999984              -0.000019869               0.001369527               0.999999984              -0.000020147               0.001399163               0.999999984              -0.000020017               0.001431669               0.999999984              -0.000019147               0.001466338               0.999999984              -0.000017288               0.001502550               0.999999984              -0.000014129               0.001539639               0.999999984              -0.000009428               0.001577074               0.999999984              -0.000002706               0.001614389               0.999999984               0.000006717               0.001651038               0.999999984               0.000019491               0.001686401               0.999999984               0.000036831               0.001719782               0.999999984               0.000000000               0.001275223               0.999999984               0.000000000               0.001296978               0.999999984              -0.000000000               0.001307804               0.999999984               0.000000000               0.001320058               0.999999984               0.000000000               0.001336982               0.999999984               0.000000000               0.001358806               0.999999984              -0.000000000               0.001385060               0.999999984              -0.000000000               0.001415127               0.999999984              -0.000000000               0.001448108               0.999999984               0.000000000               0.001483337               0.999999984               0.000000000               0.001520171               0.999999984               0.000000000               0.001558121               0.999999984              -0.000000000               0.001596653               0.999999984              -0.000000000               0.001635215               0.999999984              -0.000000000               0.001673286               0.999999984              -0.000000000               0.001710214               0.999999984               0.000000000               0.001745206               0.999999984              -0.000628577              -0.000000000               0.999999984              -0.000676009               0.000000000               0.999999984              -0.000696702              -0.000000000               0.999999984              -0.000708230              -0.000000000               0.999999984              -0.000717197               0.000000000               0.999999984              -0.000726190               0.000000000               0.999999984              -0.000736130              -0.000000000               0.999999984              -0.000747178               0.000000000               0.999999984              -0.000759310               0.000000000               0.999999984              -0.000772459               0.000000000               0.999999984              -0.000786453               0.000000000               0.999999984              -0.000800970               0.000000000               0.999999984              -0.000815792               0.000000000               0.999999984              -0.000830491              -0.000000000               0.999999984              -0.000844785               0.000000000               0.999999984              -0.000858212               0.000000000               0.999999984              -0.000869994               0.000000000               0.999999984              -0.000625127              -0.000122431               0.999999984              -0.000669053              -0.000100390               0.999999984              -0.000687474              -0.000091118               0.999999984              -0.000697612              -0.000088345               0.999999984              -0.000705785              -0.000089010               0.999999984              -0.000714255              -0.000091476               0.999999984              -0.000723729              -0.000094782               0.999999984              -0.000734342              -0.000098250               0.999999984              -0.000745944              -0.000101402               0.999999984              -0.000758315              -0.000104332               0.999999984              -0.000771347              -0.000106790               0.999999984              -0.000784734              -0.000108361               0.999999984              -0.000798216              -0.000108715               0.999999984              -0.000811593              -0.000107541               0.999999984              -0.000824461              -0.000104336               0.999999984              -0.000836343              -0.000098248               0.999999984              -0.000846759              -0.000088365               0.999999984              -0.000614727              -0.000243682               0.999999984              -0.000648606              -0.000200123               0.999999984              -0.000660973              -0.000182642               0.999999984              -0.000667489              -0.000178005               0.999999984              -0.000673316              -0.000180020               0.999999984              -0.000680067              -0.000185495               0.999999984              -0.000688186              -0.000192575               0.999999984              -0.000697448              -0.000199815               0.999999984              -0.000707563              -0.000206538               0.999999984              -0.000718264              -0.000212489               0.999999984              -0.000729141              -0.000217269               0.999999984              -0.000739856              -0.000220448               0.999999984              -0.000750191              -0.000221570               0.999999984              -0.000759924              -0.000219946               0.999999984              -0.000768797              -0.000214918               0.999999984              -0.000776592              -0.000205295               0.999999984              -0.000783104              -0.000190005               0.999999984              -0.000597623              -0.000362610               0.999999984              -0.000615773              -0.000298813               0.999999984              -0.000619399              -0.000274979               0.999999984              -0.000620995              -0.000270058               0.999999984              -0.000624039              -0.000274581               0.999999984              -0.000628995              -0.000283830               0.999999984              -0.000635537              -0.000294967               0.999999984              -0.000643131              -0.000306277               0.999999984              -0.000651316              -0.000316598               0.999999984              -0.000659544              -0.000325447               0.999999984              -0.000667380              -0.000332470               0.999999984              -0.000674482              -0.000337242               0.999999984              -0.000680668              -0.000339255               0.999999984              -0.000685700              -0.000337900               0.999999984              -0.000689382              -0.000332463               0.999999984              -0.000691677              -0.000322047               0.999999984              -0.000692621              -0.000305936               0.999999984              -0.000574224              -0.000478091               0.999999984              -0.000572115              -0.000396248               0.999999984              -0.000565995              -0.000368478               0.999999984              -0.000563134              -0.000364945               0.999999984              -0.000564020              -0.000373001               0.999999984              -0.000567674              -0.000386403               0.999999984              -0.000572921              -0.000401740               0.999999984              -0.000578834              -0.000416818               0.999999984              -0.000584631              -0.000430540               0.999999984              -0.000589765              -0.000442135               0.999999984              -0.000593864              -0.000451288               0.999999984              -0.000596784              -0.000457583               0.999999984              -0.000598171              -0.000460596               0.999999984              -0.000597841              -0.000459875               0.999999984              -0.000595689              -0.000454932               0.999999984              -0.000591781              -0.000445337               0.999999984              -0.000586398              -0.000431060               0.999999984              -0.000544841              -0.000589088               0.999999984              -0.000519969              -0.000492352               0.999999984              -0.000505047              -0.000463108               0.999999984              -0.000499039              -0.000462377               0.999999984              -0.000498880              -0.000474493               0.999999984              -0.000502050              -0.000492016               0.999999984              -0.000506465              -0.000511137               0.999999984              -0.000510826              -0.000529563               0.999999984              -0.000514202              -0.000545994               0.999999984              -0.000516086              -0.000559813               0.999999984              -0.000516175              -0.000570762               0.999999984              -0.000514195              -0.000578480               0.999999984              -0.000509979              -0.000582576               0.999999984              -0.000503517              -0.000582678               0.999999984              -0.000494794              -0.000578718               0.999999984              -0.000484099              -0.000570880               0.999999984              -0.000471852              -0.000559660               0.999999984              -0.000510045              -0.000694528               0.999999984              -0.000462019              -0.000587145               0.999999984              -0.000440481              -0.000558480               0.999999984              -0.000433465              -0.000561155               0.999999984              -0.000433836              -0.000577209               0.999999984              -0.000437158              -0.000598496               0.999999984              -0.000440979              -0.000620838               0.999999984              -0.000443748              -0.000641974               0.999999984              -0.000444462              -0.000660516               0.999999984              -0.000442563              -0.000675965               0.999999984              -0.000437788              -0.000688179               0.999999984              -0.000430127              -0.000697056               0.999999984              -0.000419575              -0.000702198               0.999999984              -0.000406135              -0.000703263               0.999999984              -0.000390162              -0.000700668               0.999999984              -0.000372272              -0.000695135               0.999999984              -0.000353249              -0.000687642               0.999999984              -0.000470632              -0.000793283               0.999999984              -0.000401045              -0.000680335               0.999999984              -0.000376019              -0.000653627               0.999999984              -0.000370344              -0.000659610               0.999999984              -0.000372202              -0.000679189               0.999999984              -0.000376229              -0.000703626               0.999999984              -0.000379578              -0.000728593               0.999999984              -0.000380428              -0.000751681               0.999999984              -0.000377750              -0.000771691               0.999999984              -0.000371188              -0.000788221               0.999999984              -0.000360799              -0.000801437               0.999999984              -0.000346680              -0.000811183               0.999999984              -0.000328907              -0.000817108               0.999999984              -0.000307981              -0.000819112               0.999999984              -0.000284739              -0.000818162               0.999999984              -0.000260107              -0.000815582               0.999999984              -0.000234798              -0.000812189               0.999999984              -0.000427947              -0.000883632               0.999999984              -0.000339241              -0.000771659               0.999999984              -0.000315121              -0.000747136               0.999999984              -0.000312247              -0.000755882               0.999999984              -0.000316284              -0.000778372               0.999999984              -0.000321088              -0.000805504               0.999999984              -0.000323514              -0.000832496               0.999999984              -0.000321603              -0.000857005               0.999999984              -0.000314525              -0.000878089               0.999999984              -0.000302392              -0.000895592               0.999999984              -0.000285503              -0.000909484               0.999999984              -0.000264009              -0.000919603               0.999999984              -0.000238382              -0.000925980               0.999999984              -0.000209837              -0.000929275               0.999999984              -0.000179572              -0.000930785               0.999999984              -0.000148555              -0.000931567               0.999999984              -0.000117281              -0.000932021               0.999999984              -0.000384035              -0.000968942               0.999999984              -0.000288007              -0.000872112               0.999999984              -0.000260832              -0.000842824               0.999999984              -0.000256663              -0.000845403               0.999999984              -0.000260389              -0.000862958               0.999999984              -0.000265551              -0.000887096               0.999999984              -0.000269143              -0.000912964               0.999999984              -0.000268939              -0.000938062               0.999999984              -0.000263975              -0.000960927               0.999999984              -0.000254172              -0.000981128               0.999999984              -0.000239800              -0.000998397               0.999999984              -0.000220936              -0.001012841               0.999999984              -0.000197445              -0.001024294               0.999999984              -0.000170160              -0.001033101               0.999999984              -0.000139968              -0.001039744               0.999999984              -0.000108032              -0.001045237               0.999999984              -0.000075717              -0.001050133               0.999999984              -0.000335980              -0.001046408               0.999999984              -0.000239628              -0.000968980               0.999999984              -0.000209481              -0.000940517               0.999999984              -0.000203296              -0.000939114               0.999999984              -0.000205921              -0.000952760               0.999999984              -0.000210745              -0.000974260               0.999999984              -0.000214620              -0.000999113               0.999999984              -0.000215565              -0.001024733               0.999999984              -0.000212408              -0.001049405               0.999999984              -0.000204864              -0.001072161               0.999999984              -0.000192907              -0.001092655               0.999999984              -0.000176506              -0.001110806               0.999999984              -0.000155420              -0.001126591               0.999999984              -0.000129668              -0.001140090               0.999999984              -0.000099820              -0.001151615               0.999999984              -0.000066926              -0.001161759               0.999999984              -0.000032430              -0.001171115               0.999999984              -0.000284783              -0.001114217               0.999999984              -0.000194136              -0.001059414               0.999999984              -0.000162718              -0.001035688               0.999999984              -0.000154304              -0.001033427               0.999999984              -0.000155204              -0.001044773               0.999999984              -0.000159025              -0.001064312               0.999999984              -0.000162481              -0.001088457               0.999999984              -0.000163981              -0.001114592               0.999999984              -0.000162234              -0.001141078               0.999999984              -0.000156730              -0.001166584               0.999999984              -0.000146998              -0.001190569               0.999999984              -0.000132840              -0.001212672               0.999999984              -0.000114072              -0.001232852               0.999999984              -0.000090281              -0.001250948               0.999999984              -0.000061418              -0.001267110               0.999999984              -0.000027976              -0.001281698               0.999999984               0.000009064              -0.001295363               0.999999984              -0.000230965              -0.001171135               0.999999984              -0.000151584              -0.001139691               0.999999984              -0.000121204              -0.001123840               0.999999984              -0.000111351              -0.001123294               0.999999984              -0.000110463              -0.001134229               0.999999984              -0.000112786              -0.001152983               0.999999984              -0.000115378              -0.001176879               0.999999984              -0.000116820              -0.001203715               0.999999984              -0.000116030              -0.001231913               0.999999984              -0.000112268              -0.001260256               0.999999984              -0.000104723              -0.001287899               0.999999984              -0.000092992              -0.001314257               0.999999984              -0.000076733              -0.001339182               0.999999984              -0.000055533              -0.001362356               0.999999984              -0.000028794              -0.001383681               0.999999984               0.000004128              -0.001403231               0.999999984               0.000043055              -0.001421568               0.999999984              -0.000175044              -0.001216265               0.999999984              -0.000111596              -0.001206177               0.999999984              -0.000085097              -0.001199701               0.999999984              -0.000075185              -0.001202919               0.999999984              -0.000073026              -0.001215084               0.999999984              -0.000074005              -0.001234179               0.999999984              -0.000075619              -0.001258305               0.999999984              -0.000076634              -0.001285975               0.999999984              -0.000076314              -0.001315832               0.999999984              -0.000073859              -0.001346744               0.999999984              -0.000068371              -0.001377946               0.999999984              -0.000059317              -0.001408699               0.999999984              -0.000046229              -0.001438540               0.999999984              -0.000028594              -0.001467063               0.999999984              -0.000005476              -0.001494115               0.999999984               0.000024410              -0.001519408               0.999999984               0.000062074              -0.001543070               0.999999984              -0.000117544              -0.001248927               0.999999984              -0.000073476              -0.001255924               0.999999984              -0.000053795              -0.001258200               0.999999984              -0.000045671              -0.001265720               0.999999984              -0.000043214              -0.001279970               0.999999984              -0.000043256              -0.001300202               0.999999984              -0.000044078              -0.001325242               0.999999984              -0.000044697              -0.001353895               0.999999984              -0.000044557              -0.001385191               0.999999984              -0.000042947              -0.001418310               0.999999984              -0.000039292              -0.001452469               0.999999984              -0.000033097              -0.001487012               0.999999984              -0.000023957              -0.001521408               0.999999984              -0.000011172              -0.001555121               0.999999984               0.000006219              -0.001587688               0.999999984               0.000029433              -0.001618716               0.999999984               0.000060153              -0.001647865               0.999999984              -0.000059016              -0.001268636               0.999999984              -0.000036480              -0.001286650               0.999999984              -0.000026001              -0.001295211               0.999999984              -0.000021431              -0.001306077               0.999999984              -0.000019780              -0.001322237               0.999999984              -0.000019541              -0.001343653               0.999999984              -0.000019869              -0.001369527               0.999999984              -0.000020147              -0.001399163               0.999999984              -0.000020017              -0.001431669               0.999999984              -0.000019147              -0.001466338               0.999999984              -0.000017288              -0.001502550               0.999999984              -0.000014129              -0.001539639               0.999999984              -0.000009428              -0.001577074               0.999999984              -0.000002706              -0.001614389               0.999999984               0.000006717              -0.001651038               0.999999984               0.000019491              -0.001686401               0.999999984               0.000036831              -0.001719782               0.999999984               0.000000000              -0.001275223               0.999999984              -0.000000000              -0.001296978               0.999999984               0.000000000              -0.001307804               0.999999984              -0.000000000              -0.001320058               0.999999984               0.000000000              -0.001336982               0.999999984               0.000000000              -0.001358806               0.999999984               0.000000000              -0.001385060               0.999999984              -0.000000000              -0.001415127               0.999999984              -0.000000000              -0.001448108               0.999999984               0.000000000              -0.001483337               0.999999984               0.000000000              -0.001520171               0.999999984               0.000000000              -0.001558121               0.999999984               0.000000000              -0.001596653               0.999999984               0.000000000              -0.001635215               0.999999984               0.000000000              -0.001673286               0.999999984               0.000000000              -0.001710214               0.999999984               0.000000000              -0.001745206               0.999999984               0.000628577              -0.000000000               0.999999984               0.000676009              -0.000000000               0.999999984               0.000696702               0.000000000               0.999999984               0.000708230               0.000000000               0.999999984               0.000717197               0.000000000               0.999999984               0.000726190               0.000000000               0.999999984               0.000736130               0.000000000               0.999999984               0.000747178              -0.000000000               0.999999984               0.000759310              -0.000000000               0.999999984               0.000772459              -0.000000000               0.999999984               0.000786453               0.000000000               0.999999984               0.000800970              -0.000000000               0.999999984               0.000815792              -0.000000000               0.999999984               0.000830491               0.000000000               0.999999984               0.000844785              -0.000000000               0.999999984               0.000858212               0.000000000               0.999999984               0.000869994               0.000000000               0.999999984               0.000625127              -0.000122431               0.999999984               0.000669053              -0.000100390               0.999999984               0.000687474              -0.000091118               0.999999984               0.000697612              -0.000088345               0.999999984               0.000705785              -0.000089010               0.999999984               0.000714255              -0.000091476               0.999999984               0.000723729              -0.000094782               0.999999984               0.000734342              -0.000098250               0.999999984               0.000745944              -0.000101402               0.999999984               0.000758315              -0.000104332               0.999999984               0.000771347              -0.000106790               0.999999984               0.000784734              -0.000108361               0.999999984               0.000798216              -0.000108715               0.999999984               0.000811593              -0.000107541               0.999999984               0.000824461              -0.000104336               0.999999984               0.000836343              -0.000098248               0.999999984               0.000846759              -0.000088365               0.999999984               0.000614727              -0.000243682               0.999999984               0.000648606              -0.000200123               0.999999984               0.000660973              -0.000182642               0.999999984               0.000667489              -0.000178005               0.999999984               0.000673316              -0.000180020               0.999999984               0.000680067              -0.000185495               0.999999984               0.000688186              -0.000192575               0.999999984               0.000697448              -0.000199815               0.999999984               0.000707563              -0.000206538               0.999999984               0.000718264              -0.000212489               0.999999984               0.000729141              -0.000217269               0.999999984               0.000739856              -0.000220448               0.999999984               0.000750191              -0.000221570               0.999999984               0.000759924              -0.000219946               0.999999984               0.000768797              -0.000214918               0.999999984               0.000776592              -0.000205295               0.999999984               0.000783104              -0.000190005               0.999999984               0.000597623              -0.000362610               0.999999984               0.000615773              -0.000298813               0.999999984               0.000619399              -0.000274979               0.999999984               0.000620995              -0.000270058               0.999999984               0.000624039              -0.000274581               0.999999984               0.000628995              -0.000283830               0.999999984               0.000635537              -0.000294967               0.999999984               0.000643131              -0.000306277               0.999999984               0.000651316              -0.000316598               0.999999984               0.000659544              -0.000325447               0.999999984               0.000667380              -0.000332470               0.999999984               0.000674482              -0.000337242               0.999999984               0.000680668              -0.000339255               0.999999984               0.000685700              -0.000337900               0.999999984               0.000689382              -0.000332463               0.999999984               0.000691677              -0.000322047               0.999999984               0.000692621              -0.000305936               0.999999984               0.000574224              -0.000478091               0.999999984               0.000572115              -0.000396248               0.999999984               0.000565995              -0.000368478               0.999999984               0.000563134              -0.000364945               0.999999984               0.000564020              -0.000373001               0.999999984               0.000567674              -0.000386403               0.999999984               0.000572921              -0.000401740               0.999999984               0.000578834              -0.000416818               0.999999984               0.000584631              -0.000430540               0.999999984               0.000589765              -0.000442135               0.999999984               0.000593864              -0.000451288               0.999999984               0.000596784              -0.000457583               0.999999984               0.000598171              -0.000460596               0.999999984               0.000597841              -0.000459875               0.999999984               0.000595689              -0.000454932               0.999999984               0.000591781              -0.000445337               0.999999984               0.000586398              -0.000431060               0.999999984               0.000544841              -0.000589088               0.999999984               0.000519969              -0.000492352               0.999999984               0.000505047              -0.000463108               0.999999984               0.000499039              -0.000462377               0.999999984               0.000498880              -0.000474493               0.999999984               0.000502050              -0.000492016               0.999999984               0.000506465              -0.000511137               0.999999984               0.000510826              -0.000529563               0.999999984               0.000514202              -0.000545994               0.999999984               0.000516086              -0.000559813               0.999999984               0.000516175              -0.000570762               0.999999984               0.000514195              -0.000578480               0.999999984               0.000509979              -0.000582576               0.999999984               0.000503517              -0.000582678               0.999999984               0.000494794              -0.000578718               0.999999984               0.000484099              -0.000570880               0.999999984               0.000471852              -0.000559660               0.999999984               0.000510045              -0.000694528               0.999999984               0.000462019              -0.000587145               0.999999984               0.000440481              -0.000558480               0.999999984               0.000433465              -0.000561155               0.999999984               0.000433836              -0.000577209               0.999999984               0.000437158              -0.000598496               0.999999984               0.000440979              -0.000620838               0.999999984               0.000443748              -0.000641974               0.999999984               0.000444462              -0.000660516               0.999999984               0.000442563              -0.000675965               0.999999984               0.000437788              -0.000688179               0.999999984               0.000430127              -0.000697056               0.999999984               0.000419575              -0.000702198               0.999999984               0.000406135              -0.000703263               0.999999984               0.000390162              -0.000700668               0.999999984               0.000372272              -0.000695135               0.999999984               0.000353249              -0.000687642               0.999999984               0.000470632              -0.000793283               0.999999984               0.000401045              -0.000680335               0.999999984               0.000376019              -0.000653627               0.999999984               0.000370344              -0.000659610               0.999999984               0.000372202              -0.000679189               0.999999984               0.000376229              -0.000703626               0.999999984               0.000379578              -0.000728593               0.999999984               0.000380428              -0.000751681               0.999999984               0.000377750              -0.000771691               0.999999984               0.000371188              -0.000788221               0.999999984               0.000360799              -0.000801437               0.999999984               0.000346680              -0.000811183               0.999999984               0.000328907              -0.000817108               0.999999984               0.000307981              -0.000819112               0.999999984               0.000284739              -0.000818162               0.999999984               0.000260107              -0.000815582               0.999999984               0.000234798              -0.000812189               0.999999984               0.000427947              -0.000883632               0.999999984               0.000339241              -0.000771659               0.999999984               0.000315121              -0.000747136               0.999999984               0.000312247              -0.000755882               0.999999984               0.000316284              -0.000778372               0.999999984               0.000321088              -0.000805504               0.999999984               0.000323514              -0.000832496               0.999999984               0.000321603              -0.000857005               0.999999984               0.000314525              -0.000878089               0.999999984               0.000302392              -0.000895592               0.999999984               0.000285503              -0.000909484               0.999999984               0.000264009              -0.000919603               0.999999984               0.000238382              -0.000925980               0.999999984               0.000209837              -0.000929275               0.999999984               0.000179572              -0.000930785               0.999999984               0.000148555              -0.000931567               0.999999984               0.000117281              -0.000932021               0.999999984               0.000384035              -0.000968942               0.999999984               0.000288007              -0.000872112               0.999999984               0.000260832              -0.000842824               0.999999984               0.000256663              -0.000845403               0.999999984               0.000260389              -0.000862958               0.999999984               0.000265551              -0.000887096               0.999999984               0.000269143              -0.000912964               0.999999984               0.000268939              -0.000938062               0.999999984               0.000263975              -0.000960927               0.999999984               0.000254172              -0.000981128               0.999999984               0.000239800              -0.000998397               0.999999984               0.000220936              -0.001012841               0.999999984               0.000197445              -0.001024294               0.999999984               0.000170160              -0.001033101               0.999999984               0.000139968              -0.001039744               0.999999984               0.000108032              -0.001045237               0.999999984               0.000075717              -0.001050133               0.999999984               0.000335980              -0.001046408               0.999999984               0.000239628              -0.000968980               0.999999984               0.000209481              -0.000940517               0.999999984               0.000203296              -0.000939114               0.999999984               0.000205921              -0.000952760               0.999999984               0.000210745              -0.000974260               0.999999984               0.000214620              -0.000999113               0.999999984               0.000215565              -0.001024733               0.999999984               0.000212408              -0.001049405               0.999999984               0.000204864              -0.001072161               0.999999984               0.000192907              -0.001092655               0.999999984               0.000176506              -0.001110806               0.999999984               0.000155420              -0.001126591               0.999999984               0.000129668              -0.001140090               0.999999984               0.000099820              -0.001151615               0.999999984               0.000066926              -0.001161759               0.999999984               0.000032430              -0.001171115               0.999999984               0.000284783              -0.001114217               0.999999984               0.000194136              -0.001059414               0.999999984               0.000162718              -0.001035688               0.999999984               0.000154304              -0.001033427               0.999999984               0.000155204              -0.001044773               0.999999984               0.000159025              -0.001064312               0.999999984               0.000162481              -0.001088457               0.999999984               0.000163981              -0.001114592               0.999999984               0.000162234              -0.001141078               0.999999984               0.000156730              -0.001166584               0.999999984               0.000146998              -0.001190569               0.999999984               0.000132840              -0.001212672               0.999999984               0.000114072              -0.001232852               0.999999984               0.000090281              -0.001250948               0.999999984               0.000061418              -0.001267110               0.999999984               0.000027976              -0.001281698               0.999999984              -0.000009064              -0.001295363               0.999999984               0.000230965              -0.001171135               0.999999984               0.000151584              -0.001139691               0.999999984               0.000121204              -0.001123840               0.999999984               0.000111351              -0.001123294               0.999999984               0.000110463              -0.001134229               0.999999984               0.000112786              -0.001152983               0.999999984               0.000115378              -0.001176879               0.999999984               0.000116820              -0.001203715               0.999999984               0.000116030              -0.001231913               0.999999984               0.000112268              -0.001260256               0.999999984               0.000104723              -0.001287899               0.999999984               0.000092992              -0.001314257               0.999999984               0.000076733              -0.001339182               0.999999984               0.000055533              -0.001362356               0.999999984               0.000028794              -0.001383681               0.999999984              -0.000004128              -0.001403231               0.999999984              -0.000043055              -0.001421568               0.999999984               0.000175044              -0.001216265               0.999999984               0.000111596              -0.001206177               0.999999984               0.000085097              -0.001199701               0.999999984               0.000075185              -0.001202919               0.999999984               0.000073026              -0.001215084               0.999999984               0.000074005              -0.001234179               0.999999984               0.000075619              -0.001258305               0.999999984               0.000076634              -0.001285975               0.999999984               0.000076314              -0.001315832               0.999999984               0.000073859              -0.001346744               0.999999984               0.000068371              -0.001377946               0.999999984               0.000059317              -0.001408699               0.999999984               0.000046229              -0.001438540               0.999999984               0.000028594              -0.001467063               0.999999984               0.000005476              -0.001494115               0.999999984              -0.000024410              -0.001519408               0.999999984              -0.000062074              -0.001543070               0.999999984               0.000117544              -0.001248927               0.999999984               0.000073476              -0.001255924               0.999999984               0.000053795              -0.001258200               0.999999984               0.000045671              -0.001265720               0.999999984               0.000043214              -0.001279970               0.999999984               0.000043256              -0.001300202               0.999999984               0.000044078              -0.001325242               0.999999984               0.000044697              -0.001353895               0.999999984               0.000044557              -0.001385191               0.999999984               0.000042947              -0.001418310               0.999999984               0.000039292              -0.001452469               0.999999984               0.000033097              -0.001487012               0.999999984               0.000023957              -0.001521408               0.999999984               0.000011172              -0.001555121               0.999999984              -0.000006219              -0.001587688               0.999999984              -0.000029433              -0.001618716               0.999999984              -0.000060153              -0.001647865               0.999999984               0.000059016              -0.001268636               0.999999984               0.000036480              -0.001286650               0.999999984               0.000026001              -0.001295211               0.999999984               0.000021431              -0.001306077               0.999999984               0.000019780              -0.001322237               0.999999984               0.000019541              -0.001343653               0.999999984               0.000019869              -0.001369527               0.999999984               0.000020147              -0.001399163               0.999999984               0.000020017              -0.001431669               0.999999984               0.000019147              -0.001466338               0.999999984               0.000017288              -0.001502550               0.999999984               0.000014129              -0.001539639               0.999999984               0.000009428              -0.001577074               0.999999984               0.000002706              -0.001614389               0.999999984              -0.000006717              -0.001651038               0.999999984              -0.000019491              -0.001686401               0.999999984              -0.000036831              -0.001719782               0.999999984               0.000000000              -0.001275223               0.999999984              -0.000000000              -0.001296978               0.999999984               0.000000000              -0.001307804               0.999999984              -0.000000000              -0.001320058               0.999999984               0.000000000              -0.001336982               0.999999984               0.000000000              -0.001358806               0.999999984               0.000000000              -0.001385060               0.999999984              -0.000000000              -0.001415127               0.999999984              -0.000000000              -0.001448108               0.999999984               0.000000000              -0.001483337               0.999999984               0.000000000              -0.001520171               0.999999984               0.000000000              -0.001558121               0.999999984               0.000000000              -0.001596653               0.999999984               0.000000000              -0.001635215               0.999999984               0.000000000              -0.001673286               0.999999984               0.000000000              -0.001710214               0.999999984               0.000000000              -0.001745206               0.999999984               0.000628577              -0.000000000               0.999999984               0.000676009              -0.000000000               0.999999984               0.000696702               0.000000000               0.999999984               0.000708230               0.000000000               0.999999984               0.000717197               0.000000000               0.999999984               0.000726190               0.000000000               0.999999984               0.000736130               0.000000000               0.999999984               0.000747178              -0.000000000               0.999999984               0.000759310              -0.000000000               0.999999984               0.000772459              -0.000000000               0.999999984               0.000786453               0.000000000               0.999999984               0.000800970              -0.000000000               0.999999984               0.000815792              -0.000000000               0.999999984               0.000830491               0.000000000               0.999999984               0.000844785              -0.000000000               0.999999984               0.000858212               0.000000000               0.999999984               0.000869994               0.000000000               0.999999984               0.000625127               0.000122431               0.999999984               0.000669053               0.000100390               0.999999984               0.000687474               0.000091118               0.999999984               0.000697612               0.000088345               0.999999984               0.000705785               0.000089010               0.999999984               0.000714255               0.000091476               0.999999984               0.000723729               0.000094782               0.999999984               0.000734342               0.000098250               0.999999984               0.000745944               0.000101402               0.999999984               0.000758315               0.000104332               0.999999984               0.000771347               0.000106790               0.999999984               0.000784734               0.000108361               0.999999984               0.000798216               0.000108715               0.999999984               0.000811593               0.000107541               0.999999984               0.000824461               0.000104336               0.999999984               0.000836343               0.000098248               0.999999984               0.000846759               0.000088365               0.999999984               0.000614727               0.000243682               0.999999984               0.000648606               0.000200123               0.999999984               0.000660973               0.000182642               0.999999984               0.000667489               0.000178005               0.999999984               0.000673316               0.000180020               0.999999984               0.000680067               0.000185495               0.999999984               0.000688186               0.000192575               0.999999984               0.000697448               0.000199815               0.999999984               0.000707563               0.000206538               0.999999984               0.000718264               0.000212489               0.999999984               0.000729141               0.000217269               0.999999984               0.000739856               0.000220448               0.999999984               0.000750191               0.000221570               0.999999984               0.000759924               0.000219946               0.999999984               0.000768797               0.000214918               0.999999984               0.000776592               0.000205295               0.999999984               0.000783104               0.000190005               0.999999984               0.000597623               0.000362610               0.999999984               0.000615773               0.000298813               0.999999984               0.000619399               0.000274979               0.999999984               0.000620995               0.000270058               0.999999984               0.000624039               0.000274581               0.999999984               0.000628995               0.000283830               0.999999984               0.000635537               0.000294967               0.999999984               0.000643131               0.000306277               0.999999984               0.000651316               0.000316598               0.999999984               0.000659544               0.000325447               0.999999984               0.000667380               0.000332470               0.999999984               0.000674482               0.000337242               0.999999984               0.000680668               0.000339255               0.999999984               0.000685700               0.000337900               0.999999984               0.000689382               0.000332463               0.999999984               0.000691677               0.000322047               0.999999984               0.000692621               0.000305936               0.999999984               0.000574224               0.000478091               0.999999984               0.000572115               0.000396248               0.999999984               0.000565995               0.000368478               0.999999984               0.000563134               0.000364945               0.999999984               0.000564020               0.000373001               0.999999984               0.000567674               0.000386403               0.999999984               0.000572921               0.000401740               0.999999984               0.000578834               0.000416818               0.999999984               0.000584631               0.000430540               0.999999984               0.000589765               0.000442135               0.999999984               0.000593864               0.000451288               0.999999984               0.000596784               0.000457583               0.999999984               0.000598171               0.000460596               0.999999984               0.000597841               0.000459875               0.999999984               0.000595689               0.000454932               0.999999984               0.000591781               0.000445337               0.999999984               0.000586398               0.000431060               0.999999984               0.000544841               0.000589088               0.999999984               0.000519969               0.000492352               0.999999984               0.000505047               0.000463108               0.999999984               0.000499039               0.000462377               0.999999984               0.000498880               0.000474493               0.999999984               0.000502050               0.000492016               0.999999984               0.000506465               0.000511137               0.999999984               0.000510826               0.000529563               0.999999984               0.000514202               0.000545994               0.999999984               0.000516086               0.000559813               0.999999984               0.000516175               0.000570762               0.999999984               0.000514195               0.000578480               0.999999984               0.000509979               0.000582576               0.999999984               0.000503517               0.000582678               0.999999984               0.000494794               0.000578718               0.999999984               0.000484099               0.000570880               0.999999984               0.000471852               0.000559660               0.999999984               0.000510045               0.000694528               0.999999984               0.000462019               0.000587145               0.999999984               0.000440481               0.000558480               0.999999984               0.000433465               0.000561155               0.999999984               0.000433836               0.000577209               0.999999984               0.000437158               0.000598496               0.999999984               0.000440979               0.000620838               0.999999984               0.000443748               0.000641974               0.999999984               0.000444462               0.000660516               0.999999984               0.000442563               0.000675965               0.999999984               0.000437788               0.000688179               0.999999984               0.000430127               0.000697056               0.999999984               0.000419575               0.000702198               0.999999984               0.000406135               0.000703263               0.999999984               0.000390162               0.000700668               0.999999984               0.000372272               0.000695135               0.999999984               0.000353249               0.000687642               0.999999984               0.000470632               0.000793283               0.999999984               0.000401045               0.000680335               0.999999984               0.000376019               0.000653627               0.999999984               0.000370344               0.000659610               0.999999984               0.000372202               0.000679189               0.999999984               0.000376229               0.000703626               0.999999984               0.000379578               0.000728593               0.999999984               0.000380428               0.000751681               0.999999984               0.000377750               0.000771691               0.999999984               0.000371188               0.000788221               0.999999984               0.000360799               0.000801437               0.999999984               0.000346680               0.000811183               0.999999984               0.000328907               0.000817108               0.999999984               0.000307981               0.000819112               0.999999984               0.000284739               0.000818162               0.999999984               0.000260107               0.000815582               0.999999984               0.000234798               0.000812189               0.999999984               0.000427947               0.000883632               0.999999984               0.000339241               0.000771659               0.999999984               0.000315121               0.000747136               0.999999984               0.000312247               0.000755882               0.999999984               0.000316284               0.000778372               0.999999984               0.000321088               0.000805504               0.999999984               0.000323514               0.000832496               0.999999984               0.000321603               0.000857005               0.999999984               0.000314525               0.000878089               0.999999984               0.000302392               0.000895592               0.999999984               0.000285503               0.000909484               0.999999984               0.000264009               0.000919603               0.999999984               0.000238382               0.000925980               0.999999984               0.000209837               0.000929275               0.999999984               0.000179572               0.000930785               0.999999984               0.000148555               0.000931567               0.999999984               0.000117281               0.000932021               0.999999984               0.000384035               0.000968942               0.999999984               0.000288007               0.000872112               0.999999984               0.000260832               0.000842824               0.999999984               0.000256663               0.000845403               0.999999984               0.000260389               0.000862958               0.999999984               0.000265551               0.000887096               0.999999984               0.000269143               0.000912964               0.999999984               0.000268939               0.000938062               0.999999984               0.000263975               0.000960927               0.999999984               0.000254172               0.000981128               0.999999984               0.000239800               0.000998397               0.999999984               0.000220936               0.001012841               0.999999984               0.000197445               0.001024294               0.999999984               0.000170160               0.001033101               0.999999984               0.000139968               0.001039744               0.999999984               0.000108032               0.001045237               0.999999984               0.000075717               0.001050133               0.999999984               0.000335980               0.001046408               0.999999984               0.000239628               0.000968980               0.999999984               0.000209481               0.000940517               0.999999984               0.000203296               0.000939114               0.999999984               0.000205921               0.000952760               0.999999984               0.000210745               0.000974260               0.999999984               0.000214620               0.000999113               0.999999984               0.000215565               0.001024733               0.999999984               0.000212408               0.001049405               0.999999984               0.000204864               0.001072161               0.999999984               0.000192907               0.001092655               0.999999984               0.000176506               0.001110806               0.999999984               0.000155420               0.001126591               0.999999984               0.000129668               0.001140090               0.999999984               0.000099820               0.001151615               0.999999984               0.000066926               0.001161759               0.999999984               0.000032430               0.001171115               0.999999984               0.000284783               0.001114217               0.999999984               0.000194136               0.001059414               0.999999984               0.000162718               0.001035688               0.999999984               0.000154304               0.001033427               0.999999984               0.000155204               0.001044773               0.999999984               0.000159025               0.001064312               0.999999984               0.000162481               0.001088457               0.999999984               0.000163981               0.001114592               0.999999984               0.000162234               0.001141078               0.999999984               0.000156730               0.001166584               0.999999984               0.000146998               0.001190569               0.999999984               0.000132840               0.001212672               0.999999984               0.000114072               0.001232852               0.999999984               0.000090281               0.001250948               0.999999984               0.000061418               0.001267110               0.999999984               0.000027976               0.001281698               0.999999984              -0.000009064               0.001295363               0.999999984               0.000230965               0.001171135               0.999999984               0.000151584               0.001139691               0.999999984               0.000121204               0.001123840               0.999999984               0.000111351               0.001123294               0.999999984               0.000110463               0.001134229               0.999999984               0.000112786               0.001152983               0.999999984               0.000115378               0.001176879               0.999999984               0.000116820               0.001203715               0.999999984               0.000116030               0.001231913               0.999999984               0.000112268               0.001260256               0.999999984               0.000104723               0.001287899               0.999999984               0.000092992               0.001314257               0.999999984               0.000076733               0.001339182               0.999999984               0.000055533               0.001362356               0.999999984               0.000028794               0.001383681               0.999999984              -0.000004128               0.001403231               0.999999984              -0.000043055               0.001421568               0.999999984               0.000175044               0.001216265               0.999999984               0.000111596               0.001206177               0.999999984               0.000085097               0.001199701               0.999999984               0.000075185               0.001202919               0.999999984               0.000073026               0.001215084               0.999999984               0.000074005               0.001234179               0.999999984               0.000075619               0.001258305               0.999999984               0.000076634               0.001285975               0.999999984               0.000076314               0.001315832               0.999999984               0.000073859               0.001346744               0.999999984               0.000068371               0.001377946               0.999999984               0.000059317               0.001408699               0.999999984               0.000046229               0.001438540               0.999999984               0.000028594               0.001467063               0.999999984               0.000005476               0.001494115               0.999999984              -0.000024410               0.001519408               0.999999984              -0.000062074               0.001543070               0.999999984               0.000117544               0.001248927               0.999999984               0.000073476               0.001255924               0.999999984               0.000053795               0.001258200               0.999999984               0.000045671               0.001265720               0.999999984               0.000043214               0.001279970               0.999999984               0.000043256               0.001300202               0.999999984               0.000044078               0.001325242               0.999999984               0.000044697               0.001353895               0.999999984               0.000044557               0.001385191               0.999999984               0.000042947               0.001418310               0.999999984               0.000039292               0.001452469               0.999999984               0.000033097               0.001487012               0.999999984               0.000023957               0.001521408               0.999999984               0.000011172               0.001555121               0.999999984              -0.000006219               0.001587688               0.999999984              -0.000029433               0.001618716               0.999999984              -0.000060153               0.001647865               0.999999984               0.000059016               0.001268636               0.999999984               0.000036480               0.001286650               0.999999984               0.000026001               0.001295211               0.999999984               0.000021431               0.001306077               0.999999984               0.000019780               0.001322237               0.999999984               0.000019541               0.001343653               0.999999984               0.000019869               0.001369527               0.999999984               0.000020147               0.001399163               0.999999984               0.000020017               0.001431669               0.999999984               0.000019147               0.001466338               0.999999984               0.000017288               0.001502550               0.999999984               0.000014129               0.001539639               0.999999984               0.000009428               0.001577074               0.999999984               0.000002706               0.001614389               0.999999984              -0.000006717               0.001651038               0.999999984              -0.000019491               0.001686401               0.999999984              -0.000036831               0.001719782               0.999999984               0.000000000               0.001275223               0.999999984               0.000000000               0.001296978               0.999999984              -0.000000000               0.001307804               0.999999984               0.000000000               0.001320058               0.999999984               0.000000000               0.001336982               0.999999984               0.000000000               0.001358806               0.999999984              -0.000000000               0.001385060               0.999999984              -0.000000000               0.001415127               0.999999984              -0.000000000               0.001448108               0.999999984               0.000000000               0.001483337               0.999999984               0.000000000               0.001520171               0.999999984               0.000000000               0.001558121               0.999999984              -0.000000000               0.001596653               0.999999984              -0.000000000               0.001635215               0.999999984              -0.000000000               0.001673286               0.999999984              -0.000000000               0.001710214               0.999999984               0.000000000               0.001745206               0.999999984 </DataArray>
<DataArray type="Float64"                                    Name="defo"                                                      NumberOfComponents=" 3" format="ascii">
             -0.000628577              -0.000000000               0.999999984              -0.000676009               0.000000000               0.999999984              -0.000696702              -0.000000000               0.999999984              -0.000708230              -0.000000000               0.999999984              -0.000717197               0.000000000               0.999999984              -0.000726190               0.000000000               0.999999984              -0.000736130              -0.000000000               0.999999984              -0.000747178               0.000000000               0.999999984              -0.000759310               0.000000000               0.999999984              -0.000772459               0.000000000               0.999999984              -0.000786453               0.000000000               0.999999984              -0.000800970               0.000000000               0.999999984              -0.000815792               0.000000000               0.999999984              -0.000830491              -0.000000000               0.999999984              -0.000844785               0.000000000               0.999999984              -0.000858212               0.000000000               0.999999984              -0.000869994               0.000000000               0.999999984              -0.000625127               0.000122431               0.999999984              -0.000669053               0.000100390               0.999999984              -0.000687474               0.000091118               0.999999984              -0.000697612               0.000088345               0.999999984              -0.000705785               0.000089010               0.999999984              -0.000714255               0.000091476               0.999999984              -0.000723729               0.000094782               0.999999984              -0.000734342               0.000098250               0.999999984              -0.000745944               0.000101402               0.999999984              -0.000758315               0.000104332               0.999999984              -0.000771347               0.000106790               0.999999984              -0.000784734               0.000108361               0.999999984              -0.000798216               0.000108715               0.999999984              -0.000811593               0.000107541               0.999999984              -0.000824461               0.000104336               0.999999984              -0.000836343               0.000098248               0.999999984              -0.000846759               0.000088365               0.999999984              -0.000614727               0.000243682               0.999999984              -0.000648606               0.000200123               0.999999984              -0.000660973               0.000182642               0.999999984              -0.000667489               0.000178005               0.999999984              -0.000673316               0.000180020               0.999999984              -0.000680067               0.000185495               0.999999984              -0.000688186               0.000192575               0.999999984              -0.000697448               0.000199815               0.999999984              -0.000707563               0.000206538               0.999999984              -0.000718264               0.000212489               0.999999984              -0.000729141               0.000217269               0.999999984              -0.000739856               0.000220448               0.999999984              -0.000750191               0.000221570               0.999999984              -0.000759924               0.000219946               0.999999984              -0.000768797               0.000214918               0.999999984              -0.000776592               0.000205295               0.999999984              -0.000783104               0.000190005               0.999999984              -0.000597623               0.000362610               0.999999984              -0.000615773               0.000298813               0.999999984              -0.000619399               0.000274979               0.999999984              -0.000620995               0.000270058               0.999999984              -0.000624039               0.000274581               0.999999984              -0.000628995               0.000283830               0.999999984              -0.000635537               0.000294967               0.999999984              -0.000643131               0.000306277               0.999999984              -0.000651316               0.000316598               0.999999984              -0.000659544               0.000325447               0.999999984              -0.000667380               0.000332470               0.999999984              -0.000674482               0.000337242               0.999999984              -0.000680668               0.000339255               0.999999984              -0.000685700               0.000337900               0.999999984              -0.000689382               0.000332463               0.999999984              -0.000691677               0.000322047               0.999999984              -0.000692621               0.000305936               0.999999984              -0.000574224               0.000478091               0.999999984              -0.000572115               0.000396248               0.999999984              -0.000565995               0.000368478               0.999999984              -0.000563134               0.000364945               0.999999984              -0.000564020               0.000373001               0.999999984              -0.000567674               0.000386403               0.999999984              -0.000572921               0.000401740               0.999999984              -0.000578834               0.000416818               0.999999984              -0.000584631               0.000430540               0.999999984              -0.000589765               0.000442135               0.999999984              -0.000593864               0.000451288               0.999999984              -0.000596784               0.000457583               0.999999984              -0.000598171               0.000460596               0.999999984              -0.000597841               0.000459875               0.999999984              -0.000595689               0.000454932               0.999999984              -0.000591781               0.000445337               0.999999984              -0.000586398               0.000431060               0.999999984              -0.000544841               0.000589088               0.999999984              -0.000519969               0.000492352               0.999999984              -0.000505047               0.000463108               0.999999984              -0.000499039               0.000462377               0.999999984              -0.000498880               0.000474493               0.999999984              -0.000502050               0.000492016               0.999999984              -0.000506465               0.000511137               0.999999984              -0.000510826               0.000529563               0.999999984              -0.000514202               0.000545994               0.999999984              -0.000516086               0.000559813               0.999999984              -0.000516175               0.000570762               0.999999984              -0.000514195               0.000578480               0.999999984              -0.000509979               0.000582576               0.999999984              -0.000503517               0.000582678               0.999999984              -0.000494794               0.000578718               0.999999984              -0.000484099               0.000570880               0.999999984              -0.000471852               0.000559660               0.999999984              -0.000510045               0.000694528               0.999999984              -0.000462019               0.000587145               0.999999984              -0.000440481               0.000558480               0.999999984              -0.000433465               0.000561155               0.999999984              -0.000433836               0.000577209               0.999999984              -0.000437158               0.000598496               0.999999984              -0.000440979               0.000620838               0.999999984              -0.000443748               0.000641974               0.999999984              -0.000444462               0.000660516               0.999999984              -0.000442563               0.000675965               0.999999984              -0.000437788               0.000688179               0.999999984              -0.000430127               0.000697056               0.999999984              -0.000419575               0.000702198               0.999999984              -0.000406135               0.000703263               0.999999984              -0.000390162               0.000700668               0.999999984              -0.000372272               0.000695135               0.999999984              -0.000353249               0.000687642               0.999999984              -0.000470632               0.000793283               0.999999984              -0.000401045               0.000680335               0.999999984              -0.000376019               0.000653627               0.999999984              -0.000370344               0.000659610               0.999999984              -0.000372202               0.000679189               0.999999984              -0.000376229               0.000703626               0.999999984              -0.000379578               0.000728593               0.999999984              -0.000380428               0.000751681               0.999999984              -0.000377750               0.000771691               0.999999984              -0.000371188               0.000788221               0.999999984              -0.000360799               0.000801437               0.999999984              -0.000346680               0.000811183               0.999999984              -0.000328907               0.000817108               0.999999984              -0.000307981               0.000819112               0.999999984              -0.000284739               0.000818162               0.999999984              -0.000260107               0.000815582               0.999999984              -0.000234798               0.000812189               0.999999984              -0.000427947               0.000883632               0.999999984              -0.000339241               0.000771659               0.999999984              -0.000315121               0.000747136               0.999999984              -0.000312247               0.000755882               0.999999984              -0.000316284               0.000778372               0.999999984              -0.000321088               0.000805504               0.999999984              -0.000323514               0.000832496               0.999999984              -0.000321603               0.000857005               0.999999984              -0.000314525               0.000878089               0.999999984              -0.000302392               0.000895592               0.999999984              -0.000285503               0.000909484               0.999999984              -0.000264009               0.000919603               0.999999984              -0.000238382               0.000925980               0.999999984              -0.000209837               0.000929275               0.999999984              -0.000179572               0.000930785               0.999999984              -0.000148555               0.000931567               0.999999984              -0.000117281               0.000932021               0.999999984              -0.000384035               0.000968942               0.999999984              -0.000288007               0.000872112               0.999999984              -0.000260832               0.000842824               0.999999984              -0.000256663               0.000845403               0.999999984              -0.000260389               0.000862958               0.999999984              -0.000265551               0.000887096               0.999999984              -0.000269143               0.000912964               0.999999984              -0.000268939               0.000938062               0.999999984              -0.000263975               0.000960927               0.999999984              -0.000254172               0.000981128               0.999999984              -0.000239800               0.000998397               0.999999984              -0.000220936               0.001012841               0.999999984              -0.000197445               0.001024294               0.999999984              -0.000170160               0.001033101               0.999999984              -0.000139968               0.001039744               0.999999984              -0.000108032               0.001045237               0.999999984              -0.000075717               0.001050133               0.999999984              -0.000335980               0.001046408               0.999999984              -0.000239628               0.000968980               0.999999984              -0.000209481               0.000940517               0.999999984              -0.000203296               0.000939114               0.999999984              -0.000205921               0.000952760               0.999999984              -0.000210745               0.000974260               0.999999984              -0.000214620               0.000999113               0.999999984              -0.000215565               0.001024733               0.999999984              -0.000212408               0.001049405               0.999999984              -0.000204864               0.001072161               0.999999984              -0.000192907               0.001092655               0.999999984              -0.000176506               0.001110806               0.999999984              -0.000155420               0.001126591               0.999999984              -0.000129668               0.001140090               0.999999984              -0.000099820               0.001151615               0.999999984              -0.000066926               0.001161759               0.999999984              -0.000032430               0.001171115               0.999999984              -0.000284783               0.001114217               0.999999984              -0.000194136               0.001059414               0.999999984              -0.000162718               0.001035688               0.999999984              -0.000154304               0.001033427               0.999999984              -0.000155204               0.001044773               0.999999984              -0.000159025               0.001064312               0.999999984              -0.000162481               0.001088457               0.999999984              -0.000163981               0.001114592               0.999999984              -0.000162234               0.001141078               0.999999984              -0.000156730               0.001166584               0.999999984              -0.000146998               0.001190569               0.999999984              -0.000132840               0.001212672               0.999999984              -0.000114072               0.001232852               0.999999984              -0.000090281               0.001250948               0.999999984              -0.000061418               0.001267110               0.999999984              -0.000027976               0.001281698               0.999999984               0.000009064               0.001295363               0.999999984              -0.000230965               0.001171135               0.999999984              -0.000151584               0.001139691               0.999999984              -0.000121204               0.001123840               0.999999984              -0.000111351               0.001123294               0.999999984              -0.000110463               0.001134229               0.999999984              -0.000112786               0.001152983               0.999999984              -0.000115378               0.001176879               0.999999984              -0.000116820               0.001203715               0.999999984              -0.000116030               0.001231913               0.999999984              -0.000112268               0.001260256               0.999999984              -0.000104723               0.001287899               0.999999984              -0.000092992               0.001314257               0.999999984              -0.000076733               0.001339182               0.999999984              -0.000055533               0.001362356               0.999999984              -0.000028794               0.001383681               0.999999984               0.000004128               0.001403231               0.999999984               0.000043055               0.001421568               0.999999984              -0.000175044               0.001216265               0.999999984              -0.000111596               0.001206177               0.999999984              -0.000085097               0.001199701               0.999999984              -0.000075185               0.001202919               0.999999984              -0.000073026               0.001215084               0.999999984              -0.000074005               0.001234179               0.999999984              -0.000075619               0.001258305               0.999999984              -0.000076634               0.001285975               0.999999984              -0.000076314               0.001315832               0.999999984              -0.000073859               0.001346744               0.999999984              -0.000068371               0.001377946               0.999999984              -0.000059317               0.001408699               0.999999984              -0.000046229               0.001438540               0.999999984              -0.000028594               0.001467063               0.999999984              -0.000005476               0.001494115               0.999999984               0.000024410               0.001519408               0.999999984               0.000062074               0.001543070               0.999999984              -0.000117544               0.001248927               0.999999984              -0.000073476               0.001255924               0.999999984              -0.000053795               0.001258200               0.999999984              -0.000045671               0.001265720               0.999999984              -0.000043214               0.001279970               0.999999984              -0.000043256               0.001300202               0.999999984              -0.000044078               0.001325242               0.999999984              -0.000044697               0.001353895               0.999999984              -0.000044557               0.001385191               0.999999984              -0.000042947               0.001418310               0.999999984              -0.000039292               0.001452469               0.999999984              -0.000033097               0.001487012               0.999999984              -0.000023957               0.001521408               0.999999984              -0.000011172               0.001555121               0.999999984               0.000006219               0.001587688               0.999999984               0.000029433               0.001618716               0.999999984               0.000060153               0.001647865               0.999999984              -0.000059016               0.001268636               0.999999984              -0.000036480               0.001286650               0.999999984              -0.000026001               0.001295211               0.999999984              -0.000021431               0.001306077               0.999999984              -0.000019780               0.001322237               0.999999984              -0.000019541               0.001343653               0.999999984              -0.000019869               0.001369527               0.999999984              -0.000020147               0.001399163               0.999999984              -0.000020017               0.001431669               0.999999984              -0.000019147               0.001466338               0.999999984              -0.000017288               0.001502550               0.999999984              -0.000014129               0.001539639               0.999999984              -0.000009428               0.001577074               0.999999984              -0.000002706               0.001614389               0.999999984               0.000006717               0.001651038               0.999999984               0.000019491               0.001686401               0.999999984               0.000036831               0.001719782               0.999999984               0.000000000               0.001275223               0.999999984               0.000000000               0.001296978               0.999999984              -0.000000000               0.001307804               0.999999984               0.000000000               0.001320058               0.999999984               0.000000000               0.001336982               0.999999984               0.000000000               0.001358806               0.999999984              -0.000000000               0.001385060               0.999999984              -0.000000000               0.001415127               0.999999984              -0.000000000               0.001448108               0.999999984               0.000000000               0.001483337               0.999999984               0.000000000               0.001520171               0.999999984               0.000000000               0.001558121               0.999999984              -0.000000000               0.001596653               0.999999984              -0.000000000               0.001635215               0.999999984              -0.000000000               0.001673286               0.999999984              -0.000000000               0.001710214               0.999999984               0.000000000               0.001745206               0.999999984              -0.000628577              -0.000000000               0.999999984              -0.000676009               0.000000000               0.999999984              -0.000696702              -0.000000000               0.999999984              -0.000708230              -0.000000000               0.999999984              -0.000717197               0.000000000               0.999999984              -0.000726190               0.000000000               0.999999984              -0.000736130              -0.000000000               0.999999984              -0.000747178               0.000000000               0.999999984              -0.000759310               0.000000000               0.999999984              -0.000772459               0.000000000               0.999999984              -0.000786453               0.000000000               0.999999984              -0.000800970               0.000000000               0.999999984              -0.000815792               0.000000000               0.999999984              -0.000830491              -0.000000000               0.999999984              -0.000844785               0.000000000               0.999999984              -0.000858212               0.000000000               0.999999984              -0.000869994               0.000000000               0.999999984              -0.000625127              -0.000122431               0.999999984              -0.000669053              -0.000100390               0.999999984              -0.000687474              -0.000091118               0.999999984              -0.000697612              -0.000088345               0.999999984              -0.000705785              -0.000089010               0.999999984              -0.000714255              -0.000091476               0.999999984              -0.000723729              -0.000094782               0.999999984              -0.000734342              -0.000098250               0.999999984              -0.000745944              -0.000101402               0.999999984              -0.000758315              -0.000104332               0.999999984              -0.000771347              -0.000106790               0.999999984              -0.000784734              -0.000108361               0.999999984              -0.000798216              -0.000108715               0.999999984              -0.000811593              -0.000107541               0.999999984              -0.000824461              -0.000104336               0.999999984              -0.000836343              -0.000098248               0.999999984              -0.000846759              -0.000088365               0.999999984              -0.000614727              -0.000243682               0.999999984              -0.000648606              -0.000200123               0.999999984              -0.000660973              -0.000182642               0.999999984              -0.000667489              -0.000178005               0.999999984              -0.000673316              -0.000180020               0.999999984              -0.000680067              -0.000185495               0.999999984              -0.000688186              -0.000192575               0.999999984              -0.000697448              -0.000199815               0.999999984              -0.000707563              -0.000206538               0.999999984              -0.000718264              -0.000212489               0.999999984              -0.000729141              -0.000217269               0.999999984              -0.000739856              -0.000220448               0.999999984              -0.000750191              -0.000221570               0.999999984              -0.000759924              -0.000219946               0.999999984              -0.000768797              -0.000214918               0.999999984              -0.000776592              -0.000205295               0.999999984              -0.000783104              -0.000190005               0.999999984              -0.000597623              -0.000362610               0.999999984              -0.000615773              -0.000298813               0.999999984              -0.000619399              -0.000274979               0.999999984              -0.000620995              -0.000270058               0.999999984              -0.000624039              -0.000274581               0.999999984              -0.000628995              -0.000283830               0.999999984              -0.000635537              -0.000294967               0.999999984              -0.000643131              -0.000306277               0.999999984              -0.000651316              -0.000316598               0.999999984              -0.000659544              -0.000325447               0.999999984              -0.000667380              -0.000332470               0.999999984              -0.000674482              -0.000337242               0.999999984              -0.000680668              -0.000339255               0.999999984              -0.000685700              -0.000337900               0.999999984              -0.000689382              -0.000332463               0.999999984              -0.000691677              -0.000322047               0.999999984              -0.000692621              -0.000305936               0.999999984              -0.000574224              -0.000478091               0.999999984              -0.000572115              -0.000396248               0.999999984              -0.000565995              -0.000368478               0.999999984              -0.000563134              -0.000364945               0.999999984              -0.000564020              -0.000373001               0.999999984              -0.000567674              -0.000386403               0.999999984              -0.000572921              -0.000401740               0.999999984              -0.000578834              -0.000416818               0.999999984              -0.000584631              -0.000430540               0.999999984              -0.000589765              -0.000442135               0.999999984              -0.000593864              -0.000451288               0.999999984              -0.000596784              -0.000457583               0.999999984              -0.000598171              -0.000460596               0.999999984              -0.000597841              -0.000459875               0.999999984              -0.000595689              -0.000454932               0.999999984              -0.000591781              -0.000445337               0.999999984              -0.000586398              -0.000431060               0.999999984              -0.000544841              -0.000589088               0.999999984              -0.000519969              -0.000492352               0.999999984              -0.000505047              -0.000463108               0.999999984              -0.000499039              -0.000462377               0.999999984              -0.000498880              -0.000474493               0.999999984              -0.000502050              -0.000492016               0.999999984              -0.000506465              -0.000511137               0.999999984              -0.000510826              -0.000529563               0.999999984              -0.000514202              -0.000545994               0.999999984              -0.000516086              -0.000559813               0.999999984              -0.000516175              -0.000570762               0.999999984              -0.000514195              -0.000578480               0.999999984              -0.000509979              -0.000582576               0.999999984              -0.000503517              -0.000582678               0.999999984              -0.000494794              -0.000578718               0.999999984              -0.000484099              -0.000570880               0.999999984              -0.000471852              -0.000559660               0.999999984              -0.000510045              -0.000694528               0.999999984              -0.000462019              -0.000587145               0.999999984              -0.000440481              -0.000558480               0.999999984              -0.000433465              -0.000561155               0.999999984              -0.000433836              -0.000577209               0.999999984              -0.000437158              -0.000598496               0.999999984              -0.000440979              -0.000620838               0.999999984              -0.000443748              -0.000641974               0.999999984              -0.000444462              -0.000660516               0.999999984              -0.000442563              -0.000675965               0.999999984              -0.000437788              -0.000688179               0.999999984              -0.000430127              -0.000697056               0.999999984              -0.000419575              -0.000702198               0.999999984              -0.000406135              -0.000703263               0.999999984              -0.000390162              -0.000700668               0.999999984              -0.000372272              -0.000695135               0.999999984              -0.000353249              -0.000687642               0.999999984              -0.000470632              -0.000793283               0.999999984              -0.000401045              -0.000680335               0.999999984              -0.000376019              -0.000653627               0.999999984              -0.000370344              -0.000659610               0.999999984              -0.000372202              -0.000679189               0.999999984              -0.000376229              -0.000703626               0.999999984              -0.000379578              -0.000728593               0.999999984              -0.000380428              -0.000751681               0.999999984              -0.000377750              -0.000771691               0.999999984              -0.000371188              -0.000788221               0.999999984              -0.000360799              -0.000801437               0.999999984              -0.000346680              -0.000811183               0.999999984              -0.000328907              -0.000817108               0.999999984              -0.000307981              -0.000819112               0.999999984              -0.000284739              -0.000818162               0.999999984              -0.000260107              -0.000815582               0.999999984              -0.000234798              -0.000812189               0.999999984              -0.000427947              -0.000883632               0.999999984              -0.000339241              -0.000771659               0.999999984              -0.000315121              -0.000747136               0.999999984              -0.000312247              -0.000755882               0.999999984              -0.000316284              -0.000778372               0.999999984              -0.000321088              -0.000805504               0.999999984              -0.000323514              -0.000832496               0.999999984              -0.000321603              -0.000857005               0.999999984              -0.000314525              -0.000878089               0.999999984              -0.000302392              -0.000895592               0.999999984              -0.000285503              -0.000909484               0.999999984              -0.000264009              -0.000919603               0.999999984              -0.000238382              -0.000925980               0.999999984              -0.000209837              -0.000929275               0.999999984              -0.000179572              -0.000930785               0.999999984              -0.000148555              -0.000931567               0.999999984              -0.000117281              -0.000932021               0.999999984              -0.000384035              -0.000968942               0.999999984              -0.000288007              -0.000872112               0.999999984              -0.000260832              -0.000842824               0.999999984              -0.000256663              -0.000845403               0.999999984              -0.000260389              -0.000862958               0.999999984              -0.000265551              -0.000887096               0.999999984              -0.000269143              -0.000912964               0.999999984              -0.000268939              -0.000938062               0.999999984              -0.000263975              -0.000960927               0.999999984              -0.000254172              -0.000981128               0.999999984              -0.000239800              -0.000998397               0.999999984              -0.000220936              -0.001012841               0.999999984              -0.000197445              -0.001024294               0.999999984              -0.000170160              -0.001033101               0.999999984              -0.000139968              -0.001039744               0.999999984              -0.000108032              -0.001045237               0.999999984              -0.000075717              -0.001050133               0.999999984              -0.000335980              -0.001046408               0.999999984              -0.000239628              -0.000968980               0.999999984              -0.000209481              -0.000940517               0.999999984              -0.000203296              -0.000939114               0.999999984              -0.000205921              -0.000952760               0.999999984              -0.000210745              -0.000974260               0.999999984              -0.000214620              -0.000999113               0.999999984              -0.000215565              -0.001024733               0.999999984              -0.000212408              -0.001049405               0.999999984              -0.000204864              -0.001072161               0.999999984              -0.000192907              -0.001092655               0.999999984              -0.000176506              -0.001110806               0.999999984              -0.000155420              -0.001126591               0.999999984              -0.000129668              -0.001140090               0.999999984              -0.000099820              -0.001151615               0.999999984              -0.000066926              -0.001161759               0.999999984              -0.000032430              -0.001171115               0.999999984              -0.000284783              -0.001114217               0.999999984              -0.000194136              -0.001059414               0.999999984              -0.000162718              -0.001035688               0.999999984              -0.000154304              -0.001033427               0.999999984              -0.000155204              -0.001044773               0.999999984              -0.000159025              -0.001064312               0.999999984              -0.000162481              -0.001088457               0.999999984              -0.000163981              -0.001114592               0.999999984              -0.000162234              -0.001141078               0.999999984              -0.000156730              -0.001166584               0.999999984              -0.000146998              -0.001190569               0.999999984              -0.000132840              -0.001212672               0.999999984              -0.000114072              -0.001232852               0.999999984              -0.000090281              -0.001250948               0.999999984              -0.000061418              -0.001267110               0.999999984              -0.000027976              -0.001281698               0.999999984               0.000009064              -0.001295363               0.999999984              -0.000230965              -0.001171135               0.999999984              -0.000151584              -0.001139691               0.999999984              -0.000121204              -0.001123840               0.999999984              -0.000111351              -0.001123294               0.999999984              -0.000110463              -0.001134229               0.999999984              -0.000112786              -0.001152983               0.999999984              -0.000115378              -0.001176879               0.999999984              -0.000116820              -0.001203715               0.999999984              -0.000116030              -0.001231913               0.999999984              -0.000112268              -0.001260256               0.999999984              -0.000104723              -0.001287899               0.999999984              -0.000092992              -0.001314257               0.999999984              -0.000076733              -0.001339182               0.999999984              -0.000055533              -0.001362356               0.999999984              -0.000028794              -0.001383681               0.999999984               0.000004128              -0.001403231               0.999999984               0.000043055              -0.001421568               0.999999984              -0.000175044              -0.001216265               0.999999984              -0.000111596              -0.001206177               0.999999984              -0.000085097              -0.001199701               0.999999984              -0.000075185              -0.001202919               0.999999984              -0.000073026              -0.001215084               0.999999984              -0.000074005              -0.001234179               0.999999984              -0.000075619              -0.001258305               0.999999984              -0.000076634              -0.001285975               0.999999984              -0.000076314              -0.001315832               0.999999984              -0.000073859              -0.001346744               0.999999984              -0.000068371              -0.001377946               0.999999984              -0.000059317              -0.001408699               0.999999984              -0.000046229              -0.001438540               0.999999984              -0.000028594              -0.001467063               0.999999984              -0.000005476              -0.001494115               0.999999984               0.000024410              -0.001519408               0.999999984               0.000062074              -0.001543070               0.999999984              -0.000117544              -0.001248927               0.999999984              -0.000073476              -0.001255924               0.999999984              -0.000053795              -0.001258200               0.999999984              -0.000045671              -0.001265720               0.999999984              -0.000043214              -0.001279970               0.999999984              -0.000043256              -0.001300202               0.999999984              -0.000044078              -0.001325242               0.999999984              -0.000044697              -0.001353895               0.999999984              -0.000044557              -0.001385191               0.999999984              -0.000042947              -0.001418310               0.999999984              -0.000039292              -0.001452469               0.999999984              -0.000033097              -0.001487012               0.999999984              -0.000023957              -0.001521408               0.999999984              -0.000011172              -0.001555121               0.999999984               0.000006219              -0.001587688               0.999999984               0.000029433              -0.001618716               0.999999984               0.000060153              -0.001647865               0.999999984              -0.000059016              -0.001268636               0.999999984              -0.000036480              -0.001286650               0.999999984              -0.000026001              -0.001295211               0.999999984              -0.000021431              -0.001306077               0.999999984              -0.000019780              -0.001322237               0.999999984              -0.000019541              -0.001343653               0.999999984              -0.000019869              -0.001369527               0.999999984              -0.000020147              -0.001399163               0.999999984              -0.000020017              -0.001431669               0.999999984              -0.000019147              -0.001466338               0.999999984              -0.000017288              -0.001502550               0.999999984              -0.000014129              -0.001539639               0.999999984              -0.000009428              -0.001577074               0.999999984              -0.000002706              -0.001614389               0.999999984               0.000006717              -0.001651038               0.999999984               0.000019491              -0.001686401               0.999999984               0.000036831              -0.001719782               0.999999984               0.000000000              -0.001275223               0.999999984              -0.000000000              -0.001296978               0.999999984               0.000000000              -0.001307804               0.999999984              -0.000000000              -0.001320058               0.999999984               0.000000000              -0.001336982               0.999999984               0.000000000              -0.001358806               0.999999984               0.000000000              -0.001385060               0.999999984              -0.000000000              -0.001415127               0.999999984              -0.000000000              -0.001448108               0.999999984               0.000000000              -0.001483337               0.999999984               0.000000000              -0.001520171               0.999999984               0.000000000              -0.001558121               0.999999984               0.000000000              -0.001596653               0.999999984               0.000000000              -0.001635215               0.999999984               0.000000000              -0.001673286               0.999999984               0.000000000              -0.001710214               0.999999984               0.000000000              -0.001745206               0.999999984               0.000628577              -0.000000000               0.999999984               0.000676009              -0.000000000               0.999999984               0.000696702               0.000000000               0.999999984               0.000708230               0.000000000               0.999999984               0.000717197               0.000000000               0.999999984               0.000726190               0.000000000               0.999999984               0.000736130               0.000000000               0.999999984               0.000747178              -0.000000000               0.999999984               0.000759310              -0.000000000               0.999999984               0.000772459              -0.000000000               0.999999984               0.000786453               0.000000000               0.999999984               0.000800970              -0.000000000               0.999999984               0.000815792              -0.000000000               0.999999984               0.000830491               0.000000000               0.999999984               0.000844785              -0.000000000               0.999999984               0.000858212               0.000000000               0.999999984               0.000869994               0.000000000               0.999999984               0.000625127              -0.000122431               0.999999984               0.000669053              -0.000100390               0.999999984               0.000687474              -0.000091118               0.999999984               0.000697612              -0.000088345               0.999999984               0.000705785              -0.000089010               0.999999984               0.000714255              -0.000091476               0.999999984               0.000723729              -0.000094782               0.999999984               0.000734342              -0.000098250               0.999999984               0.000745944              -0.000101402               0.999999984               0.000758315              -0.000104332               0.999999984               0.000771347              -0.000106790               0.999999984               0.000784734              -0.000108361               0.999999984               0.000798216              -0.000108715               0.999999984               0.000811593              -0.000107541               0.999999984               0.000824461              -0.000104336               0.999999984               0.000836343              -0.000098248               0.999999984               0.000846759              -0.000088365               0.999999984               0.000614727              -0.000243682               0.999999984               0.000648606              -0.000200123               0.999999984               0.000660973              -0.000182642               0.999999984               0.000667489              -0.000178005               0.999999984               0.000673316              -0.000180020               0.999999984               0.000680067              -0.000185495               0.999999984               0.000688186              -0.000192575               0.999999984               0.000697448              -0.000199815               0.999999984               0.000707563              -0.000206538               0.999999984               0.000718264              -0.000212489               0.999999984               0.000729141              -0.000217269               0.999999984               0.000739856              -0.000220448               0.999999984               0.000750191              -0.000221570               0.999999984               0.000759924              -0.000219946               0.999999984               0.000768797              -0.000214918               0.999999984               0.000776592              -0.000205295               0.999999984               0.000783104              -0.000190005               0.999999984               0.000597623              -0.000362610               0.999999984               0.000615773              -0.000298813               0.999999984               0.000619399              -0.000274979               0.999999984               0.000620995              -0.000270058               0.999999984               0.000624039              -0.000274581               0.999999984               0.000628995              -0.000283830               0.999999984               0.000635537              -0.000294967               0.999999984               0.000643131              -0.000306277               0.999999984               0.000651316              -0.000316598               0.999999984               0.000659544              -0.000325447               0.999999984               0.000667380              -0.000332470               0.999999984               0.000674482              -0.000337242               0.999999984               0.000680668              -0.000339255               0.999999984               0.000685700              -0.000337900               0.999999984               0.000689382              -0.000332463               0.999999984               0.000691677              -0.000322047               0.999999984               0.000692621              -0.000305936               0.999999984               0.000574224              -0.000478091               0.999999984               0.000572115              -0.000396248               0.999999984               0.000565995              -0.000368478               0.999999984               0.000563134              -0.000364945               0.999999984               0.000564020              -0.000373001               0.999999984               0.000567674              -0.000386403               0.999999984               0.000572921              -0.000401740               0.999999984               0.000578834              -0.000416818               0.999999984               0.000584631              -0.000430540               0.999999984               0.000589765              -0.000442135               0.999999984               0.000593864              -0.000451288               0.999999984               0.000596784              -0.000457583               0.999999984               0.000598171              -0.000460596               0.999999984               0.000597841              -0.000459875               0.999999984               0.000595689              -0.000454932               0.999999984               0.000591781              -0.000445337               0.999999984               0.000586398              -0.000431060               0.999999984               0.000544841              -0.000589088               0.999999984               0.000519969              -0.000492352               0.999999984               0.000505047              -0.000463108               0.999999984               0.000499039              -0.000462377               0.999999984               0.000498880              -0.000474493               0.999999984               0.000502050              -0.000492016               0.999999984               0.000506465              -0.000511137               0.999999984               0.000510826              -0.000529563               0.999999984               0.000514202              -0.000545994               0.999999984               0.000516086              -0.000559813               0.999999984               0.000516175              -0.000570762               0.999999984               0.000514195              -0.000578480               0.999999984               0.000509979              -0.000582576               0.999999984               0.000503517              -0.000582678               0.999999984               0.000494794              -0.000578718               0.999999984               0.000484099              -0.000570880               0.999999984               0.000471852              -0.000559660               0.999999984               0.000510045              -0.000694528               0.999999984               0.000462019              -0.000587145               0.999999984               0.000440481              -0.000558480               0.999999984               0.000433465              -0.000561155               0.999999984               0.000433836              -0.000577209               0.999999984               0.000437158              -0.000598496               0.999999984               0.000440979              -0.000620838               0.999999984               0.000443748              -0.000641974               0.999999984               0.000444462              -0.000660516               0.999999984               0.000442563              -0.000675965               0.999999984               0.000437788              -0.000688179               0.999999984               0.000430127              -0.000697056               0.999999984               0.000419575              -0.000702198               0.999999984               0.000406135              -0.000703263               0.999999984               0.000390162              -0.000700668               0.999999984               0.000372272              -0.000695135               0.999999984               0.000353249              -0.000687642               0.999999984               0.000470632              -0.000793283               0.999999984               0.000401045              -0.000680335               0.999999984               0.000376019              -0.000653627               0.999999984               0.000370344              -0.000659610               0.999999984               0.000372202              -0.000679189               0.999999984               0.000376229              -0.000703626               0.999999984               0.000379578              -0.000728593               0.999999984               0.000380428              -0.000751681               0.999999984               0.000377750              -0.000771691               0.999999984               0.000371188              -0.000788221               0.999999984               0.000360799              -0.000801437               0.999999984               0.000346680              -0.000811183               0.999999984               0.000328907              -0.000817108               0.999999984               0.000307981              -0.000819112               0.999999984               0.000284739              -0.000818162               0.999999984               0.000260107              -0.000815582               0.999999984               0.000234798              -0.000812189               0.999999984               0.000427947              -0.000883632               0.999999984               0.000339241              -0.000771659               0.999999984               0.000315121              -0.000747136               0.999999984               0.000312247              -0.000755882               0.999999984               0.000316284              -0.000778372               0.999999984               0.000321088              -0.000805504               0.999999984               0.000323514              -0.000832496               0.999999984               0.000321603              -0.000857005               0.999999984               0.000314525              -0.000878089               0.999999984               0.000302392              -0.000895592               0.999999984               0.000285503              -0.000909484               0.999999984               0.000264009              -0.000919603               0.999999984               0.000238382              -0.000925980               0.999999984               0.000209837              -0.000929275               0.999999984               0.000179572              -0.000930785               0.999999984               0.000148555              -0.000931567               0.999999984               0.000117281              -0.000932021               0.999999984               0.000384035              -0.000968942               0.999999984               0.000288007              -0.000872112               0.999999984               0.000260832              -0.000842824               0.999999984               0.000256663              -0.000845403               0.999999984               0.000260389              -0.000862958               0.999999984               0.000265551              -0.000887096               0.999999984               0.000269143              -0.000912964               0.999999984               0.000268939              -0.000938062               0.999999984               0.000263975              -0.000960927               0.999999984               0.000254172              -0.000981128               0.999999984               0.000239800              -0.000998397               0.999999984               0.000220936              -0.001012841               0.999999984               0.000197445              -0.001024294               0.999999984               0.000170160              -0.001033101               0.999999984               0.000139968              -0.001039744               0.999999984               0.000108032              -0.001045237               0.999999984               0.000075717              -0.001050133               0.999999984               0.000335980              -0.001046408               0.999999984               0.000239628              -0.000968980               0.999999984               0.000209481              -0.000940517               0.999999984               0.000203296              -0.000939114               0.999999984               0.000205921              -0.000952760               0.999999984               0.000210745              -0.000974260               0.999999984               0.000214620              -0.000999113               0.999999984               0.000215565              -0.001024733               0.999999984               0.000212408              -0.001049405               0.999999984               0.000204864              -0.001072161               0.999999984               0.000192907              -0.001092655               0.999999984               0.000176506              -0.001110806               0.999999984               0.000155420              -0.001126591               0.999999984               0.000129668              -0.001140090               0.999999984               0.000099820              -0.001151615               0.999999984               0.000066926              -0.001161759               0.999999984               0.000032430              -0.001171115               0.999999984               0.000284783              -0.001114217               0.999999984               0.000194136              -0.001059414               0.999999984               0.000162718              -0.001035688               0.999999984               0.000154304              -0.001033427               0.999999984               0.000155204              -0.001044773               0.999999984               0.000159025              -0.001064312               0.999999984               0.000162481              -0.001088457               0.999999984               0.000163981              -0.001114592               0.999999984               0.000162234              -0.001141078               0.999999984               0.000156730              -0.001166584               0.999999984               0.000146998              -0.001190569               0.999999984               0.000132840              -0.001212672               0.999999984               0.000114072              -0.001232852               0.999999984               0.000090281              -0.001250948               0.999999984               0.000061418              -0.001267110               0.999999984               0.000027976              -0.001281698               0.999999984              -0.000009064              -0.001295363               0.999999984               0.000230965              -0.001171135               0.999999984               0.000151584              -0.001139691               0.999999984               0.000121204              -0.001123840               0.999999984               0.000111351              -0.001123294               0.999999984               0.000110463              -0.001134229               0.999999984               0.000112786              -0.001152983               0.999999984               0.000115378              -0.001176879               0.999999984               0.000116820              -0.001203715               0.999999984               0.000116030              -0.001231913               0.999999984               0.000112268              -0.001260256               0.999999984               0.000104723              -0.001287899               0.999999984               0.000092992              -0.001314257               0.999999984               0.000076733              -0.001339182               0.999999984               0.000055533              -0.001362356               0.999999984               0.000028794              -0.001383681               0.999999984              -0.000004128              -0.001403231               0.999999984              -0.000043055              -0.001421568               0.999999984               0.000175044              -0.001216265               0.999999984               0.000111596              -0.001206177               0.999999984               0.000085097              -0.001199701               0.999999984               0.000075185              -0.001202919               0.999999984               0.000073026              -0.001215084               0.999999984               0.000074005              -0.001234179               0.999999984               0.000075619              -0.001258305               0.999999984               0.000076634              -0.001285975               0.999999984               0.000076314              -0.001315832               0.999999984               0.000073859              -0.001346744               0.999999984               0.000068371              -0.001377946               0.999999984               0.000059317              -0.001408699               0.999999984               0.000046229              -0.001438540               0.999999984               0.000028594              -0.001467063               0.999999984               0.000005476              -0.001494115               0.999999984              -0.000024410              -0.001519408               0.999999984              -0.000062074              -0.001543070               0.999999984               0.000117544              -0.001248927               0.999999984               0.000073476              -0.001255924               0.999999984               0.000053795              -0.001258200               0.999999984               0.000045671              -0.001265720               0.999999984               0.000043214              -0.001279970               0.999999984               0.000043256              -0.001300202               0.999999984               0.000044078              -0.001325242               0.999999984               0.000044697              -0.001353895               0.999999984               0.000044557              -0.001385191               0.999999984               0.000042947              -0.001418310               0.999999984               0.000039292              -0.001452469               0.999999984               0.000033097              -0.001487012               0.999999984               0.000023957              -0.001521408               0.999999984               0.000011172              -0.001555121               0.999999984              -0.000006219              -0.001587688               0.999999984              -0.000029433              -0.001618716               0.999999984              -0.000060153              -0.001647865               0.999999984               0.000059016              -0.001268636               0.999999984               0.000036480              -0.001286650               0.999999984               0.000026001              -0.001295211               0.999999984               0.000021431              -0.001306077               0.999999984               0.000019780              -0.001322237               0.999999984               0.000019541              -0.001343653               0.999999984               0.000019869              -0.001369527               0.999999984               0.000020147              -0.001399163               0.999999984               0.000020017              -0.001431669               0.999999984               0.000019147              -0.001466338               0.999999984               0.000017288              -0.001502550               0.999999984               0.000014129              -0.001539639               0.999999984               0.000009428              -0.001577074               0.999999984               0.000002706              -0.001614389               0.999999984              -0.000006717              -0.001651038               0.999999984              -0.000019491              -0.001686401               0.999999984              -0.000036831              -0.001719782               0.999999984               0.000000000              -0.001275223               0.999999984              -0.000000000              -0.001296978               0.999999984               0.000000000              -0.001307804               0.999999984              -0.000000000              -0.001320058               0.999999984               0.000000000              -0.001336982               0.999999984               0.000000000              -0.001358806               0.999999984               0.000000000              -0.001385060               0.999999984              -0.000000000              -0.001415127               0.999999984              -0.000000000              -0.001448108               0.999999984               0.000000000              -0.001483337               0.999999984               0.000000000              -0.001520171               0.999999984               0.000000000              -0.001558121               0.999999984               0.000000000              -0.001596653               0.999999984               0.000000000              -0.001635215               0.999999984               0.000000000              -0.001673286               0.999999984               0.000000000              -0.001710214               0.999999984               0.000000000              -0.001745206               0.999999984               0.000628577              -0.000000000               0.999999984               0.000676009              -0.000000000               0.999999984               0.000696702               0.000000000               0.999999984               0.000708230               0.000000000               0.999999984               0.000717197               0.000000000               0.999999984               0.000726190               0.000000000               0.999999984               0.000736130               0.000000000               0.999999984               0.000747178              -0.000000000               0.999999984               0.000759310              -0.000000000               0.999999984               0.000772459              -0.000000000               0.999999984               0.000786453               0.000000000               0.999999984               0.000800970              -0.000000000               0.999999984               0.000815792              -0.000000000               0.999999984               0.000830491               0.000000000               0.999999984               0.000844785              -0.000000000               0.999999984               0.000858212               0.000000000               0.999999984               0.000869994               0.000000000               0.999999984               0.000625127               0.000122431               0.999999984               0.000669053               0.000100390               0.999999984               0.000687474               0.000091118               0.999999984               0.000697612               0.000088345               0.999999984               0.000705785               0.000089010               0.999999984               0.000714255               0.000091476               0.999999984               0.000723729               0.000094782               0.999999984               0.000734342               0.000098250               0.999999984               0.000745944               0.000101402               0.999999984               0.000758315               0.000104332               0.999999984               0.000771347               0.000106790               0.999999984               0.000784734               0.000108361               0.999999984               0.000798216               0.000108715               0.999999984               0.000811593               0.000107541               0.999999984               0.000824461               0.000104336               0.999999984               0.000836343               0.000098248               0.999999984               0.000846759               0.000088365               0.999999984               0.000614727               0.000243682               0.999999984               0.000648606               0.000200123               0.999999984               0.000660973               0.000182642               0.999999984               0.000667489               0.000178005               0.999999984               0.000673316               0.000180020               0.999999984               0.000680067               0.000185495               0.999999984               0.000688186               0.000192575               0.999999984               0.000697448               0.000199815               0.999999984               0.000707563               0.000206538               0.999999984               0.000718264               0.000212489               0.999999984               0.000729141               0.000217269               0.999999984               0.000739856               0.000220448               0.999999984               0.000750191               0.000221570               0.999999984               0.000759924               0.000219946               0.999999984               0.000768797               0.000214918               0.999999984               0.000776592               0.000205295               0.999999984               0.000783104               0.000190005               0.999999984               0.000597623               0.000362610               0.999999984               0.000615773               0.000298813               0.999999984               0.000619399               0.000274979               0.999999984               0.000620995               0.000270058               0.999999984               0.000624039               0.000274581               0.999999984               0.000628995               0.000283830               0.999999984               0.000635537               0.000294967               0.999999984               0.000643131               0.000306277               0.999999984               0.000651316               0.000316598               0.999999984               0.000659544               0.000325447               0.999999984               0.000667380               0.000332470               0.999999984               0.000674482               0.000337242               0.999999984               0.000680668               0.000339255               0.999999984               0.000685700               0.000337900               0.999999984               0.000689382               0.000332463               0.999999984               0.000691677               0.000322047               0.999999984               0.000692621               0.000305936               0.999999984               0.000574224               0.000478091               0.999999984               0.000572115               0.000396248               0.999999984               0.000565995               0.000368478               0.999999984               0.000563134               0.000364945               0.999999984               0.000564020               0.000373001               0.999999984               0.000567674               0.000386403               0.999999984               0.000572921               0.000401740               0.999999984               0.000578834               0.000416818               0.999999984               0.000584631               0.000430540               0.999999984               0.000589765               0.000442135               0.999999984               0.000593864               0.000451288               0.999999984               0.000596784               0.000457583               0.999999984               0.000598171               0.000460596               0.999999984               0.000597841               0.000459875               0.999999984               0.000595689               0.000454932               0.999999984               0.000591781               0.000445337               0.999999984               0.000586398               0.000431060               0.999999984               0.000544841               0.000589088               0.999999984               0.000519969               0.000492352               0.999999984               0.000505047               0.000463108               0.999999984               0.000499039               0.000462377               0.999999984               0.000498880               0.000474493               0.999999984               0.000502050               0.000492016               0.999999984               0.000506465               0.000511137               0.999999984               0.000510826               0.000529563               0.999999984               0.000514202               0.000545994               0.999999984               0.000516086               0.000559813               0.999999984               0.000516175               0.000570762               0.999999984               0.000514195               0.000578480               0.999999984               0.000509979               0.000582576               0.999999984               0.000503517               0.000582678               0.999999984               0.000494794               0.000578718               0.999999984               0.000484099               0.000570880               0.999999984               0.000471852               0.000559660               0.999999984               0.000510045               0.000694528               0.999999984               0.000462019               0.000587145               0.999999984               0.000440481               0.000558480               0.999999984               0.000433465               0.000561155               0.999999984               0.000433836               0.000577209               0.999999984               0.000437158               0.000598496               0.999999984               0.000440979               0.000620838               0.999999984               0.000443748               0.000641974               0.999999984               0.000444462               0.000660516               0.999999984               0.000442563               0.000675965               0.999999984               0.000437788               0.000688179               0.999999984               0.000430127               0.000697056               0.999999984               0.000419575               0.000702198               0.999999984               0.000406135               0.000703263               0.999999984               0.000390162               0.000700668               0.999999984               0.000372272               0.000695135               0.999999984               0.000353249               0.000687642               0.999999984               0.000470632               0.000793283               0.999999984               0.000401045               0.000680335               0.999999984               0.000376019               0.000653627               0.999999984               0.000370344               0.000659610               0.999999984               0.000372202               0.000679189               0.999999984               0.000376229               0.000703626               0.999999984               0.000379578               0.000728593               0.999999984               0.000380428               0.000751681               0.999999984               0.000377750               0.000771691               0.999999984               0.000371188               0.000788221               0.999999984               0.000360799               0.000801437               0.999999984               0.000346680               0.000811183               0.999999984               0.000328907               0.000817108               0.999999984               0.000307981               0.000819112               0.999999984               0.000284739               0.000818162               0.999999984               0.000260107               0.000815582               0.999999984               0.000234798               0.000812189               0.999999984               0.000427947               0.000883632               0.999999984               0.000339241               0.000771659               0.999999984               0.000315121               0.000747136               0.999999984               0.000312247               0.000755882               0.999999984               0.000316284               0.000778372               0.999999984               0.000321088               0.000805504               0.999999984               0.000323514               0.000832496               0.999999984               0.000321603               0.000857005               0.999999984               0.000314525               0.000878089               0.999999984               0.000302392               0.000895592               0.999999984               0.000285503               0.000909484               0.999999984               0.000264009               0.000919603               0.999999984               0.000238382               0.000925980               0.999999984               0.000209837               0.000929275               0.999999984               0.000179572               0.000930785               0.999999984               0.000148555               0.000931567               0.999999984               0.000117281               0.000932021               0.999999984               0.000384035               0.000968942               0.999999984               0.000288007               0.000872112               0.999999984               0.000260832               0.000842824               0.999999984               0.000256663               0.000845403               0.999999984               0.000260389               0.000862958               0.999999984               0.000265551               0.000887096               0.999999984               0.000269143               0.000912964               0.999999984               0.000268939               0.000938062               0.999999984               0.000263975               0.000960927               0.999999984               0.000254172               0.000981128               0.999999984               0.000239800               0.000998397               0.999999984               0.000220936               0.001012841               0.999999984               0.000197445               0.001024294               0.999999984               0.000170160               0.001033101               0.999999984               0.000139968               0.001039744               0.999999984               0.000108032               0.001045237               0.999999984               0.000075717               0.001050133               0.999999984               0.000335980               0.001046408               0.999999984               0.000239628               0.000968980               0.999999984               0.000209481               0.000940517               0.999999984               0.000203296               0.000939114               0.999999984               0.000205921               0.000952760               0.999999984               0.000210745               0.000974260               0.999999984               0.000214620               0.000999113               0.999999984               0.000215565               0.001024733               0.999999984               0.000212408               0.001049405               0.999999984               0.000204864               0.001072161               0.999999984               0.000192907               0.001092655               0.999999984               0.000176506               0.001110806               0.999999984               0.000155420               0.001126591               0.999999984               0.000129668               0.001140090               0.999999984               0.000099820               0.001151615               0.999999984               0.000066926               0.001161759               0.999999984               0.000032430               0.001171115               0.999999984               0.000284783               0.001114217               0.999999984               0.000194136               0.001059414               0.999999984               0.000162718               0.001035688               0.999999984               0.000154304               0.001033427               0.999999984               0.000155204               0.001044773               0.999999984               0.000159025               0.001064312               0.999999984               0.000162481               0.001088457               0.999999984               0.000163981               0.001114592               0.999999984               0.000162234               0.001141078               0.999999984               0.000156730               0.001166584               0.999999984               0.000146998               0.001190569               0.999999984               0.000132840               0.001212672               0.999999984               0.000114072               0.001232852               0.999999984               0.000090281               0.001250948               0.999999984               0.000061418               0.001267110               0.999999984               0.000027976               0.001281698               0.999999984              -0.000009064               0.001295363               0.999999984               0.000230965               0.001171135               0.999999984               0.000151584               0.001139691               0.999999984               0.000121204               0.001123840               0.999999984               0.000111351               0.001123294               0.999999984               0.000110463               0.001134229               0.999999984               0.000112786               0.001152983               0.999999984               0.000115378               0.001176879               0.999999984               0.000116820               0.001203715               0.999999984               0.000116030               0.001231913               0.999999984               0.000112268               0.001260256               0.999999984               0.000104723               0.001287899               0.999999984               0.000092992               0.001314257               0.999999984               0.000076733               0.001339182               0.999999984               0.000055533               0.001362356               0.999999984               0.000028794               0.001383681               0.999999984              -0.000004128               0.001403231               0.999999984              -0.000043055               0.001421568               0.999999984               0.000175044               0.001216265               0.999999984               0.000111596               0.001206177               0.999999984               0.000085097               0.001199701               0.999999984               0.000075185               0.001202919               0.999999984               0.000073026               0.001215084               0.999999984               0.000074005               0.001234179               0.999999984               0.000075619               0.001258305               0.999999984               0.000076634               0.001285975               0.999999984               0.000076314               0.001315832               0.999999984               0.000073859               0.001346744               0.999999984               0.000068371               0.001377946               0.999999984               0.000059317               0.001408699               0.999999984               0.000046229               0.001438540               0.999999984               0.000028594               0.001467063               0.999999984               0.000005476               0.001494115               0.999999984              -0.000024410               0.001519408               0.999999984              -0.000062074               0.001543070               0.999999984               0.000117544               0.001248927               0.999999984               0.000073476               0.001255924               0.999999984               0.000053795               0.001258200               0.999999984               0.000045671               0.001265720               0.999999984               0.000043214               0.001279970               0.999999984               0.000043256               0.001300202               0.999999984               0.000044078               0.001325242               0.999999984               0.000044697               0.001353895               0.999999984               0.000044557               0.001385191               0.999999984               0.000042947               0.001418310               0.999999984               0.000039292               0.001452469               0.999999984               0.000033097               0.001487012               0.999999984               0.000023957               0.001521408               0.999999984               0.000011172               0.001555121               0.999999984              -0.000006219               0.001587688               0.999999984              -0.000029433               0.001618716               0.999999984              -0.000060153               0.001647865               0.999999984               0.000059016               0.001268636               0.999999984               0.000036480               0.001286650               0.999999984               0.000026001               0.001295211               0.999999984               0.000021431               0.001306077               0.999999984               0.000019780               0.001322237               0.999999984               0.000019541               0.001343653               0.999999984               0.000019869               0.001369527               0.999999984               0.000020147               0.001399163               0.999999984               0.000020017               0.001431669               0.999999984               0.000019147               0.001466338               0.999999984               0.000017288               0.001502550               0.999999984               0.000014129               0.001539639               0.999999984               0.000009428               0.001577074               0.999999984               0.000002706               0.001614389               0.999999984              -0.000006717               0.001651038               0.999999984              -0.000019491               0.001686401               0.999999984              -0.000036831               0.001719782               0.999999984               0.000000000               0.001275223               0.999999984               0.000000000               0.001296978               0.999999984              -0.000000000               0.001307804               0.999999984               0.000000000               0.001320058               0.999999984               0.000000000               0.001336982               0.999999984               0.000000000               0.001358806               0.999999984              -0.000000000               0.001385060               0.999999984              -0.000000000               0.001415127               0.999999984              -0.000000000               0.001448108               0.999999984               0.000000000               0.001483337               0.999999984               0.000000000               0.001520171               0.999999984               0.000000000               0.001558121               0.999999984              -0.000000000               0.001596653               0.999999984              -0.000000000               0.001635215               0.999999984              -0.000000000               0.001673286               0.999999984              -0.000000000               0.001710214               0.999999984               0.000000000               0.001745206               0.999999984 </DataArray>
<DataArray type="Float64"                                    Name="stress"                                                      NumberOfComponents="10" format="ascii">
              0.002071456               0.022425875               0.000000000              -0.002026433               0.008150695               0.006124261               0.000000000               0.000000000               0.000000000               0.000000000               0.002071699               0.017590749               0.000000000              -0.001421953               0.006337509               0.004915556               0.000000000               0.000000000               0.000000000               0.000000000               0.002732569               0.013680304              -0.000000000              -0.000685323               0.004788497               0.004103174               0.000000000               0.000000000               0.000000000               0.000000000               0.002634053               0.011493841               0.000000000              -0.000448959               0.003980895               0.003531936               0.000000000               0.000000000               0.000000000               0.000000000               0.002308617               0.010138372               0.000000000              -0.000401564               0.003513278               0.003111714               0.000000000               0.000000000               0.000000000               0.000000000               0.001940094               0.009216727              -0.000000000              -0.000424554               0.003213730               0.002789175               0.000000000               0.000000000               0.000000000               0.000000000               0.001594131               0.008533081               0.000000000              -0.000468835               0.003000610               0.002531775               0.000000000               0.000000000               0.000000000               0.000000000               0.001285824               0.007977964               0.000000000              -0.000515060               0.002830982               0.002315921               0.000000000               0.000000000               0.000000000               0.000000000               0.001010607               0.007492213               0.000000000              -0.000557548               0.002683229               0.002125681               0.000000000               0.000000000               0.000000000               0.000000000               0.000767437               0.007058514               0.000000000              -0.000594524               0.002550989               0.001956465               0.000000000               0.000000000               0.000000000               0.000000000               0.000561492               0.006656426               0.000000000              -0.000621492               0.002425951               0.001804458               0.000000000               0.000000000               0.000000000               0.000000000               0.000388531               0.006259631               0.000000000              -0.000636753               0.002298774               0.001662021               0.000000000               0.000000000               0.000000000               0.000000000               0.000244900               0.005849903              -0.000000000              -0.000639399               0.002163081               0.001523682               0.000000000               0.000000000               0.000000000               0.000000000               0.000131717               0.005414209               0.000000000              -0.000627381               0.002013845               0.001386465               0.000000000               0.000000000               0.000000000               0.000000000               0.000049409               0.004933603               0.000000000              -0.000598171               0.001843908               0.001245737               0.000000000               0.000000000               0.000000000               0.000000000               0.000011152               0.004385090               0.000000000              -0.000543953               0.001643000               0.001099047               0.000000000               0.000000000               0.000000000               0.000000000              -0.000039381               0.003963139              -0.000000000              -0.000510159               0.001491086               0.000980927               0.000000000               0.000000000               0.000000000               0.000000000               0.002152376               0.021971448              -0.001536886              -0.001939286               0.007970171               0.006030886               0.000000000               0.000000000               0.000000000               0.000000000               0.002040125               0.017294313              -0.000772718              -0.001396739               0.006230293               0.004833554               0.000000000               0.000000000               0.000000000               0.000000000               0.002579793               0.013553497              -0.000011400              -0.000726763               0.004760041               0.004033279               0.000000000               0.000000000               0.000000000               0.000000000               0.002430123               0.011455232               0.000309932              -0.000520606               0.003991908               0.003471301               0.000000000               0.000000000               0.000000000               0.000000000               0.002091418               0.010146811               0.000440559              -0.000484068               0.003543593               0.003059524               0.000000000               0.000000000               0.000000000               0.000000000               0.001731243               0.009253507               0.000484507              -0.000507471               0.003253628               0.002746157               0.000000000               0.000000000               0.000000000               0.000000000               0.001402278               0.008587863               0.000484979              -0.000547627               0.003045135               0.002497507               0.000000000               0.000000000               0.000000000               0.000000000               0.001115183               0.008043989               0.000463887              -0.000587304               0.002877071               0.002289767               0.000000000               0.000000000               0.000000000               0.000000000               0.000868193               0.007570340               0.000441057              -0.000620719               0.002730328               0.002109609               0.000000000               0.000000000               0.000000000               0.000000000               0.000653231               0.007140333               0.000422069              -0.000647579               0.002595947               0.001948368               0.000000000               0.000000000               0.000000000               0.000000000               0.000470558               0.006735458               0.000399935              -0.000665472               0.002466954               0.001801482               0.000000000               0.000000000               0.000000000               0.000000000               0.000319963               0.006340817               0.000372468              -0.000672614               0.002337789               0.001665175               0.000000000               0.000000000               0.000000000               0.000000000               0.000192982               0.005940847               0.000338764              -0.000670236               0.002203675               0.001533439               0.000000000               0.000000000               0.000000000               0.000000000               0.000093038               0.005522978               0.000293699              -0.000655482               0.002059468               0.001403987               0.000000000               0.000000000               0.000000000               0.000000000               0.000028330               0.005076731               0.000226614              -0.000623966               0.001900216               0.001276249               0.000000000               0.000000000               0.000000000               0.000000000               0.000001746               0.004585320               0.000128222              -0.000572509               0.001719261               0.001146752               0.000000000               0.000000000               0.000000000               0.000000000              -0.000039792               0.004218301               0.000077469              -0.000542208               0.001586822               0.001044614               0.000000000               0.000000000               0.000000000               0.000000000               0.002344223               0.020671465              -0.002861553              -0.001704846               0.007458701               0.005753855               0.000000000               0.000000000               0.000000000               0.000000000               0.001921544               0.016456331              -0.001442489              -0.001336459               0.005930875               0.004594416               0.000000000               0.000000000               0.000000000               0.000000000               0.002131343               0.013197986              -0.000040679              -0.000850492               0.004682782               0.003832290               0.000000000               0.000000000               0.000000000               0.000000000               0.001865808               0.011350284               0.000533612              -0.000719106               0.004023092               0.003303986               0.000000000               0.000000000               0.000000000               0.000000000               0.001513700               0.010175346               0.000760573              -0.000704279               0.003626508               0.002922229               0.000000000               0.000000000               0.000000000               0.000000000               0.001182337               0.009351652               0.000832678              -0.000725579               0.003359046               0.002633467               0.000000000               0.000000000               0.000000000               0.000000000               0.000899034               0.008718134               0.000828710              -0.000752628               0.003156892               0.002404264               0.000000000               0.000000000               0.000000000               0.000000000               0.000668082               0.008193172               0.000788916              -0.000773614               0.002988901               0.002215287               0.000000000               0.000000000               0.000000000               0.000000000               0.000478430               0.007729391               0.000742371              -0.000786761               0.002838692               0.002051931               0.000000000               0.000000000               0.000000000               0.000000000               0.000325011               0.007299072               0.000698700              -0.000790503               0.002696501               0.001905998               0.000000000               0.000000000               0.000000000               0.000000000               0.000206951               0.006892611               0.000653889              -0.000783968               0.002558836               0.001774868               0.000000000               0.000000000               0.000000000               0.000000000               0.000115982               0.006503778               0.000603732              -0.000769477               0.002424397               0.001654919               0.000000000               0.000000000               0.000000000               0.000000000               0.000045480               0.006124608               0.000541511              -0.000748519               0.002291022               0.001542503               0.000000000               0.000000000               0.000000000               0.000000000              -0.000001828               0.005749433               0.000461329              -0.000719363               0.002156246               0.001436883               0.000000000               0.000000000               0.000000000               0.000000000              -0.000024032               0.005375310               0.000349715              -0.000680924               0.002018727               0.001337803               0.000000000               0.000000000               0.000000000               0.000000000              -0.000021092               0.005003391               0.000194716              -0.000633332               0.001878891               0.001245559               0.000000000               0.000000000               0.000000000               0.000000000              -0.000039043               0.004749811               0.000116410              -0.000608366               0.001786043               0.001177677               0.000000000               0.000000000               0.000000000               0.000000000               0.002542111               0.018699066              -0.003813333              -0.001384091               0.006694323               0.005310232               0.000000000               0.000000000               0.000000000               0.000000000               0.001686391               0.015209213              -0.001931048              -0.001268753               0.005492604               0.004223852               0.000000000               0.000000000               0.000000000               0.000000000               0.001441694               0.012678873              -0.000096238              -0.001044221               0.004574322               0.003530101               0.000000000               0.000000000               0.000000000               0.000000000               0.001044998               0.011184543               0.000614939              -0.001006191               0.004063541               0.003057350               0.000000000               0.000000000               0.000000000               0.000000000               0.000696516               0.010182838               0.000877995              -0.001011659               0.003731465               0.002719806               0.000000000               0.000000000               0.000000000               0.000000000               0.000428771               0.009437341               0.000950069              -0.001018876               0.003485374               0.002466498               0.000000000               0.000000000               0.000000000               0.000000000               0.000228539               0.008832218               0.000936280              -0.001018323               0.003283484               0.002265161               0.000000000               0.000000000               0.000000000               0.000000000               0.000080795               0.008311960               0.000884374              -0.001008695               0.003106857               0.002098162               0.000000000               0.000000000               0.000000000               0.000000000              -0.000025190               0.007846491               0.000823264              -0.000990255               0.002945556               0.001955300               0.000000000               0.000000000               0.000000000               0.000000000              -0.000095602               0.007415143               0.000766847              -0.000962741               0.002792603               0.001829862               0.000000000               0.000000000               0.000000000               0.000000000              -0.000137113               0.007011264               0.000711187              -0.000927823               0.002646339               0.001718516               0.000000000               0.000000000               0.000000000               0.000000000              -0.000156755               0.006630365               0.000648393              -0.000887577               0.002505958               0.001618382               0.000000000               0.000000000               0.000000000               0.000000000              -0.000157200               0.006270967               0.000572483              -0.000842819               0.002371241               0.001528422               0.000000000               0.000000000               0.000000000               0.000000000              -0.000136134               0.005936743               0.000476583              -0.000793141               0.002243275               0.001450134               0.000000000               0.000000000               0.000000000               0.000000000              -0.000099413               0.005630242               0.000350939              -0.000741058               0.002123748               0.001382690               0.000000000               0.000000000               0.000000000               0.000000000              -0.000052332               0.005363187               0.000190148              -0.000690021               0.002017718               0.001327697               0.000000000               0.000000000               0.000000000               0.000000000              -0.000043323               0.005203577               0.000110937              -0.000666691               0.001956739               0.001290047               0.000000000               0.000000000               0.000000000               0.000000000               0.002621110               0.016291474              -0.004307884              -0.001053519               0.005781609               0.004728090               0.000000000               0.000000000               0.000000000               0.000000000               0.001312271               0.013716345              -0.002216544              -0.001222440               0.004979549               0.003757109               0.000000000               0.000000000               0.000000000               0.000000000               0.000586756               0.012057063              -0.000210735              -0.001287096               0.004448013               0.003160917               0.000000000               0.000000000               0.000000000               0.000000000               0.000098424               0.010947502               0.000518845              -0.001331526               0.004092973               0.002761447               0.000000000               0.000000000               0.000000000               0.000000000              -0.000200316               0.010113019               0.000773183              -0.001339243               0.003817387               0.002478144               0.000000000               0.000000000               0.000000000               0.000000000              -0.000368059               0.009430372               0.000836315              -0.001316815               0.003582364               0.002265549               0.000000000               0.000000000               0.000000000               0.000000000              -0.000453428               0.008842797               0.000817935              -0.001275382               0.003372697               0.002097315               0.000000000               0.000000000               0.000000000               0.000000000              -0.000488163               0.008319764               0.000767290              -0.001223029               0.003180903               0.001957874               0.000000000               0.000000000               0.000000000               0.000000000              -0.000489191               0.007847136               0.000709541              -0.001164336               0.003003798               0.001839462               0.000000000               0.000000000               0.000000000               0.000000000              -0.000468372               0.007414278               0.000654219              -0.001102422               0.002838875               0.001736454               0.000000000               0.000000000               0.000000000               0.000000000              -0.000435945               0.007014797               0.000599755              -0.001040327               0.002685018               0.001644691               0.000000000               0.000000000               0.000000000               0.000000000              -0.000389294               0.006646738               0.000538999              -0.000976825               0.002541166               0.001564341               0.000000000               0.000000000               0.000000000               0.000000000              -0.000324804               0.006310784               0.000467103              -0.000910647               0.002407123               0.001496476               0.000000000               0.000000000               0.000000000               0.000000000              -0.000246316               0.006009215               0.000378734              -0.000843518               0.002284224               0.001440706               0.000000000               0.000000000               0.000000000               0.000000000              -0.000159925               0.005751534               0.000269385              -0.000778912               0.002176796               0.001397884               0.000000000               0.000000000               0.000000000               0.000000000              -0.000076870               0.005551721               0.000140570              -0.000722789               0.002091485               0.001368696               0.000000000               0.000000000               0.000000000               0.000000000              -0.000050564               0.005445894               0.000080486              -0.000699697               0.002048512               0.001348815               0.000000000               0.000000000               0.000000000               0.000000000               0.002453136               0.013692072              -0.004355173              -0.000791585               0.004827839               0.004036254               0.000000000               0.000000000               0.000000000               0.000000000               0.000787475               0.012136917              -0.002328339              -0.001221810               0.004452868               0.003231058               0.000000000               0.000000000               0.000000000               0.000000000              -0.000330879               0.011378804              -0.000404191              -0.001546426               0.004308372               0.002761946               0.000000000               0.000000000               0.000000000               0.000000000              -0.000825385               0.010620701               0.000258747              -0.001637103               0.004085899               0.002448796               0.000000000               0.000000000               0.000000000               0.000000000              -0.001020105               0.009921909               0.000483335              -0.001622774               0.003848194               0.002225421               0.000000000               0.000000000               0.000000000               0.000000000              -0.001061732               0.009286802               0.000543779              -0.001558996               0.003615235               0.002056239               0.000000000               0.000000000               0.000000000               0.000000000              -0.001020275               0.008710119               0.000537840              -0.001471364               0.003393799               0.001922434               0.000000000               0.000000000               0.000000000               0.000000000              -0.000935630               0.008187354               0.000503848              -0.001374277               0.003187183               0.001812906               0.000000000               0.000000000               0.000000000               0.000000000              -0.000832206               0.007709188               0.000464301              -0.001275723               0.002994944               0.001719222               0.000000000               0.000000000               0.000000000               0.000000000              -0.000725896               0.007274099               0.000429222              -0.001181470               0.002818499               0.001637029               0.000000000               0.000000000               0.000000000               0.000000000              -0.000619857               0.006881227               0.000396178              -0.001092597               0.002657919               0.001565321               0.000000000               0.000000000               0.000000000               0.000000000              -0.000509295               0.006531601               0.000355514              -0.001007433               0.002512990               0.001505556               0.000000000               0.000000000               0.000000000               0.000000000              -0.000394454               0.006221029               0.000301004              -0.000925547               0.002382171               0.001456624               0.000000000               0.000000000               0.000000000               0.000000000              -0.000279005               0.005949095               0.000235147              -0.000848262               0.002265766               0.001417504               0.000000000               0.000000000               0.000000000               0.000000000              -0.000169340               0.005727747               0.000161000              -0.000779469               0.002169053               0.001389584               0.000000000               0.000000000               0.000000000               0.000000000              -0.000076440               0.005569913               0.000081286              -0.000724902               0.002098253               0.001373351               0.000000000               0.000000000               0.000000000               0.000000000              -0.000044993               0.005494210               0.000046898              -0.000703647               0.002065934               0.001362287               0.000000000               0.000000000               0.000000000               0.000000000               0.001978619               0.011114387              -0.004029793              -0.000647318               0.003920530               0.003273212               0.000000000               0.000000000               0.000000000               0.000000000               0.000138849               0.010590416              -0.002312913              -0.001271732               0.003954014               0.002682281               0.000000000               0.000000000               0.000000000               0.000000000              -0.001214976               0.010658948              -0.000679180              -0.001787980               0.004148940               0.002360960               0.000000000               0.000000000               0.000000000               0.000000000              -0.001619437               0.010184240              -0.000127336              -0.001880314               0.004021484               0.002141170               0.000000000               0.000000000               0.000000000               0.000000000              -0.001659902               0.009595576               0.000076537              -0.001821906               0.003805795               0.001983889               0.000000000               0.000000000               0.000000000               0.000000000              -0.001554781               0.009005119               0.000151867              -0.001708678               0.003571236               0.001862557               0.000000000               0.000000000               0.000000000               0.000000000              -0.001389016               0.008445097               0.000174285              -0.001576514               0.003340509               0.001763995               0.000000000               0.000000000               0.000000000               0.000000000              -0.001199215               0.007925881               0.000175093              -0.001440437               0.003122080               0.001681643               0.000000000               0.000000000               0.000000000               0.000000000              -0.001007902               0.007451552               0.000171703              -0.001309404               0.002920294               0.001610890               0.000000000               0.000000000               0.000000000               0.000000000              -0.000828827               0.007024154               0.000173822              -0.001188826               0.002737637               0.001548810               0.000000000               0.000000000               0.000000000               0.000000000              -0.000664635               0.006645687               0.000176553              -0.001079946               0.002575189               0.001495243               0.000000000               0.000000000               0.000000000               0.000000000              -0.000510614               0.006313653               0.000167536              -0.000980684               0.002431425               0.001450740               0.000000000               0.000000000               0.000000000               0.000000000              -0.000363467               0.006023935               0.000139791              -0.000889290               0.002304388               0.001415099               0.000000000               0.000000000               0.000000000               0.000000000              -0.000231034               0.005777706               0.000102739              -0.000808849               0.002195499               0.001386650               0.000000000               0.000000000               0.000000000               0.000000000              -0.000123827               0.005586670               0.000066154              -0.000744767               0.002110460               0.001365693               0.000000000               0.000000000               0.000000000               0.000000000              -0.000048954               0.005460013               0.000031753              -0.000700857               0.002053605               0.001352748               0.000000000               0.000000000               0.000000000               0.000000000              -0.000026580               0.005403464               0.000019269              -0.000685399               0.002029603               0.001344204               0.000000000               0.000000000               0.000000000               0.000000000               0.001227257               0.008716025              -0.003426920              -0.000629284               0.003115073               0.002485789               0.000000000               0.000000000               0.000000000               0.000000000              -0.000591161               0.009153409              -0.002217728              -0.001365859               0.003506392               0.002140532               0.000000000               0.000000000               0.000000000               0.000000000              -0.001971393               0.009898428              -0.001027508              -0.001976571               0.003958300               0.001981729               0.000000000               0.000000000               0.000000000               0.000000000              -0.002199149               0.009645904              -0.000578149              -0.002030414               0.003892074               0.001861660               0.000000000               0.000000000               0.000000000               0.000000000              -0.002069555               0.009154888              -0.000368196              -0.001920439               0.003691745               0.001771306               0.000000000               0.000000000               0.000000000               0.000000000              -0.001828415               0.008613462              -0.000260642              -0.001762334               0.003458570               0.001696236               0.000000000               0.000000000               0.000000000               0.000000000              -0.001552611               0.008078636              -0.000195888              -0.001592055               0.003223537               0.001631482               0.000000000               0.000000000               0.000000000               0.000000000              -0.001274248               0.007574848              -0.000146437              -0.001424695               0.002999823               0.001575127               0.000000000               0.000000000               0.000000000               0.000000000              -0.001016619               0.007117988              -0.000101585              -0.001270978               0.002796298               0.001525321               0.000000000               0.000000000               0.000000000               0.000000000              -0.000789808               0.006712936              -0.000056959              -0.001135292               0.002616054               0.001480761               0.000000000               0.000000000               0.000000000               0.000000000              -0.000590073               0.006354413              -0.000017213              -0.001015576               0.002456642               0.001441066               0.000000000               0.000000000               0.000000000               0.000000000              -0.000411315               0.006035197               0.000007699              -0.000908640               0.002314592               0.001405952               0.000000000               0.000000000               0.000000000               0.000000000              -0.000259866               0.005758054               0.000011750              -0.000817204               0.002191734               0.001374529               0.000000000               0.000000000               0.000000000               0.000000000              -0.000144594               0.005536197               0.000004405              -0.000746245               0.002094129               0.001347884               0.000000000               0.000000000               0.000000000               0.000000000              -0.000068197               0.005377572               0.000001056              -0.000697768               0.002025096               0.001327327               0.000000000               0.000000000               0.000000000               0.000000000              -0.000025894               0.005276062               0.000001201              -0.000669216               0.001981742               0.001312526               0.000000000               0.000000000               0.000000000               0.000000000              -0.000016320               0.005228429               0.000004404              -0.000659672               0.001962683               0.001303011               0.000000000               0.000000000               0.000000000               0.000000000               0.000306492               0.006667187              -0.002663415              -0.000718464               0.002461861               0.001743396               0.000000000               0.000000000               0.000000000               0.000000000              -0.001302156               0.007855395              -0.002095744              -0.001470230               0.003108515               0.001638285               0.000000000               0.000000000               0.000000000               0.000000000              -0.002548617               0.009137366              -0.001435411              -0.002097897               0.003745057               0.001647160               0.000000000               0.000000000               0.000000000               0.000000000              -0.002585489               0.009116618              -0.001052923              -0.002109130               0.003741886               0.001632755               0.000000000               0.000000000               0.000000000               0.000000000              -0.002315429               0.008750497              -0.000816527              -0.001962093               0.003570834               0.001608741               0.000000000               0.000000000               0.000000000               0.000000000              -0.001970414               0.008280156              -0.000662594              -0.001773920               0.003351331               0.001577411               0.000000000               0.000000000               0.000000000               0.000000000              -0.001611609               0.007789896              -0.000547613              -0.001578086               0.003122635               0.001544548               0.000000000               0.000000000               0.000000000               0.000000000              -0.001267476               0.007324062              -0.000446826              -0.001390808               0.002904932               0.001514124               0.000000000               0.000000000               0.000000000               0.000000000              -0.000962050               0.006900218              -0.000355477              -0.001223293               0.002707814               0.001484521               0.000000000               0.000000000               0.000000000               0.000000000              -0.000701965               0.006521037              -0.000274659              -0.001078364               0.002533112               0.001454748               0.000000000               0.000000000               0.000000000               0.000000000              -0.000480611               0.006173379              -0.000202776              -0.000951899               0.002375072               0.001423173               0.000000000               0.000000000               0.000000000               0.000000000              -0.000295585               0.005854830              -0.000141613              -0.000842696               0.002232489               0.001389793               0.000000000               0.000000000               0.000000000               0.000000000              -0.000163253               0.005576134              -0.000095904              -0.000758235               0.002111438               0.001353203               0.000000000               0.000000000               0.000000000               0.000000000              -0.000084690               0.005364965              -0.000064221              -0.000702378               0.002022430               0.001320052               0.000000000               0.000000000               0.000000000               0.000000000              -0.000052349               0.005223728              -0.000036168              -0.000672595               0.001965424               0.001292828               0.000000000               0.000000000               0.000000000               0.000000000              -0.000051639               0.005130058              -0.000013797              -0.000660620               0.001930209               0.001269589               0.000000000               0.000000000               0.000000000               0.000000000              -0.000057873               0.005083231              -0.000002703              -0.000657105               0.001913428               0.001256324               0.000000000               0.000000000               0.000000000               0.000000000              -0.000791586               0.004736627              -0.001847183              -0.000888922               0.001875166               0.000986244               0.000000000               0.000000000               0.000000000               0.000000000              -0.001887560               0.006345329              -0.001956542              -0.001500998               0.002615421               0.001114423               0.000000000               0.000000000               0.000000000               0.000000000              -0.002869806               0.008013108              -0.001867489              -0.002077811               0.003363612               0.001285802               0.000000000               0.000000000               0.000000000               0.000000000              -0.002802935               0.008338459              -0.001563647              -0.002093403               0.003477259               0.001383856               0.000000000               0.000000000               0.000000000               0.000000000              -0.002475992               0.008215429              -0.001298885              -0.001955421               0.003390256               0.001434835               0.000000000               0.000000000               0.000000000               0.000000000              -0.002100740               0.007915607              -0.001092522              -0.001777224               0.003230917               0.001453693               0.000000000               0.000000000               0.000000000               0.000000000              -0.001727252               0.007552383              -0.000924744              -0.001591764               0.003048023               0.001456260               0.000000000               0.000000000               0.000000000               0.000000000              -0.001369114               0.007182727              -0.000777345              -0.001411255               0.002864637               0.001453382               0.000000000               0.000000000               0.000000000               0.000000000              -0.001045004               0.006826319              -0.000648804              -0.001245163               0.002690471               0.001445308               0.000000000               0.000000000               0.000000000               0.000000000              -0.000764547               0.006489328              -0.000536866              -0.001097869               0.002529044               0.001431175               0.000000000               0.000000000               0.000000000               0.000000000              -0.000527040               0.006174407              -0.000433970              -0.000969439               0.002381261               0.001411823               0.000000000               0.000000000               0.000000000               0.000000000              -0.000331152               0.005879698              -0.000331395              -0.000859142               0.002246260               0.001387118               0.000000000               0.000000000               0.000000000               0.000000000              -0.000187068               0.005609826              -0.000235285              -0.000771377               0.002127049               0.001355672               0.000000000               0.000000000               0.000000000               0.000000000              -0.000105641               0.005380743              -0.000151541              -0.000712207               0.002030965               0.001318759               0.000000000               0.000000000               0.000000000               0.000000000              -0.000082599               0.005207483              -0.000079390              -0.000681908               0.001963113               0.001281205               0.000000000               0.000000000               0.000000000               0.000000000              -0.000103418               0.005085595              -0.000028724              -0.000674479               0.001920008               0.001245529               0.000000000               0.000000000               0.000000000               0.000000000              -0.000129356               0.005025578              -0.000007050              -0.000676704               0.001900744               0.001224040               0.000000000               0.000000000               0.000000000               0.000000000              -0.002214107               0.002972924              -0.001028465              -0.001201903               0.001391599               0.000189695               0.000000000               0.000000000               0.000000000               0.000000000              -0.002541604               0.004819605              -0.001747107              -0.001555549               0.002125035               0.000569486               0.000000000               0.000000000               0.000000000               0.000000000              -0.003087538               0.006695677              -0.002208622              -0.001994782               0.002896797               0.000902015               0.000000000               0.000000000               0.000000000               0.000000000              -0.002926345               0.007356538              -0.002048559              -0.002016942               0.003124468               0.001107526               0.000000000               0.000000000               0.000000000               0.000000000              -0.002574937               0.007516011              -0.001787768              -0.001905099               0.003140345               0.001235246               0.000000000               0.000000000               0.000000000               0.000000000              -0.002193176               0.007435978              -0.001542521              -0.001751934               0.003062612               0.001310678               0.000000000               0.000000000               0.000000000               0.000000000              -0.001825003               0.007244359              -0.001331226              -0.001589917               0.002944734               0.001354817               0.000000000               0.000000000               0.000000000               0.000000000              -0.001465547               0.007005233              -0.001148202              -0.001425231               0.002810131               0.001384900               0.000000000               0.000000000               0.000000000               0.000000000              -0.001129147               0.006741778              -0.000991840              -0.001266150               0.002669287               0.001403137               0.000000000               0.000000000               0.000000000               0.000000000              -0.000829186               0.006470390              -0.000855079              -0.001119741               0.002530022               0.001410281               0.000000000               0.000000000               0.000000000               0.000000000              -0.000573348               0.006206675              -0.000725848              -0.000990838               0.002399150               0.001408313               0.000000000               0.000000000               0.000000000               0.000000000              -0.000361609               0.005950925              -0.000592557              -0.000879467               0.002276777               0.001397311               0.000000000               0.000000000               0.000000000               0.000000000              -0.000193057               0.005706355              -0.000454365              -0.000785689               0.002163996               0.001378307               0.000000000               0.000000000               0.000000000               0.000000000              -0.000085039               0.005475835              -0.000315520              -0.000716367               0.002064049               0.001347682               0.000000000               0.000000000               0.000000000               0.000000000              -0.000043609               0.005277612              -0.000186412              -0.000676053               0.001984537               0.001308484               0.000000000               0.000000000               0.000000000               0.000000000              -0.000068485               0.005118991              -0.000079847              -0.000665554               0.001928165               0.001262610               0.000000000               0.000000000               0.000000000               0.000000000              -0.000114477               0.005037722              -0.000027685              -0.000672643               0.001903438               0.001230795               0.000000000               0.000000000               0.000000000               0.000000000              -0.003865471               0.001511992              -0.000273909              -0.001638548               0.001050173              -0.000588375               0.000000000               0.000000000               0.000000000               0.000000000              -0.003316310               0.003367093              -0.001446870              -0.001664500               0.001677185               0.000012686               0.000000000               0.000000000               0.000000000               0.000000000              -0.003243464               0.005208829              -0.002350639              -0.001867399               0.002358724               0.000491326               0.000000000               0.000000000               0.000000000               0.000000000              -0.002914715               0.006110442              -0.002367916              -0.001856820               0.002655733               0.000798913               0.000000000               0.000000000               0.000000000               0.000000000              -0.002528600               0.006525368              -0.002159783              -0.001763892               0.002763064               0.000999172               0.000000000               0.000000000               0.000000000               0.000000000              -0.002146147               0.006677484              -0.001909677              -0.001639487               0.002772301               0.001132814               0.000000000               0.000000000               0.000000000               0.000000000              -0.001785902               0.006680726              -0.001678765              -0.001504801               0.002728486               0.001223685               0.000000000               0.000000000               0.000000000               0.000000000              -0.001437517               0.006597289              -0.001477245              -0.001363727               0.002653650               0.001289923               0.000000000               0.000000000               0.000000000               0.000000000              -0.001101427               0.006458371              -0.001303370              -0.001220329               0.002559545               0.001339216               0.000000000               0.000000000               0.000000000               0.000000000              -0.000790305               0.006286837              -0.001149191              -0.001082217               0.002456330               0.001374113               0.000000000               0.000000000               0.000000000               0.000000000              -0.000517305               0.006100457              -0.001000935              -0.000956544               0.002352313               0.001395769               0.000000000               0.000000000               0.000000000               0.000000000              -0.000285867               0.005907779              -0.000851254              -0.000845671               0.002251130               0.001405460               0.000000000               0.000000000               0.000000000               0.000000000              -0.000094171               0.005710552              -0.000691986              -0.000749132               0.002153209               0.001404077               0.000000000               0.000000000               0.000000000               0.000000000               0.000050570               0.005508135              -0.000519962              -0.000669552               0.002059211               0.001389659               0.000000000               0.000000000               0.000000000               0.000000000               0.000132372               0.005314381              -0.000340693              -0.000614657               0.001976328               0.001361671               0.000000000               0.000000000               0.000000000               0.000000000               0.000131641               0.005143953              -0.000164873              -0.000593627               0.001912510               0.001318882               0.000000000               0.000000000               0.000000000               0.000000000               0.000088965               0.005055643              -0.000073576              -0.000598592               0.001884728               0.001286136               0.000000000               0.000000000               0.000000000               0.000000000              -0.005621522               0.000432426               0.000311605              -0.002162122               0.000864844              -0.001297278               0.000000000               0.000000000               0.000000000               0.000000000              -0.004162374               0.002074928              -0.001091570              -0.001820253               0.001298385              -0.000521869               0.000000000               0.000000000               0.000000000               0.000000000              -0.003370080               0.003681367              -0.002262418              -0.001723948               0.001801758               0.000077810               0.000000000               0.000000000               0.000000000               0.000000000              -0.002803816               0.004703956              -0.002442941              -0.001639423               0.002114443               0.000475020               0.000000000               0.000000000               0.000000000               0.000000000              -0.002349140               0.005322915              -0.002316088              -0.001546289               0.002289716               0.000743427               0.000000000               0.000000000               0.000000000               0.000000000              -0.001956155               0.005685686              -0.002099160              -0.001444266               0.002376631               0.000932365               0.000000000               0.000000000               0.000000000               0.000000000              -0.001603233               0.005881255              -0.001877445              -0.001336367               0.002405854               0.001069487               0.000000000               0.000000000               0.000000000               0.000000000              -0.001273893               0.005964092              -0.001678733              -0.001223219               0.002395750               0.001172531               0.000000000               0.000000000               0.000000000               0.000000000              -0.000952336               0.005970120              -0.001503824              -0.001103389               0.002357816               0.001254427               0.000000000               0.000000000               0.000000000               0.000000000              -0.000643317               0.005922852              -0.001343138              -0.000981598               0.002301463               0.001319865               0.000000000               0.000000000               0.000000000               0.000000000              -0.000357103               0.005837033              -0.001188122              -0.000863541               0.002233505               0.001369964               0.000000000               0.000000000               0.000000000               0.000000000              -0.000097739               0.005729944              -0.001034966              -0.000752894               0.002160927               0.001408033               0.000000000               0.000000000               0.000000000               0.000000000               0.000131396               0.005603759              -0.000873952              -0.000651195               0.002084966               0.001433771               0.000000000               0.000000000               0.000000000               0.000000000               0.000326749               0.005457074              -0.000694612              -0.000559602               0.002005541               0.001445938               0.000000000               0.000000000               0.000000000               0.000000000               0.000473411               0.005298889              -0.000485957              -0.000484831               0.001927889               0.001443058               0.000000000               0.000000000               0.000000000               0.000000000               0.000545148               0.005145507              -0.000250879              -0.000438757               0.001861404               0.001422647               0.000000000               0.000000000               0.000000000               0.000000000               0.000550971               0.005068980              -0.000126941              -0.000427007               0.001831979               0.001404972               0.000000000               0.000000000               0.000000000               0.000000000              -0.007311285              -0.000272934               0.000632269              -0.002707613               0.000811554              -0.001896059               0.000000000               0.000000000               0.000000000               0.000000000              -0.005007571               0.001023589              -0.000736118              -0.002005786               0.001009784              -0.000996001               0.000000000               0.000000000               0.000000000               0.000000000              -0.003478662               0.002268257              -0.001936486              -0.001588028               0.001285419              -0.000302609               0.000000000               0.000000000               0.000000000               0.000000000              -0.002633838               0.003298876              -0.002216488              -0.001400046               0.001566295               0.000166249               0.000000000               0.000000000               0.000000000               0.000000000              -0.002083863               0.004045705              -0.002172539              -0.001287160               0.001777607               0.000490447               0.000000000               0.000000000               0.000000000               0.000000000              -0.001667122               0.004569285              -0.002015443              -0.001196329               0.001921855               0.000725526               0.000000000               0.000000000               0.000000000               0.000000000              -0.001314468               0.004933530              -0.001833080              -0.001109615               0.002014365               0.000904750               0.000000000               0.000000000               0.000000000               0.000000000              -0.000997969               0.005178477              -0.001661162              -0.001021546               0.002066657               0.001045110               0.000000000               0.000000000               0.000000000               0.000000000              -0.000698296               0.005330332              -0.001504863              -0.000928151               0.002086143               0.001157992               0.000000000               0.000000000               0.000000000               0.000000000              -0.000406484               0.005415414              -0.001355606              -0.000829357               0.002081572               0.001252215               0.000000000               0.000000000               0.000000000               0.000000000              -0.000118046               0.005448784              -0.001211214              -0.000725364               0.002058031               0.001332667               0.000000000               0.000000000               0.000000000               0.000000000               0.000165576               0.005442053              -0.001071363              -0.000618165               0.002020054               0.001401890               0.000000000               0.000000000               0.000000000               0.000000000               0.000441465               0.005401784              -0.000926911              -0.000509673               0.001970467               0.001460795               0.000000000               0.000000000               0.000000000               0.000000000               0.000703886               0.005333479              -0.000761572              -0.000402727               0.001912051               0.001509324               0.000000000               0.000000000               0.000000000               0.000000000               0.000944072               0.005238249              -0.000555202              -0.000300754               0.001846317               0.001545563               0.000000000               0.000000000               0.000000000               0.000000000               0.001148517               0.005124261              -0.000299175              -0.000209839               0.001778016               0.001568178               0.000000000               0.000000000               0.000000000               0.000000000               0.001265867               0.005075721              -0.000164187              -0.000159765               0.001745145               0.001585381               0.000000000               0.000000000               0.000000000               0.000000000              -0.008728030              -0.000665726               0.000651159              -0.003189793               0.000841350              -0.002348444               0.000000000               0.000000000               0.000000000               0.000000000              -0.005747825               0.000263011              -0.000429734              -0.002188309               0.000817101              -0.001371208               0.000000000               0.000000000               0.000000000               0.000000000              -0.003578246               0.001122266              -0.001409582              -0.001482124               0.000868123              -0.000614000               0.000000000               0.000000000               0.000000000               0.000000000              -0.002456781               0.002087341              -0.001685487              -0.001182208               0.001089841              -0.000092367               0.000000000               0.000000000               0.000000000               0.000000000              -0.001797981               0.002897629              -0.001695021              -0.001036445               0.001311348               0.000274903               0.000000000               0.000000000               0.000000000               0.000000000              -0.001348647               0.003531416              -0.001603690              -0.000947168               0.001492849               0.000545681               0.000000000               0.000000000               0.000000000               0.000000000              -0.000993918               0.004019347              -0.001481270              -0.000875136               0.001631480               0.000756344               0.000000000               0.000000000               0.000000000               0.000000000              -0.000688593               0.004389807              -0.001358077              -0.000806947               0.001732236               0.000925289               0.000000000               0.000000000               0.000000000               0.000000000              -0.000408707               0.004667081              -0.001239801              -0.000736649               0.001801228               0.001064578               0.000000000               0.000000000               0.000000000               0.000000000              -0.000133927               0.004871178              -0.001124511              -0.000659119               0.001843416               0.001184297               0.000000000               0.000000000               0.000000000               0.000000000               0.000151305               0.005014381              -0.001013258              -0.000570057               0.001861462               0.001291405               0.000000000               0.000000000               0.000000000               0.000000000               0.000452483               0.005108760              -0.000905832              -0.000468913               0.001859207               0.001390294               0.000000000               0.000000000               0.000000000               0.000000000               0.000770672               0.005160981              -0.000794150              -0.000356120               0.001839016               0.001482896               0.000000000               0.000000000               0.000000000               0.000000000               0.001103406               0.005172741              -0.000662642              -0.000232815               0.001801835               0.001569020               0.000000000               0.000000000               0.000000000               0.000000000               0.001452817               0.005146052              -0.000495626              -0.000098450               0.001748150               0.001649700               0.000000000               0.000000000               0.000000000               0.000000000               0.001824673               0.005085540              -0.000276060               0.000048559               0.001678977               0.001727536               0.000000000               0.000000000               0.000000000               0.000000000               0.002094818               0.005076604              -0.000161063               0.000150980               0.001641858               0.001792838               0.000000000               0.000000000               0.000000000               0.000000000              -0.009670908              -0.000840733               0.000405050              -0.003521497               0.000893582              -0.002627915               0.000000000               0.000000000               0.000000000               0.000000000              -0.006258977              -0.000188182              -0.000189205              -0.002323592               0.000711798              -0.001611793               0.000000000               0.000000000               0.000000000               0.000000000              -0.003658638               0.000376824              -0.000740213              -0.001419091               0.000598634              -0.000820457               0.000000000               0.000000000               0.000000000               0.000000000              -0.002331824               0.001265495              -0.000911543              -0.001032619               0.000766032              -0.000266587               0.000000000               0.000000000               0.000000000               0.000000000              -0.001577339               0.002098747              -0.000931748              -0.000853844               0.000984189               0.000130346               0.000000000               0.000000000               0.000000000               0.000000000              -0.001094658               0.002788538              -0.000892707              -0.000759063               0.001182524               0.000423461               0.000000000               0.000000000               0.000000000               0.000000000              -0.000738514               0.003351129              -0.000832561              -0.000695833               0.001348976               0.000653143               0.000000000               0.000000000               0.000000000               0.000000000              -0.000442405               0.003804033              -0.000768888              -0.000641405               0.001481800               0.000840395               0.000000000               0.000000000               0.000000000               0.000000000              -0.000173822               0.004160467              -0.000705734              -0.000585241               0.001581889               0.000996648               0.000000000               0.000000000               0.000000000               0.000000000               0.000095105               0.004443390              -0.000643716              -0.000519758               0.001654368               0.001134610               0.000000000               0.000000000               0.000000000               0.000000000               0.000379737               0.004662158              -0.000583266              -0.000440367               0.001700826               0.001260459               0.000000000               0.000000000               0.000000000               0.000000000               0.000689698               0.004826317              -0.000524389              -0.000344652               0.001723640               0.001378988               0.000000000               0.000000000               0.000000000               0.000000000               0.001032664               0.004945873              -0.000462069              -0.000230985               0.001725603               0.001494618               0.000000000               0.000000000               0.000000000               0.000000000               0.001418521               0.005023537              -0.000386517              -0.000095997               0.001706495               0.001610498               0.000000000               0.000000000               0.000000000               0.000000000               0.001859611               0.005056940              -0.000291997               0.000065236               0.001663884               0.001729120               0.000000000               0.000000000               0.000000000               0.000000000               0.002371724               0.005042787              -0.000165784               0.000259045               0.001594564               0.001853609               0.000000000               0.000000000               0.000000000               0.000000000               0.002772546               0.005067801              -0.000100450               0.000406226               0.001553842               0.001960067               0.000000000               0.000000000               0.000000000               0.000000000              -0.010001828              -0.000889243               0.000000000              -0.003639528               0.000916756              -0.002722772               0.000000000               0.000000000               0.000000000               0.000000000              -0.006442151              -0.000337795               0.000000000              -0.002373580               0.000678590              -0.001694990               0.000000000               0.000000000               0.000000000               0.000000000              -0.003690459               0.000121081               0.000000000              -0.001399056               0.000506709              -0.000892347               0.000000000               0.000000000               0.000000000               0.000000000              -0.002288691               0.000976270               0.000000000              -0.000980291               0.000652183              -0.000328109               0.000000000               0.000000000               0.000000000               0.000000000              -0.001495744               0.001808903              -0.000000000              -0.000787015               0.000865300               0.000078285               0.000000000               0.000000000               0.000000000               0.000000000              -0.000997628               0.002516344              -0.000000000              -0.000688652               0.001068324               0.000379672               0.000000000               0.000000000               0.000000000               0.000000000              -0.000640278               0.003107077              -0.000000000              -0.000628487               0.001245178               0.000616690               0.000000000               0.000000000               0.000000000               0.000000000              -0.000347447               0.003587881              -0.000000000              -0.000578777               0.001388874               0.000810097               0.000000000               0.000000000               0.000000000               0.000000000              -0.000080594               0.003969953               0.000000000              -0.000526466               0.001498793               0.000972327               0.000000000               0.000000000               0.000000000               0.000000000               0.000187565               0.004277065               0.000000000              -0.000464295               0.001580439               0.001116144               0.000000000               0.000000000               0.000000000               0.000000000               0.000472270               0.004521807              -0.000000000              -0.000388124               0.001636629               0.001248505               0.000000000               0.000000000               0.000000000               0.000000000               0.000785842               0.004714208              -0.000000000              -0.000294585               0.001669582               0.001374997               0.000000000               0.000000000               0.000000000               0.000000000               0.001136700               0.004858482              -0.000000000              -0.000181047               0.001679827               0.001498779               0.000000000               0.000000000               0.000000000               0.000000000               0.001540971               0.004959893               0.000000000              -0.000042122               0.001667322               0.001625200               0.000000000               0.000000000               0.000000000               0.000000000               0.002017612               0.005017642               0.000000000               0.000129398               0.001629398               0.001758796               0.000000000               0.000000000               0.000000000               0.000000000               0.002584080               0.005024014               0.000000000               0.000341025               0.001560980               0.001902004               0.000000000               0.000000000               0.000000000               0.000000000               0.003035019               0.005063465               0.000000000               0.000505194               0.001519407               0.002024601               0.000000000               0.000000000               0.000000000               0.000000000               0.000000000               0.000000000               0.000000000               0.000000000               0.000000000               0.000000000               0.000000000               0.000000000               0.000000000               0.000000000               0.000000000               0.000000000               0.000000000               0.000000000               0.000000000               0.000000000               0.000000000               0.000000000               0.000000000               0.000000000               0.000000000               0.000000000               0.000000000               0.000000000               0.000000000               0.000000000               0.000000000               0.000000000               0.000000000               0.000000000               0.000000000               0.000000000               0.000000000               0.000000000               0.000000000               0.000000000               0.000000000               0.000000000               0.000000000               0.000000000               0.000000000               0.000000000               0.000000000               0.000000000               0.000000000               0.000000000               0.000000000               0.000000000               0.000000000               0.000000000               0.000000000               0.000000000               0.000000000               0.000000000               0.000000000               0.000000000               0.000000000               0.000000000               0.000000000               0.000000000               0.000000000               0.000000000               0.000000000               0.000000000               0.000000000               0.000000000               0.000000000               0.000000000               0.000000000               0.000000000               0.000000000               0.000000000               0.000000000               0.000000000               0.000000000               0.000000000               0.000000000               0.000000000               0.000000000               0.000000000               0.000000000               0.000000000               0.000000000               0.000000000               0.000000000               0.000000000               0.000000000               0.000000000               0.000000000               0.000000000               0.000000000               0.000000000               0.000000000               0.000000000               0.000000000               0.000000000               0.000000000               0.000000000               0.000000000               0.000000000               0.000000000               0.000000000               0.000000000               0.000000000               0.000000000               0.000000000               0.000000000               0.000000000               0.000000000               0.000000000               0.000000000               0.000000000               0.000000000               0.000000000               0.000000000               0.000000000               0.000000000               0.000000000               0.000000000               0.000000000               0.000000000               0.000000000               0.000000000               0.000000000               0.000000000               0.000000000               0.000000000               0.000000000               0.000000000               0.000000000               0.000000000               0.000000000               0.000000000               0.000000000               0.000000000               0.000000000               0.000000000               0.000000000               0.000000000               0.000000000               0.000000000               0.000000000               0.000000000               0.000000000               0.000000000               0.000000000               0.000000000               0.000000000               0.000000000               0.000000000               0.000000000               0.000000000               0.000000000               0.000000000               0.000000000               0.000000000               0.000000000               0.000000000               0.000000000               0.000000000               0.000000000               0.000000000               0.000000000               0.000000000               0.000000000               0.000000000               0.000000000               0.000000000               0.000000000               0.000000000               0.002152376               0.021971448               0.001536886              -0.001939286               0.007970171               0.006030886               0.000000000               0.000000000               0.000000000               0.000000000               0.002040125               0.017294313               0.000772718              -0.001396739               0.006230293               0.004833554               0.000000000               0.000000000               0.000000000               0.000000000               0.002579793               0.013553497               0.000011400              -0.000726763               0.004760041               0.004033279               0.000000000               0.000000000               0.000000000               0.000000000               0.002430123               0.011455232              -0.000309932              -0.000520606               0.003991908               0.003471301               0.000000000               0.000000000               0.000000000               0.000000000               0.002091418               0.010146811              -0.000440559              -0.000484068               0.003543593               0.003059524               0.000000000               0.000000000               0.000000000               0.000000000               0.001731243               0.009253507              -0.000484507              -0.000507471               0.003253628               0.002746157               0.000000000               0.000000000               0.000000000               0.000000000               0.001402278               0.008587863              -0.000484979              -0.000547627               0.003045135               0.002497507               0.000000000               0.000000000               0.000000000               0.000000000               0.001115183               0.008043989              -0.000463887              -0.000587304               0.002877071               0.002289767               0.000000000               0.000000000               0.000000000               0.000000000               0.000868193               0.007570340              -0.000441057              -0.000620719               0.002730328               0.002109609               0.000000000               0.000000000               0.000000000               0.000000000               0.000653231               0.007140333              -0.000422069              -0.000647579               0.002595947               0.001948368               0.000000000               0.000000000               0.000000000               0.000000000               0.000470558               0.006735458              -0.000399935              -0.000665472               0.002466954               0.001801482               0.000000000               0.000000000               0.000000000               0.000000000               0.000319963               0.006340817              -0.000372468              -0.000672614               0.002337789               0.001665175               0.000000000               0.000000000               0.000000000               0.000000000               0.000192982               0.005940847              -0.000338764              -0.000670236               0.002203675               0.001533439               0.000000000               0.000000000               0.000000000               0.000000000               0.000093038               0.005522978              -0.000293699              -0.000655482               0.002059468               0.001403987               0.000000000               0.000000000               0.000000000               0.000000000               0.000028330               0.005076731              -0.000226614              -0.000623966               0.001900216               0.001276249               0.000000000               0.000000000               0.000000000               0.000000000               0.000001746               0.004585320              -0.000128222              -0.000572509               0.001719261               0.001146752               0.000000000               0.000000000               0.000000000               0.000000000              -0.000039792               0.004218301              -0.000077469              -0.000542208               0.001586822               0.001044614               0.000000000               0.000000000               0.000000000               0.000000000               0.002344223               0.020671465               0.002861553              -0.001704846               0.007458701               0.005753855               0.000000000               0.000000000               0.000000000               0.000000000               0.001921544               0.016456331               0.001442489              -0.001336459               0.005930875               0.004594416               0.000000000               0.000000000               0.000000000               0.000000000               0.002131343               0.013197986               0.000040679              -0.000850492               0.004682782               0.003832290               0.000000000               0.000000000               0.000000000               0.000000000               0.001865808               0.011350284              -0.000533612              -0.000719106               0.004023092               0.003303986               0.000000000               0.000000000               0.000000000               0.000000000               0.001513700               0.010175346              -0.000760573              -0.000704279               0.003626508               0.002922229               0.000000000               0.000000000               0.000000000               0.000000000               0.001182337               0.009351652              -0.000832678              -0.000725579               0.003359046               0.002633467               0.000000000               0.000000000               0.000000000               0.000000000               0.000899034               0.008718134              -0.000828710              -0.000752628               0.003156892               0.002404264               0.000000000               0.000000000               0.000000000               0.000000000               0.000668082               0.008193172              -0.000788916              -0.000773614               0.002988901               0.002215287               0.000000000               0.000000000               0.000000000               0.000000000               0.000478430               0.007729391              -0.000742371              -0.000786761               0.002838692               0.002051931               0.000000000               0.000000000               0.000000000               0.000000000               0.000325011               0.007299072              -0.000698700              -0.000790503               0.002696501               0.001905998               0.000000000               0.000000000               0.000000000               0.000000000               0.000206951               0.006892611              -0.000653889              -0.000783968               0.002558836               0.001774868               0.000000000               0.000000000               0.000000000               0.000000000               0.000115982               0.006503778              -0.000603732              -0.000769477               0.002424397               0.001654919               0.000000000               0.000000000               0.000000000               0.000000000               0.000045480               0.006124608              -0.000541511              -0.000748519               0.002291022               0.001542503               0.000000000               0.000000000               0.000000000               0.000000000              -0.000001828               0.005749433              -0.000461329              -0.000719363               0.002156246               0.001436883               0.000000000               0.000000000               0.000000000               0.000000000              -0.000024032               0.005375310              -0.000349715              -0.000680924               0.002018727               0.001337803               0.000000000               0.000000000               0.000000000               0.000000000              -0.000021092               0.005003391              -0.000194716              -0.000633332               0.001878891               0.001245559               0.000000000               0.000000000               0.000000000               0.000000000              -0.000039043               0.004749811              -0.000116410              -0.000608366               0.001786043               0.001177677               0.000000000               0.000000000               0.000000000               0.000000000               0.002542111               0.018699066               0.003813333              -0.001384091               0.006694323               0.005310232               0.000000000               0.000000000               0.000000000               0.000000000               0.001686391               0.015209213               0.001931048              -0.001268753               0.005492604               0.004223852               0.000000000               0.000000000               0.000000000               0.000000000               0.001441694               0.012678873               0.000096238              -0.001044221               0.004574322               0.003530101               0.000000000               0.000000000               0.000000000               0.000000000               0.001044998               0.011184543              -0.000614939              -0.001006191               0.004063541               0.003057350               0.000000000               0.000000000               0.000000000               0.000000000               0.000696516               0.010182838              -0.000877995              -0.001011659               0.003731465               0.002719806               0.000000000               0.000000000               0.000000000               0.000000000               0.000428771               0.009437341              -0.000950069              -0.001018876               0.003485374               0.002466498               0.000000000               0.000000000               0.000000000               0.000000000               0.000228539               0.008832218              -0.000936280              -0.001018323               0.003283484               0.002265161               0.000000000               0.000000000               0.000000000               0.000000000               0.000080795               0.008311960              -0.000884374              -0.001008695               0.003106857               0.002098162               0.000000000               0.000000000               0.000000000               0.000000000              -0.000025190               0.007846491              -0.000823264              -0.000990255               0.002945556               0.001955300               0.000000000               0.000000000               0.000000000               0.000000000              -0.000095602               0.007415143              -0.000766847              -0.000962741               0.002792603               0.001829862               0.000000000               0.000000000               0.000000000               0.000000000              -0.000137113               0.007011264              -0.000711187              -0.000927823               0.002646339               0.001718516               0.000000000               0.000000000               0.000000000               0.000000000              -0.000156755               0.006630365              -0.000648393              -0.000887577               0.002505958               0.001618382               0.000000000               0.000000000               0.000000000               0.000000000              -0.000157200               0.006270967              -0.000572483              -0.000842819               0.002371241               0.001528422               0.000000000               0.000000000               0.000000000               0.000000000              -0.000136134               0.005936743              -0.000476583              -0.000793141               0.002243275               0.001450134               0.000000000               0.000000000               0.000000000               0.000000000              -0.000099413               0.005630242              -0.000350939              -0.000741058               0.002123748               0.001382690               0.000000000               0.000000000               0.000000000               0.000000000              -0.000052332               0.005363187              -0.000190148              -0.000690021               0.002017718               0.001327697               0.000000000               0.000000000               0.000000000               0.000000000              -0.000043323               0.005203577              -0.000110937              -0.000666691               0.001956739               0.001290047               0.000000000               0.000000000               0.000000000               0.000000000               0.002621110               0.016291474               0.004307884              -0.001053519               0.005781609               0.004728090               0.000000000               0.000000000               0.000000000               0.000000000               0.001312271               0.013716345               0.002216544              -0.001222440               0.004979549               0.003757109               0.000000000               0.000000000               0.000000000               0.000000000               0.000586756               0.012057063               0.000210735              -0.001287096               0.004448013               0.003160917               0.000000000               0.000000000               0.000000000               0.000000000               0.000098424               0.010947502              -0.000518845              -0.001331526               0.004092973               0.002761447               0.000000000               0.000000000               0.000000000               0.000000000              -0.000200316               0.010113019              -0.000773183              -0.001339243               0.003817387               0.002478144               0.000000000               0.000000000               0.000000000               0.000000000              -0.000368059               0.009430372              -0.000836315              -0.001316815               0.003582364               0.002265549               0.000000000               0.000000000               0.000000000               0.000000000              -0.000453428               0.008842797              -0.000817935              -0.001275382               0.003372697               0.002097315               0.000000000               0.000000000               0.000000000               0.000000000              -0.000488163               0.008319764              -0.000767290              -0.001223029               0.003180903               0.001957874               0.000000000               0.000000000               0.000000000               0.000000000              -0.000489191               0.007847136              -0.000709541              -0.001164336               0.003003798               0.001839462               0.000000000               0.000000000               0.000000000               0.000000000              -0.000468372               0.007414278              -0.000654219              -0.001102422               0.002838875               0.001736454               0.000000000               0.000000000               0.000000000               0.000000000              -0.000435945               0.007014797              -0.000599755              -0.001040327               0.002685018               0.001644691               0.000000000               0.000000000               0.000000000               0.000000000              -0.000389294               0.006646738              -0.000538999              -0.000976825               0.002541166               0.001564341               0.000000000               0.000000000               0.000000000               0.000000000              -0.000324804               0.006310784              -0.000467103              -0.000910647               0.002407123               0.001496476               0.000000000               0.000000000               0.000000000               0.000000000              -0.000246316               0.006009215              -0.000378734              -0.000843518               0.002284224               0.001440706               0.000000000               0.000000000               0.000000000               0.000000000              -0.000159925               0.005751534              -0.000269385              -0.000778912               0.002176796               0.001397884               0.000000000               0.000000000               0.000000000               0.000000000              -0.000076870               0.005551721              -0.000140570              -0.000722789               0.002091485               0.001368696               0.000000000               0.000000000               0.000000000               0.000000000              -0.000050564               0.005445894              -0.000080486              -0.000699697               0.002048512               0.001348815               0.000000000               0.000000000               0.000000000               0.000000000               0.002453136               0.013692072               0.004355173              -0.000791585               0.004827839               0.004036254               0.000000000               0.000000000               0.000000000               0.000000000               0.000787475               0.012136917               0.002328339              -0.001221810               0.004452868               0.003231058               0.000000000               0.000000000               0.000000000               0.000000000              -0.000330879               0.011378804               0.000404191              -0.001546426               0.004308372               0.002761946               0.000000000               0.000000000               0.000000000               0.000000000              -0.000825385               0.010620701              -0.000258747              -0.001637103               0.004085899               0.002448796               0.000000000               0.000000000               0.000000000               0.000000000              -0.001020105               0.009921909              -0.000483335              -0.001622774               0.003848194               0.002225421               0.000000000               0.000000000               0.000000000               0.000000000              -0.001061732               0.009286802              -0.000543779              -0.001558996               0.003615235               0.002056239               0.000000000               0.000000000               0.000000000               0.000000000              -0.001020275               0.008710119              -0.000537840              -0.001471364               0.003393799               0.001922434               0.000000000               0.000000000               0.000000000               0.000000000              -0.000935630               0.008187354              -0.000503848              -0.001374277               0.003187183               0.001812906               0.000000000               0.000000000               0.000000000               0.000000000              -0.000832206               0.007709188              -0.000464301              -0.001275723               0.002994944               0.001719222               0.000000000               0.000000000               0.000000000               0.000000000              -0.000725896               0.007274099              -0.000429222              -0.001181470               0.002818499               0.001637029               0.000000000               0.000000000               0.000000000               0.000000000              -0.000619857               0.006881227              -0.000396178              -0.001092597               0.002657919               0.001565321               0.000000000               0.000000000               0.000000000               0.000000000              -0.000509295               0.006531601              -0.000355514              -0.001007433               0.002512990               0.001505556               0.000000000               0.000000000               0.000000000               0.000000000              -0.000394454               0.006221029              -0.000301004              -0.000925547               0.002382171               0.001456624               0.000000000               0.000000000               0.000000000               0.000000000              -0.000279005               0.005949095              -0.000235147              -0.000848262               0.002265766               0.001417504               0.000000000               0.000000000               0.000000000               0.000000000              -0.000169340               0.005727747              -0.000161000              -0.000779469               0.002169053               0.001389584               0.000000000               0.000000000               0.000000000               0.000000000              -0.000076440               0.005569913              -0.000081286              -0.000724902               0.002098253               0.001373351               0.000000000               0.000000000               0.000000000               0.000000000              -0.000044993               0.005494210              -0.000046898              -0.000703647               0.002065934               0.001362287               0.000000000               0.000000000               0.000000000               0.000000000               0.001978619               0.011114387               0.004029793              -0.000647318               0.003920530               0.003273212               0.000000000               0.000000000               0.000000000               0.000000000               0.000138849               0.010590416               0.002312913              -0.001271732               0.003954014               0.002682281               0.000000000               0.000000000               0.000000000               0.000000000              -0.001214976               0.010658948               0.000679180              -0.001787980               0.004148940               0.002360960               0.000000000               0.000000000               0.000000000               0.000000000              -0.001619437               0.010184240               0.000127336              -0.001880314               0.004021484               0.002141170               0.000000000               0.000000000               0.000000000               0.000000000              -0.001659902               0.009595576              -0.000076537              -0.001821906               0.003805795               0.001983889               0.000000000               0.000000000               0.000000000               0.000000000              -0.001554781               0.009005119              -0.000151867              -0.001708678               0.003571236               0.001862557               0.000000000               0.000000000               0.000000000               0.000000000              -0.001389016               0.008445097              -0.000174285              -0.001576514               0.003340509               0.001763995               0.000000000               0.000000000               0.000000000               0.000000000              -0.001199215               0.007925881              -0.000175093              -0.001440437               0.003122080               0.001681643               0.000000000               0.000000000               0.000000000               0.000000000              -0.001007902               0.007451552              -0.000171703              -0.001309404               0.002920294               0.001610890               0.000000000               0.000000000               0.000000000               0.000000000              -0.000828827               0.007024154              -0.000173822              -0.001188826               0.002737637               0.001548810               0.000000000               0.000000000               0.000000000               0.000000000              -0.000664635               0.006645687              -0.000176553              -0.001079946               0.002575189               0.001495243               0.000000000               0.000000000               0.000000000               0.000000000              -0.000510614               0.006313653              -0.000167536              -0.000980684               0.002431425               0.001450740               0.000000000               0.000000000               0.000000000               0.000000000              -0.000363467               0.006023935              -0.000139791              -0.000889290               0.002304388               0.001415099               0.000000000               0.000000000               0.000000000               0.000000000              -0.000231034               0.005777706              -0.000102739              -0.000808849               0.002195499               0.001386650               0.000000000               0.000000000               0.000000000               0.000000000              -0.000123827               0.005586670              -0.000066154              -0.000744767               0.002110460               0.001365693               0.000000000               0.000000000               0.000000000               0.000000000              -0.000048954               0.005460013              -0.000031753              -0.000700857               0.002053605               0.001352748               0.000000000               0.000000000               0.000000000               0.000000000              -0.000026580               0.005403464              -0.000019269              -0.000685399               0.002029603               0.001344204               0.000000000               0.000000000               0.000000000               0.000000000               0.001227257               0.008716025               0.003426920              -0.000629284               0.003115073               0.002485789               0.000000000               0.000000000               0.000000000               0.000000000              -0.000591161               0.009153409               0.002217728              -0.001365859               0.003506392               0.002140532               0.000000000               0.000000000               0.000000000               0.000000000              -0.001971393               0.009898428               0.001027508              -0.001976571               0.003958300               0.001981729               0.000000000               0.000000000               0.000000000               0.000000000              -0.002199149               0.009645904               0.000578149              -0.002030414               0.003892074               0.001861660               0.000000000               0.000000000               0.000000000               0.000000000              -0.002069555               0.009154888               0.000368196              -0.001920439               0.003691745               0.001771306               0.000000000               0.000000000               0.000000000               0.000000000              -0.001828415               0.008613462               0.000260642              -0.001762334               0.003458570               0.001696236               0.000000000               0.000000000               0.000000000               0.000000000              -0.001552611               0.008078636               0.000195888              -0.001592055               0.003223537               0.001631482               0.000000000               0.000000000               0.000000000               0.000000000              -0.001274248               0.007574848               0.000146437              -0.001424695               0.002999823               0.001575127               0.000000000               0.000000000               0.000000000               0.000000000              -0.001016619               0.007117988               0.000101585              -0.001270978               0.002796298               0.001525321               0.000000000               0.000000000               0.000000000               0.000000000              -0.000789808               0.006712936               0.000056959              -0.001135292               0.002616054               0.001480761               0.000000000               0.000000000               0.000000000               0.000000000              -0.000590073               0.006354413               0.000017213              -0.001015576               0.002456642               0.001441066               0.000000000               0.000000000               0.000000000               0.000000000              -0.000411315               0.006035197              -0.000007699              -0.000908640               0.002314592               0.001405952               0.000000000               0.000000000               0.000000000               0.000000000              -0.000259866               0.005758054              -0.000011750              -0.000817204               0.002191734               0.001374529               0.000000000               0.000000000               0.000000000               0.000000000              -0.000144594               0.005536197              -0.000004405              -0.000746245               0.002094129               0.001347884               0.000000000               0.000000000               0.000000000               0.000000000              -0.000068197               0.005377572              -0.000001056              -0.000697768               0.002025096               0.001327327               0.000000000               0.000000000               0.000000000               0.000000000              -0.000025894               0.005276062              -0.000001201              -0.000669216               0.001981742               0.001312526               0.000000000               0.000000000               0.000000000               0.000000000              -0.000016320               0.005228429              -0.000004404              -0.000659672               0.001962683               0.001303011               0.000000000               0.000000000               0.000000000               0.000000000               0.000306492               0.006667187               0.002663415              -0.000718464               0.002461861               0.001743396               0.000000000               0.000000000               0.000000000               0.000000000              -0.001302156               0.007855395               0.002095744              -0.001470230               0.003108515               0.001638285               0.000000000               0.000000000               0.000000000               0.000000000              -0.002548617               0.009137366               0.001435411              -0.002097897               0.003745057               0.001647160               0.000000000               0.000000000               0.000000000               0.000000000              -0.002585489               0.009116618               0.001052923              -0.002109130               0.003741886               0.001632755               0.000000000               0.000000000               0.000000000               0.000000000              -0.002315429               0.008750497               0.000816527              -0.001962093               0.003570834               0.001608741               0.000000000               0.000000000               0.000000000               0.000000000              -0.001970414               0.008280156               0.000662594              -0.001773920               0.003351331               0.001577411               0.000000000               0.000000000               0.000000000               0.000000000              -0.001611609               0.007789896               0.000547613              -0.001578086               0.003122635               0.001544548               0.000000000               0.000000000               0.000000000               0.000000000              -0.001267476               0.007324062               0.000446826              -0.001390808               0.002904932               0.001514124               0.000000000               0.000000000               0.000000000               0.000000000              -0.000962050               0.006900218               0.000355477              -0.001223293               0.002707814               0.001484521               0.000000000               0.000000000               0.000000000               0.000000000              -0.000701965               0.006521037               0.000274659              -0.001078364               0.002533112               0.001454748               0.000000000               0.000000000               0.000000000               0.000000000              -0.000480611               0.006173379               0.000202776              -0.000951899               0.002375072               0.001423173               0.000000000               0.000000000               0.000000000               0.000000000              -0.000295585               0.005854830               0.000141613              -0.000842696               0.002232489               0.001389793               0.000000000               0.000000000               0.000000000               0.000000000              -0.000163253               0.005576134               0.000095904              -0.000758235               0.002111438               0.001353203               0.000000000               0.000000000               0.000000000               0.000000000              -0.000084690               0.005364965               0.000064221              -0.000702378               0.002022430               0.001320052               0.000000000               0.000000000               0.000000000               0.000000000              -0.000052349               0.005223728               0.000036168              -0.000672595               0.001965424               0.001292828               0.000000000               0.000000000               0.000000000               0.000000000              -0.000051639               0.005130058               0.000013797              -0.000660620               0.001930209               0.001269589               0.000000000               0.000000000               0.000000000               0.000000000              -0.000057873               0.005083231               0.000002703              -0.000657105               0.001913428               0.001256324               0.000000000               0.000000000               0.000000000               0.000000000              -0.000791586               0.004736627               0.001847183              -0.000888922               0.001875166               0.000986244               0.000000000               0.000000000               0.000000000               0.000000000              -0.001887560               0.006345329               0.001956542              -0.001500998               0.002615421               0.001114423               0.000000000               0.000000000               0.000000000               0.000000000              -0.002869806               0.008013108               0.001867489              -0.002077811               0.003363612               0.001285802               0.000000000               0.000000000               0.000000000               0.000000000              -0.002802935               0.008338459               0.001563647              -0.002093403               0.003477259               0.001383856               0.000000000               0.000000000               0.000000000               0.000000000              -0.002475992               0.008215429               0.001298885              -0.001955421               0.003390256               0.001434835               0.000000000               0.000000000               0.000000000               0.000000000              -0.002100740               0.007915607               0.001092522              -0.001777224               0.003230917               0.001453693               0.000000000               0.000000000               0.000000000               0.000000000              -0.001727252               0.007552383               0.000924744              -0.001591764               0.003048023               0.001456260               0.000000000               0.000000000               0.000000000               0.000000000              -0.001369114               0.007182727               0.000777345              -0.001411255               0.002864637               0.001453382               0.000000000               0.000000000               0.000000000               0.000000000              -0.001045004               0.006826319               0.000648804              -0.001245163               0.002690471               0.001445308               0.000000000               0.000000000               0.000000000               0.000000000              -0.000764547               0.006489328               0.000536866              -0.001097869               0.002529044               0.001431175               0.000000000               0.000000000               0.000000000               0.000000000              -0.000527040               0.006174407               0.000433970              -0.000969439               0.002381261               0.001411823               0.000000000               0.000000000               0.000000000               0.000000000              -0.000331152               0.005879698               0.000331395              -0.000859142               0.002246260               0.001387118               0.000000000               0.000000000               0.000000000               0.000000000              -0.000187068               0.005609826               0.000235285              -0.000771377               0.002127049               0.001355672               0.000000000               0.000000000               0.000000000               0.000000000              -0.000105641               0.005380743               0.000151541              -0.000712207               0.002030965               0.001318759               0.000000000               0.000000000               0.000000000               0.000000000              -0.000082599               0.005207483               0.000079390              -0.000681908               0.001963113               0.001281205               0.000000000               0.000000000               0.000000000               0.000000000              -0.000103418               0.005085595               0.000028724              -0.000674479               0.001920008               0.001245529               0.000000000               0.000000000               0.000000000               0.000000000              -0.000129356               0.005025578               0.000007050              -0.000676704               0.001900744               0.001224040               0.000000000               0.000000000               0.000000000               0.000000000              -0.002214107               0.002972924               0.001028465              -0.001201903               0.001391599               0.000189695               0.000000000               0.000000000               0.000000000               0.000000000              -0.002541604               0.004819605               0.001747107              -0.001555549               0.002125035               0.000569486               0.000000000               0.000000000               0.000000000               0.000000000              -0.003087538               0.006695677               0.002208622              -0.001994782               0.002896797               0.000902015               0.000000000               0.000000000               0.000000000               0.000000000              -0.002926345               0.007356538               0.002048559              -0.002016942               0.003124468               0.001107526               0.000000000               0.000000000               0.000000000               0.000000000              -0.002574937               0.007516011               0.001787768              -0.001905099               0.003140345               0.001235246               0.000000000               0.000000000               0.000000000               0.000000000              -0.002193176               0.007435978               0.001542521              -0.001751934               0.003062612               0.001310678               0.000000000               0.000000000               0.000000000               0.000000000              -0.001825003               0.007244359               0.001331226              -0.001589917               0.002944734               0.001354817               0.000000000               0.000000000               0.000000000               0.000000000              -0.001465547               0.007005233               0.001148202              -0.001425231               0.002810131               0.001384900               0.000000000               0.000000000               0.000000000               0.000000000              -0.001129147               0.006741778               0.000991840              -0.001266150               0.002669287               0.001403137               0.000000000               0.000000000               0.000000000               0.000000000              -0.000829186               0.006470390               0.000855079              -0.001119741               0.002530022               0.001410281               0.000000000               0.000000000               0.000000000               0.000000000              -0.000573348               0.006206675               0.000725848              -0.000990838               0.002399150               0.001408313               0.000000000               0.000000000               0.000000000               0.000000000              -0.000361609               0.005950925               0.000592557              -0.000879467               0.002276777               0.001397311               0.000000000               0.000000000               0.000000000               0.000000000              -0.000193057               0.005706355               0.000454365              -0.000785689               0.002163996               0.001378307               0.000000000               0.000000000               0.000000000               0.000000000              -0.000085039               0.005475835               0.000315520              -0.000716367               0.002064049               0.001347682               0.000000000               0.000000000               0.000000000               0.000000000              -0.000043609               0.005277612               0.000186412              -0.000676053               0.001984537               0.001308484               0.000000000               0.000000000               0.000000000               0.000000000              -0.000068485               0.005118991               0.000079847              -0.000665554               0.001928165               0.001262610               0.000000000               0.000000000               0.000000000               0.000000000              -0.000114477               0.005037722               0.000027685              -0.000672643               0.001903438               0.001230795               0.000000000               0.000000000               0.000000000               0.000000000              -0.003865471               0.001511992               0.000273909              -0.001638548               0.001050173              -0.000588375               0.000000000               0.000000000               0.000000000               0.000000000              -0.003316310               0.003367093               0.001446870              -0.001664500               0.001677185               0.000012686               0.000000000               0.000000000               0.000000000               0.000000000              -0.003243464               0.005208829               0.002350639              -0.001867399               0.002358724               0.000491326               0.000000000               0.000000000               0.000000000               0.000000000              -0.002914715               0.006110442               0.002367916              -0.001856820               0.002655733               0.000798913               0.000000000               0.000000000               0.000000000               0.000000000              -0.002528600               0.006525368               0.002159783              -0.001763892               0.002763064               0.000999172               0.000000000               0.000000000               0.000000000               0.000000000              -0.002146147               0.006677484               0.001909677              -0.001639487               0.002772301               0.001132814               0.000000000               0.000000000               0.000000000               0.000000000              -0.001785902               0.006680726               0.001678765              -0.001504801               0.002728486               0.001223685               0.000000000               0.000000000               0.000000000               0.000000000              -0.001437517               0.006597289               0.001477245              -0.001363727               0.002653650               0.001289923               0.000000000               0.000000000               0.000000000               0.000000000              -0.001101427               0.006458371               0.001303370              -0.001220329               0.002559545               0.001339216               0.000000000               0.000000000               0.000000000               0.000000000              -0.000790305               0.006286837               0.001149191              -0.001082217               0.002456330               0.001374113               0.000000000               0.000000000               0.000000000               0.000000000              -0.000517305               0.006100457               0.001000935              -0.000956544               0.002352313               0.001395769               0.000000000               0.000000000               0.000000000               0.000000000              -0.000285867               0.005907779               0.000851254              -0.000845671               0.002251130               0.001405460               0.000000000               0.000000000               0.000000000               0.000000000              -0.000094171               0.005710552               0.000691986              -0.000749132               0.002153209               0.001404077               0.000000000               0.000000000               0.000000000               0.000000000               0.000050570               0.005508135               0.000519962              -0.000669552               0.002059211               0.001389659               0.000000000               0.000000000               0.000000000               0.000000000               0.000132372               0.005314381               0.000340693              -0.000614657               0.001976328               0.001361671               0.000000000               0.000000000               0.000000000               0.000000000               0.000131641               0.005143953               0.000164873              -0.000593627               0.001912510               0.001318882               0.000000000               0.000000000               0.000000000               0.000000000               0.000088965               0.005055643               0.000073576              -0.000598592               0.001884728               0.001286136               0.000000000               0.000000000               0.000000000               0.000000000              -0.005621522               0.000432426              -0.000311605              -0.002162122               0.000864844              -0.001297278               0.000000000               0.000000000               0.000000000               0.000000000              -0.004162374               0.002074928               0.001091570              -0.001820253               0.001298385              -0.000521869               0.000000000               0.000000000               0.000000000               0.000000000              -0.003370080               0.003681367               0.002262418              -0.001723948               0.001801758               0.000077810               0.000000000               0.000000000               0.000000000               0.000000000              -0.002803816               0.004703956               0.002442941              -0.001639423               0.002114443               0.000475020               0.000000000               0.000000000               0.000000000               0.000000000              -0.002349140               0.005322915               0.002316088              -0.001546289               0.002289716               0.000743427               0.000000000               0.000000000               0.000000000               0.000000000              -0.001956155               0.005685686               0.002099160              -0.001444266               0.002376631               0.000932365               0.000000000               0.000000000               0.000000000               0.000000000              -0.001603233               0.005881255               0.001877445              -0.001336367               0.002405854               0.001069487               0.000000000               0.000000000               0.000000000               0.000000000              -0.001273893               0.005964092               0.001678733              -0.001223219               0.002395750               0.001172531               0.000000000               0.000000000               0.000000000               0.000000000              -0.000952336               0.005970120               0.001503824              -0.001103389               0.002357816               0.001254427               0.000000000               0.000000000               0.000000000               0.000000000              -0.000643317               0.005922852               0.001343138              -0.000981598               0.002301463               0.001319865               0.000000000               0.000000000               0.000000000               0.000000000              -0.000357103               0.005837033               0.001188122              -0.000863541               0.002233505               0.001369964               0.000000000               0.000000000               0.000000000               0.000000000              -0.000097739               0.005729944               0.001034966              -0.000752894               0.002160927               0.001408033               0.000000000               0.000000000               0.000000000               0.000000000               0.000131396               0.005603759               0.000873952              -0.000651195               0.002084966               0.001433771               0.000000000               0.000000000               0.000000000               0.000000000               0.000326749               0.005457074               0.000694612              -0.000559602               0.002005541               0.001445938               0.000000000               0.000000000               0.000000000               0.000000000               0.000473411               0.005298889               0.000485957              -0.000484831               0.001927889               0.001443058               0.000000000               0.000000000               0.000000000               0.000000000               0.000545148               0.005145507               0.000250879              -0.000438757               0.001861404               0.001422647               0.000000000               0.000000000               0.000000000               0.000000000               0.000550971               0.005068980               0.000126941              -0.000427007               0.001831979               0.001404972               0.000000000               0.000000000               0.000000000               0.000000000              -0.007311285              -0.000272934              -0.000632269              -0.002707613               0.000811554              -0.001896059               0.000000000               0.000000000               0.000000000               0.000000000              -0.005007571               0.001023589               0.000736118              -0.002005786               0.001009784              -0.000996001               0.000000000               0.000000000               0.000000000               0.000000000              -0.003478662               0.002268257               0.001936486              -0.001588028               0.001285419              -0.000302609               0.000000000               0.000000000               0.000000000               0.000000000              -0.002633838               0.003298876               0.002216488              -0.001400046               0.001566295               0.000166249               0.000000000               0.000000000               0.000000000               0.000000000              -0.002083863               0.004045705               0.002172539              -0.001287160               0.001777607               0.000490447               0.000000000               0.000000000               0.000000000               0.000000000              -0.001667122               0.004569285               0.002015443              -0.001196329               0.001921855               0.000725526               0.000000000               0.000000000               0.000000000               0.000000000              -0.001314468               0.004933530               0.001833080              -0.001109615               0.002014365               0.000904750               0.000000000               0.000000000               0.000000000               0.000000000              -0.000997969               0.005178477               0.001661162              -0.001021546               0.002066657               0.001045110               0.000000000               0.000000000               0.000000000               0.000000000              -0.000698296               0.005330332               0.001504863              -0.000928151               0.002086143               0.001157992               0.000000000               0.000000000               0.000000000               0.000000000              -0.000406484               0.005415414               0.001355606              -0.000829357               0.002081572               0.001252215               0.000000000               0.000000000               0.000000000               0.000000000              -0.000118046               0.005448784               0.001211214              -0.000725364               0.002058031               0.001332667               0.000000000               0.000000000               0.000000000               0.000000000               0.000165576               0.005442053               0.001071363              -0.000618165               0.002020054               0.001401890               0.000000000               0.000000000               0.000000000               0.000000000               0.000441465               0.005401784               0.000926911              -0.000509673               0.001970467               0.001460795               0.000000000               0.000000000               0.000000000               0.000000000               0.000703886               0.005333479               0.000761572              -0.000402727               0.001912051               0.001509324               0.000000000               0.000000000               0.000000000               0.000000000               0.000944072               0.005238249               0.000555202              -0.000300754               0.001846317               0.001545563               0.000000000               0.000000000               0.000000000               0.000000000               0.001148517               0.005124261               0.000299175              -0.000209839               0.001778016               0.001568178               0.000000000               0.000000000               0.000000000               0.000000000               0.001265867               0.005075721               0.000164187              -0.000159765               0.001745145               0.001585381               0.000000000               0.000000000               0.000000000               0.000000000              -0.008728030              -0.000665726              -0.000651159              -0.003189793               0.000841350              -0.002348444               0.000000000               0.000000000               0.000000000               0.000000000              -0.005747825               0.000263011               0.000429734              -0.002188309               0.000817101              -0.001371208               0.000000000               0.000000000               0.000000000               0.000000000              -0.003578246               0.001122266               0.001409582              -0.001482124               0.000868123              -0.000614000               0.000000000               0.000000000               0.000000000               0.000000000              -0.002456781               0.002087341               0.001685487              -0.001182208               0.001089841              -0.000092367               0.000000000               0.000000000               0.000000000               0.000000000              -0.001797981               0.002897629               0.001695021              -0.001036445               0.001311348               0.000274903               0.000000000               0.000000000               0.000000000               0.000000000              -0.001348647               0.003531416               0.001603690              -0.000947168               0.001492849               0.000545681               0.000000000               0.000000000               0.000000000               0.000000000              -0.000993918               0.004019347               0.001481270              -0.000875136               0.001631480               0.000756344               0.000000000               0.000000000               0.000000000               0.000000000              -0.000688593               0.004389807               0.001358077              -0.000806947               0.001732236               0.000925289               0.000000000               0.000000000               0.000000000               0.000000000              -0.000408707               0.004667081               0.001239801              -0.000736649               0.001801228               0.001064578               0.000000000               0.000000000               0.000000000               0.000000000              -0.000133927               0.004871178               0.001124511              -0.000659119               0.001843416               0.001184297               0.000000000               0.000000000               0.000000000               0.000000000               0.000151305               0.005014381               0.001013258              -0.000570057               0.001861462               0.001291405               0.000000000               0.000000000               0.000000000               0.000000000               0.000452483               0.005108760               0.000905832              -0.000468913               0.001859207               0.001390294               0.000000000               0.000000000               0.000000000               0.000000000               0.000770672               0.005160981               0.000794150              -0.000356120               0.001839016               0.001482896               0.000000000               0.000000000               0.000000000               0.000000000               0.001103406               0.005172741               0.000662642              -0.000232815               0.001801835               0.001569020               0.000000000               0.000000000               0.000000000               0.000000000               0.001452817               0.005146052               0.000495626              -0.000098450               0.001748150               0.001649700               0.000000000               0.000000000               0.000000000               0.000000000               0.001824673               0.005085540               0.000276060               0.000048559               0.001678977               0.001727536               0.000000000               0.000000000               0.000000000               0.000000000               0.002094818               0.005076604               0.000161063               0.000150980               0.001641858               0.001792838               0.000000000               0.000000000               0.000000000               0.000000000              -0.009670908              -0.000840733              -0.000405050              -0.003521497               0.000893582              -0.002627915               0.000000000               0.000000000               0.000000000               0.000000000              -0.006258977              -0.000188182               0.000189205              -0.002323592               0.000711798              -0.001611793               0.000000000               0.000000000               0.000000000               0.000000000              -0.003658638               0.000376824               0.000740213              -0.001419091               0.000598634              -0.000820457               0.000000000               0.000000000               0.000000000               0.000000000              -0.002331824               0.001265495               0.000911543              -0.001032619               0.000766032              -0.000266587               0.000000000               0.000000000               0.000000000               0.000000000              -0.001577339               0.002098747               0.000931748              -0.000853844               0.000984189               0.000130346               0.000000000               0.000000000               0.000000000               0.000000000              -0.001094658               0.002788538               0.000892707              -0.000759063               0.001182524               0.000423461               0.000000000               0.000000000               0.000000000               0.000000000              -0.000738514               0.003351129               0.000832561              -0.000695833               0.001348976               0.000653143               0.000000000               0.000000000               0.000000000               0.000000000              -0.000442405               0.003804033               0.000768888              -0.000641405               0.001481800               0.000840395               0.000000000               0.000000000               0.000000000               0.000000000              -0.000173822               0.004160467               0.000705734              -0.000585241               0.001581889               0.000996648               0.000000000               0.000000000               0.000000000               0.000000000               0.000095105               0.004443390               0.000643716              -0.000519758               0.001654368               0.001134610               0.000000000               0.000000000               0.000000000               0.000000000               0.000379737               0.004662158               0.000583266              -0.000440367               0.001700826               0.001260459               0.000000000               0.000000000               0.000000000               0.000000000               0.000689698               0.004826317               0.000524389              -0.000344652               0.001723640               0.001378988               0.000000000               0.000000000               0.000000000               0.000000000               0.001032664               0.004945873               0.000462069              -0.000230985               0.001725603               0.001494618               0.000000000               0.000000000               0.000000000               0.000000000               0.001418521               0.005023537               0.000386517              -0.000095997               0.001706495               0.001610498               0.000000000               0.000000000               0.000000000               0.000000000               0.001859611               0.005056940               0.000291997               0.000065236               0.001663884               0.001729120               0.000000000               0.000000000               0.000000000               0.000000000               0.002371724               0.005042787               0.000165784               0.000259045               0.001594564               0.001853609               0.000000000               0.000000000               0.000000000               0.000000000               0.002772546               0.005067801               0.000100450               0.000406226               0.001553842               0.001960067               0.000000000               0.000000000               0.000000000               0.000000000              -0.010001828              -0.000889243               0.000000000              -0.003639528               0.000916756              -0.002722772               0.000000000               0.000000000               0.000000000               0.000000000              -0.006442151              -0.000337795               0.000000000              -0.002373580               0.000678590              -0.001694990               0.000000000               0.000000000               0.000000000               0.000000000              -0.003690459               0.000121081               0.000000000              -0.001399056               0.000506709              -0.000892347               0.000000000               0.000000000               0.000000000               0.000000000              -0.002288691               0.000976270               0.000000000              -0.000980291               0.000652183              -0.000328109               0.000000000               0.000000000               0.000000000               0.000000000              -0.001495744               0.001808903              -0.000000000              -0.000787015               0.000865300               0.000078285               0.000000000               0.000000000               0.000000000               0.000000000              -0.000997628               0.002516344               0.000000000              -0.000688652               0.001068324               0.000379672               0.000000000               0.000000000               0.000000000               0.000000000              -0.000640278               0.003107077               0.000000000              -0.000628487               0.001245178               0.000616690               0.000000000               0.000000000               0.000000000               0.000000000              -0.000347447               0.003587881               0.000000000              -0.000578777               0.001388874               0.000810097               0.000000000               0.000000000               0.000000000               0.000000000              -0.000080594               0.003969953               0.000000000              -0.000526466               0.001498793               0.000972327               0.000000000               0.000000000               0.000000000               0.000000000               0.000187565               0.004277065               0.000000000              -0.000464295               0.001580439               0.001116144               0.000000000               0.000000000               0.000000000               0.000000000               0.000472270               0.004521807               0.000000000              -0.000388124               0.001636629               0.001248505               0.000000000               0.000000000               0.000000000               0.000000000               0.000785842               0.004714208              -0.000000000              -0.000294585               0.001669582               0.001374997               0.000000000               0.000000000               0.000000000               0.000000000               0.001136700               0.004858482              -0.000000000              -0.000181047               0.001679827               0.001498779               0.000000000               0.000000000               0.000000000               0.000000000               0.001540971               0.004959893              -0.000000000              -0.000042122               0.001667322               0.001625200               0.000000000               0.000000000               0.000000000               0.000000000               0.002017612               0.005017642               0.000000000               0.000129398               0.001629398               0.001758796               0.000000000               0.000000000               0.000000000               0.000000000               0.002584080               0.005024014              -0.000000000               0.000341025               0.001560980               0.001902004               0.000000000               0.000000000               0.000000000               0.000000000               0.003035019               0.005063465              -0.000000000               0.000505194               0.001519407               0.002024601               0.000000000               0.000000000               0.000000000               0.000000000               0.002071456               0.022425875               0.000000000              -0.002026433               0.008150695               0.006124261               0.000000000               0.000000000               0.000000000               0.000000000               0.002071699               0.017590749              -0.000000000              -0.001421953               0.006337509               0.004915556               0.000000000               0.000000000               0.000000000               0.000000000               0.002732569               0.013680304              -0.000000000              -0.000685323               0.004788497               0.004103174               0.000000000               0.000000000               0.000000000               0.000000000               0.002634053               0.011493841              -0.000000000              -0.000448959               0.003980895               0.003531936               0.000000000               0.000000000               0.000000000               0.000000000               0.002308617               0.010138372              -0.000000000              -0.000401564               0.003513278               0.003111714               0.000000000               0.000000000               0.000000000               0.000000000               0.001940094               0.009216727               0.000000000              -0.000424554               0.003213730               0.002789175               0.000000000               0.000000000               0.000000000               0.000000000               0.001594131               0.008533081               0.000000000              -0.000468835               0.003000610               0.002531775               0.000000000               0.000000000               0.000000000               0.000000000               0.001285824               0.007977964               0.000000000              -0.000515060               0.002830982               0.002315921               0.000000000               0.000000000               0.000000000               0.000000000               0.001010607               0.007492213               0.000000000              -0.000557548               0.002683229               0.002125681               0.000000000               0.000000000               0.000000000               0.000000000               0.000767437               0.007058514              -0.000000000              -0.000594524               0.002550989               0.001956465               0.000000000               0.000000000               0.000000000               0.000000000               0.000561492               0.006656426              -0.000000000              -0.000621492               0.002425951               0.001804458               0.000000000               0.000000000               0.000000000               0.000000000               0.000388531               0.006259631               0.000000000              -0.000636753               0.002298774               0.001662021               0.000000000               0.000000000               0.000000000               0.000000000               0.000244900               0.005849903              -0.000000000              -0.000639399               0.002163081               0.001523682               0.000000000               0.000000000               0.000000000               0.000000000               0.000131717               0.005414209               0.000000000              -0.000627381               0.002013845               0.001386465               0.000000000               0.000000000               0.000000000               0.000000000               0.000049409               0.004933603               0.000000000              -0.000598171               0.001843908               0.001245737               0.000000000               0.000000000               0.000000000               0.000000000               0.000011152               0.004385090               0.000000000              -0.000543953               0.001643000               0.001099047               0.000000000               0.000000000               0.000000000               0.000000000              -0.000039381               0.003963139               0.000000000              -0.000510159               0.001491086               0.000980927               0.000000000               0.000000000               0.000000000               0.000000000               0.002152376               0.021971448              -0.001536886              -0.001939286               0.007970171               0.006030886               0.000000000               0.000000000               0.000000000               0.000000000               0.002040125               0.017294313              -0.000772718              -0.001396739               0.006230293               0.004833554               0.000000000               0.000000000               0.000000000               0.000000000               0.002579793               0.013553497              -0.000011400              -0.000726763               0.004760041               0.004033279               0.000000000               0.000000000               0.000000000               0.000000000               0.002430123               0.011455232               0.000309932              -0.000520606               0.003991908               0.003471301               0.000000000               0.000000000               0.000000000               0.000000000               0.002091418               0.010146811               0.000440559              -0.000484068               0.003543593               0.003059524               0.000000000               0.000000000               0.000000000               0.000000000               0.001731243               0.009253507               0.000484507              -0.000507471               0.003253628               0.002746157               0.000000000               0.000000000               0.000000000               0.000000000               0.001402278               0.008587863               0.000484979              -0.000547627               0.003045135               0.002497507               0.000000000               0.000000000               0.000000000               0.000000000               0.001115183               0.008043989               0.000463887              -0.000587304               0.002877071               0.002289767               0.000000000               0.000000000               0.000000000               0.000000000               0.000868193               0.007570340               0.000441057              -0.000620719               0.002730328               0.002109609               0.000000000               0.000000000               0.000000000               0.000000000               0.000653231               0.007140333               0.000422069              -0.000647579               0.002595947               0.001948368               0.000000000               0.000000000               0.000000000               0.000000000               0.000470558               0.006735458               0.000399935              -0.000665472               0.002466954               0.001801482               0.000000000               0.000000000               0.000000000               0.000000000               0.000319963               0.006340817               0.000372468              -0.000672614               0.002337789               0.001665175               0.000000000               0.000000000               0.000000000               0.000000000               0.000192982               0.005940847               0.000338764              -0.000670236               0.002203675               0.001533439               0.000000000               0.000000000               0.000000000               0.000000000               0.000093038               0.005522978               0.000293699              -0.000655482               0.002059468               0.001403987               0.000000000               0.000000000               0.000000000               0.000000000               0.000028330               0.005076731               0.000226614              -0.000623966               0.001900216               0.001276249               0.000000000               0.000000000               0.000000000               0.000000000               0.000001746               0.004585320               0.000128222              -0.000572509               0.001719261               0.001146752               0.000000000               0.000000000               0.000000000               0.000000000              -0.000039792               0.004218301               0.000077469              -0.000542208               0.001586822               0.001044614               0.000000000               0.000000000               0.000000000               0.000000000               0.002344223               0.020671465              -0.002861553              -0.001704846               0.007458701               0.005753855               0.000000000               0.000000000               0.000000000               0.000000000               0.001921544               0.016456331              -0.001442489              -0.001336459               0.005930875               0.004594416               0.000000000               0.000000000               0.000000000               0.000000000               0.002131343               0.013197986              -0.000040679              -0.000850492               0.004682782               0.003832290               0.000000000               0.000000000               0.000000000               0.000000000               0.001865808               0.011350284               0.000533612              -0.000719106               0.004023092               0.003303986               0.000000000               0.000000000               0.000000000               0.000000000               0.001513700               0.010175346               0.000760573              -0.000704279               0.003626508               0.002922229               0.000000000               0.000000000               0.000000000               0.000000000               0.001182337               0.009351652               0.000832678              -0.000725579               0.003359046               0.002633467               0.000000000               0.000000000               0.000000000               0.000000000               0.000899034               0.008718134               0.000828710              -0.000752628               0.003156892               0.002404264               0.000000000               0.000000000               0.000000000               0.000000000               0.000668082               0.008193172               0.000788916              -0.000773614               0.002988901               0.002215287               0.000000000               0.000000000               0.000000000               0.000000000               0.000478430               0.007729391               0.000742371              -0.000786761               0.002838692               0.002051931               0.000000000               0.000000000               0.000000000               0.000000000               0.000325011               0.007299072               0.000698700              -0.000790503               0.002696501               0.001905998               0.000000000               0.000000000               0.000000000               0.000000000               0.000206951               0.006892611               0.000653889              -0.000783968               0.002558836               0.001774868               0.000000000               0.000000000               0.000000000               0.000000000               0.000115982               0.006503778               0.000603732              -0.000769477               0.002424397               0.001654919               0.000000000               0.000000000               0.000000000               0.000000000               0.000045480               0.006124608               0.000541511              -0.000748519               0.002291022               0.001542503               0.000000000               0.000000000               0.000000000               0.000000000              -0.000001828               0.005749433               0.000461329              -0.000719363               0.002156246               0.001436883               0.000000000               0.000000000               0.000000000               0.000000000              -0.000024032               0.005375310               0.000349715              -0.000680924               0.002018727               0.001337803               0.000000000               0.000000000               0.000000000               0.000000000              -0.000021092               0.005003391               0.000194716              -0.000633332               0.001878891               0.001245559               0.000000000               0.000000000               0.000000000               0.000000000              -0.000039043               0.004749811               0.000116410              -0.000608366               0.001786043               0.001177677               0.000000000               0.000000000               0.000000000               0.000000000               0.002542111               0.018699066              -0.003813333              -0.001384091               0.006694323               0.005310232               0.000000000               0.000000000               0.000000000               0.000000000               0.001686391               0.015209213              -0.001931048              -0.001268753               0.005492604               0.004223852               0.000000000               0.000000000               0.000000000               0.000000000               0.001441694               0.012678873              -0.000096238              -0.001044221               0.004574322               0.003530101               0.000000000               0.000000000               0.000000000               0.000000000               0.001044998               0.011184543               0.000614939              -0.001006191               0.004063541               0.003057350               0.000000000               0.000000000               0.000000000               0.000000000               0.000696516               0.010182838               0.000877995              -0.001011659               0.003731465               0.002719806               0.000000000               0.000000000               0.000000000               0.000000000               0.000428771               0.009437341               0.000950069              -0.001018876               0.003485374               0.002466498               0.000000000               0.000000000               0.000000000               0.000000000               0.000228539               0.008832218               0.000936280              -0.001018323               0.003283484               0.002265161               0.000000000               0.000000000               0.000000000               0.000000000               0.000080795               0.008311960               0.000884374              -0.001008695               0.003106857               0.002098162               0.000000000               0.000000000               0.000000000               0.000000000              -0.000025190               0.007846491               0.000823264              -0.000990255               0.002945556               0.001955300               0.000000000               0.000000000               0.000000000               0.000000000              -0.000095602               0.007415143               0.000766847              -0.000962741               0.002792603               0.001829862               0.000000000               0.000000000               0.000000000               0.000000000              -0.000137113               0.007011264               0.000711187              -0.000927823               0.002646339               0.001718516               0.000000000               0.000000000               0.000000000               0.000000000              -0.000156755               0.006630365               0.000648393              -0.000887577               0.002505958               0.001618382               0.000000000               0.000000000               0.000000000               0.000000000              -0.000157200               0.006270967               0.000572483              -0.000842819               0.002371241               0.001528422               0.000000000               0.000000000               0.000000000               0.000000000              -0.000136134               0.005936743               0.000476583              -0.000793141               0.002243275               0.001450134               0.000000000               0.000000000               0.000000000               0.000000000              -0.000099413               0.005630242               0.000350939              -0.000741058               0.002123748               0.001382690               0.000000000               0.000000000               0.000000000               0.000000000              -0.000052332               0.005363187               0.000190148              -0.000690021               0.002017718               0.001327697               0.000000000               0.000000000               0.000000000               0.000000000              -0.000043323               0.005203577               0.000110937              -0.000666691               0.001956739               0.001290047               0.000000000               0.000000000               0.000000000               0.000000000               0.002621110               0.016291474              -0.004307884              -0.001053519               0.005781609               0.004728090               0.000000000               0.000000000               0.000000000               0.000000000               0.001312271               0.013716345              -0.002216544              -0.001222440               0.004979549               0.003757109               0.000000000               0.000000000               0.000000000               0.000000000               0.000586756               0.012057063              -0.000210735              -0.001287096               0.004448013               0.003160917               0.000000000               0.000000000               0.000000000               0.000000000               0.000098424               0.010947502               0.000518845              -0.001331526               0.004092973               0.002761447               0.000000000               0.000000000               0.000000000               0.000000000              -0.000200316               0.010113019               0.000773183              -0.001339243               0.003817387               0.002478144               0.000000000               0.000000000               0.000000000               0.000000000              -0.000368059               0.009430372               0.000836315              -0.001316815               0.003582364               0.002265549               0.000000000               0.000000000               0.000000000               0.000000000              -0.000453428               0.008842797               0.000817935              -0.001275382               0.003372697               0.002097315               0.000000000               0.000000000               0.000000000               0.000000000              -0.000488163               0.008319764               0.000767290              -0.001223029               0.003180903               0.001957874               0.000000000               0.000000000               0.000000000               0.000000000              -0.000489191               0.007847136               0.000709541              -0.001164336               0.003003798               0.001839462               0.000000000               0.000000000               0.000000000               0.000000000              -0.000468372               0.007414278               0.000654219              -0.001102422               0.002838875               0.001736454               0.000000000               0.000000000               0.000000000               0.000000000              -0.000435945               0.007014797               0.000599755              -0.001040327               0.002685018               0.001644691               0.000000000               0.000000000               0.000000000               0.000000000              -0.000389294               0.006646738               0.000538999              -0.000976825               0.002541166               0.001564341               0.000000000               0.000000000               0.000000000               0.000000000              -0.000324804               0.006310784               0.000467103              -0.000910647               0.002407123               0.001496476               0.000000000               0.000000000               0.000000000               0.000000000              -0.000246316               0.006009215               0.000378734              -0.000843518               0.002284224               0.001440706               0.000000000               0.000000000               0.000000000               0.000000000              -0.000159925               0.005751534               0.000269385              -0.000778912               0.002176796               0.001397884               0.000000000               0.000000000               0.000000000               0.000000000              -0.000076870               0.005551721               0.000140570              -0.000722789               0.002091485               0.001368696               0.000000000               0.000000000               0.000000000               0.000000000              -0.000050564               0.005445894               0.000080486              -0.000699697               0.002048512               0.001348815               0.000000000               0.000000000               0.000000000               0.000000000               0.002453136               0.013692072              -0.004355173              -0.000791585               0.004827839               0.004036254               0.000000000               0.000000000               0.000000000               0.000000000               0.000787475               0.012136917              -0.002328339              -0.001221810               0.004452868               0.003231058               0.000000000               0.000000000               0.000000000               0.000000000              -0.000330879               0.011378804              -0.000404191              -0.001546426               0.004308372               0.002761946               0.000000000               0.000000000               0.000000000               0.000000000              -0.000825385               0.010620701               0.000258747              -0.001637103               0.004085899               0.002448796               0.000000000               0.000000000               0.000000000               0.000000000              -0.001020105               0.009921909               0.000483335              -0.001622774               0.003848194               0.002225421               0.000000000               0.000000000               0.000000000               0.000000000              -0.001061732               0.009286802               0.000543779              -0.001558996               0.003615235               0.002056239               0.000000000               0.000000000               0.000000000               0.000000000              -0.001020275               0.008710119               0.000537840              -0.001471364               0.003393799               0.001922434               0.000000000               0.000000000               0.000000000               0.000000000              -0.000935630               0.008187354               0.000503848              -0.001374277               0.003187183               0.001812906               0.000000000               0.000000000               0.000000000               0.000000000              -0.000832206               0.007709188               0.000464301              -0.001275723               0.002994944               0.001719222               0.000000000               0.000000000               0.000000000               0.000000000              -0.000725896               0.007274099               0.000429222              -0.001181470               0.002818499               0.001637029               0.000000000               0.000000000               0.000000000               0.000000000              -0.000619857               0.006881227               0.000396178              -0.001092597               0.002657919               0.001565321               0.000000000               0.000000000               0.000000000               0.000000000              -0.000509295               0.006531601               0.000355514              -0.001007433               0.002512990               0.001505556               0.000000000               0.000000000               0.000000000               0.000000000              -0.000394454               0.006221029               0.000301004              -0.000925547               0.002382171               0.001456624               0.000000000               0.000000000               0.000000000               0.000000000              -0.000279005               0.005949095               0.000235147              -0.000848262               0.002265766               0.001417504               0.000000000               0.000000000               0.000000000               0.000000000              -0.000169340               0.005727747               0.000161000              -0.000779469               0.002169053               0.001389584               0.000000000               0.000000000               0.000000000               0.000000000              -0.000076440               0.005569913               0.000081286              -0.000724902               0.002098253               0.001373351               0.000000000               0.000000000               0.000000000               0.000000000              -0.000044993               0.005494210               0.000046898              -0.000703647               0.002065934               0.001362287               0.000000000               0.000000000               0.000000000               0.000000000               0.001978619               0.011114387              -0.004029793              -0.000647318               0.003920530               0.003273212               0.000000000               0.000000000               0.000000000               0.000000000               0.000138849               0.010590416              -0.002312913              -0.001271732               0.003954014               0.002682281               0.000000000               0.000000000               0.000000000               0.000000000              -0.001214976               0.010658948              -0.000679180              -0.001787980               0.004148940               0.002360960               0.000000000               0.000000000               0.000000000               0.000000000              -0.001619437               0.010184240              -0.000127336              -0.001880314               0.004021484               0.002141170               0.000000000               0.000000000               0.000000000               0.000000000              -0.001659902               0.009595576               0.000076537              -0.001821906               0.003805795               0.001983889               0.000000000               0.000000000               0.000000000               0.000000000              -0.001554781               0.009005119               0.000151867              -0.001708678               0.003571236               0.001862557               0.000000000               0.000000000               0.000000000               0.000000000              -0.001389016               0.008445097               0.000174285              -0.001576514               0.003340509               0.001763995               0.000000000               0.000000000               0.000000000               0.000000000              -0.001199215               0.007925881               0.000175093              -0.001440437               0.003122080               0.001681643               0.000000000               0.000000000               0.000000000               0.000000000              -0.001007902               0.007451552               0.000171703              -0.001309404               0.002920294               0.001610890               0.000000000               0.000000000               0.000000000               0.000000000              -0.000828827               0.007024154               0.000173822              -0.001188826               0.002737637               0.001548810               0.000000000               0.000000000               0.000000000               0.000000000              -0.000664635               0.006645687               0.000176553              -0.001079946               0.002575189               0.001495243               0.000000000               0.000000000               0.000000000               0.000000000              -0.000510614               0.006313653               0.000167536              -0.000980684               0.002431425               0.001450740               0.000000000               0.000000000               0.000000000               0.000000000              -0.000363467               0.006023935               0.000139791              -0.000889290               0.002304388               0.001415099               0.000000000               0.000000000               0.000000000               0.000000000              -0.000231034               0.005777706               0.000102739              -0.000808849               0.002195499               0.001386650               0.000000000               0.000000000               0.000000000               0.000000000              -0.000123827               0.005586670               0.000066154              -0.000744767               0.002110460               0.001365693               0.000000000               0.000000000               0.000000000               0.000000000              -0.000048954               0.005460013               0.000031753              -0.000700857               0.002053605               0.001352748               0.000000000               0.000000000               0.000000000               0.000000000              -0.000026580               0.005403464               0.000019269              -0.000685399               0.002029603               0.001344204               0.000000000               0.000000000               0.000000000               0.000000000               0.001227257               0.008716025              -0.003426920              -0.000629284               0.003115073               0.002485789               0.000000000               0.000000000               0.000000000               0.000000000              -0.000591161               0.009153409              -0.002217728              -0.001365859               0.003506392               0.002140532               0.000000000               0.000000000               0.000000000               0.000000000              -0.001971393               0.009898428              -0.001027508              -0.001976571               0.003958300               0.001981729               0.000000000               0.000000000               0.000000000               0.000000000              -0.002199149               0.009645904              -0.000578149              -0.002030414               0.003892074               0.001861660               0.000000000               0.000000000               0.000000000               0.000000000              -0.002069555               0.009154888              -0.000368196              -0.001920439               0.003691745               0.001771306               0.000000000               0.000000000               0.000000000               0.000000000              -0.001828415               0.008613462              -0.000260642              -0.001762334               0.003458570               0.001696236               0.000000000               0.000000000               0.000000000               0.000000000              -0.001552611               0.008078636              -0.000195888              -0.001592055               0.003223537               0.001631482               0.000000000               0.000000000               0.000000000               0.000000000              -0.001274248               0.007574848              -0.000146437              -0.001424695               0.002999823               0.001575127               0.000000000               0.000000000               0.000000000               0.000000000              -0.001016619               0.007117988              -0.000101585              -0.001270978               0.002796298               0.001525321               0.000000000               0.000000000               0.000000000               0.000000000              -0.000789808               0.006712936              -0.000056959              -0.001135292               0.002616054               0.001480761               0.000000000               0.000000000               0.000000000               0.000000000              -0.000590073               0.006354413              -0.000017213              -0.001015576               0.002456642               0.001441066               0.000000000               0.000000000               0.000000000               0.000000000              -0.000411315               0.006035197               0.000007699              -0.000908640               0.002314592               0.001405952               0.000000000               0.000000000               0.000000000               0.000000000              -0.000259866               0.005758054               0.000011750              -0.000817204               0.002191734               0.001374529               0.000000000               0.000000000               0.000000000               0.000000000              -0.000144594               0.005536197               0.000004405              -0.000746245               0.002094129               0.001347884               0.000000000               0.000000000               0.000000000               0.000000000              -0.000068197               0.005377572               0.000001056              -0.000697768               0.002025096               0.001327327               0.000000000               0.000000000               0.000000000               0.000000000              -0.000025894               0.005276062               0.000001201              -0.000669216               0.001981742               0.001312526               0.000000000               0.000000000               0.000000000               0.000000000              -0.000016320               0.005228429               0.000004404              -0.000659672               0.001962683               0.001303011               0.000000000               0.000000000               0.000000000               0.000000000               0.000306492               0.006667187              -0.002663415              -0.000718464               0.002461861               0.001743396               0.000000000               0.000000000               0.000000000               0.000000000              -0.001302156               0.007855395              -0.002095744              -0.001470230               0.003108515               0.001638285               0.000000000               0.000000000               0.000000000               0.000000000              -0.002548617               0.009137366              -0.001435411              -0.002097897               0.003745057               0.001647160               0.000000000               0.000000000               0.000000000               0.000000000              -0.002585489               0.009116618              -0.001052923              -0.002109130               0.003741886               0.001632755               0.000000000               0.000000000               0.000000000               0.000000000              -0.002315429               0.008750497              -0.000816527              -0.001962093               0.003570834               0.001608741               0.000000000               0.000000000               0.000000000               0.000000000              -0.001970414               0.008280156              -0.000662594              -0.001773920               0.003351331               0.001577411               0.000000000               0.000000000               0.000000000               0.000000000              -0.001611609               0.007789896              -0.000547613              -0.001578086               0.003122635               0.001544548               0.000000000               0.000000000               0.000000000               0.000000000              -0.001267476               0.007324062              -0.000446826              -0.001390808               0.002904932               0.001514124               0.000000000               0.000000000               0.000000000               0.000000000              -0.000962050               0.006900218              -0.000355477              -0.001223293               0.002707814               0.001484521               0.000000000               0.000000000               0.000000000               0.000000000              -0.000701965               0.006521037              -0.000274659              -0.001078364               0.002533112               0.001454748               0.000000000               0.000000000               0.000000000               0.000000000              -0.000480611               0.006173379              -0.000202776              -0.000951899               0.002375072               0.001423173               0.000000000               0.000000000               0.000000000               0.000000000              -0.000295585               0.005854830              -0.000141613              -0.000842696               0.002232489               0.001389793               0.000000000               0.000000000               0.000000000               0.000000000              -0.000163253               0.005576134              -0.000095904              -0.000758235               0.002111438               0.001353203               0.000000000               0.000000000               0.000000000               0.000000000              -0.000084690               0.005364965              -0.000064221              -0.000702378               0.002022430               0.001320052               0.000000000               0.000000000               0.000000000               0.000000000              -0.000052349               0.005223728              -0.000036168              -0.000672595               0.001965424               0.001292828               0.000000000               0.000000000               0.000000000               0.000000000              -0.000051639               0.005130058              -0.000013797              -0.000660620               0.001930209               0.001269589               0.000000000               0.000000000               0.000000000               0.000000000              -0.000057873               0.005083231              -0.000002703              -0.000657105               0.001913428               0.001256324               0.000000000               0.000000000               0.000000000               0.000000000              -0.000791586               0.004736627              -0.001847183              -0.000888922               0.001875166               0.000986244               0.000000000               0.000000000               0.000000000               0.000000000              -0.001887560               0.006345329              -0.001956542              -0.001500998               0.002615421               0.001114423               0.000000000               0.000000000               0.000000000               0.000000000              -0.002869806               0.008013108              -0.001867489              -0.002077811               0.003363612               0.001285802               0.000000000               0.000000000               0.000000000               0.000000000              -0.002802935               0.008338459              -0.001563647              -0.002093403               0.003477259               0.001383856               0.000000000               0.000000000               0.000000000               0.000000000              -0.002475992               0.008215429              -0.001298885              -0.001955421               0.003390256               0.001434835               0.000000000               0.000000000               0.000000000               0.000000000              -0.002100740               0.007915607              -0.001092522              -0.001777224               0.003230917               0.001453693               0.000000000               0.000000000               0.000000000               0.000000000              -0.001727252               0.007552383              -0.000924744              -0.001591764               0.003048023               0.001456260               0.000000000               0.000000000               0.000000000               0.000000000              -0.001369114               0.007182727              -0.000777345              -0.001411255               0.002864637               0.001453382               0.000000000               0.000000000               0.000000000               0.000000000              -0.001045004               0.006826319              -0.000648804              -0.001245163               0.002690471               0.001445308               0.000000000               0.000000000               0.000000000               0.000000000              -0.000764547               0.006489328              -0.000536866              -0.001097869               0.002529044               0.001431175               0.000000000               0.000000000               0.000000000               0.000000000              -0.000527040               0.006174407              -0.000433970              -0.000969439               0.002381261               0.001411823               0.000000000               0.000000000               0.000000000               0.000000000              -0.000331152               0.005879698              -0.000331395              -0.000859142               0.002246260               0.001387118               0.000000000               0.000000000               0.000000000               0.000000000              -0.000187068               0.005609826              -0.000235285              -0.000771377               0.002127049               0.001355672               0.000000000               0.000000000               0.000000000               0.000000000              -0.000105641               0.005380743              -0.000151541              -0.000712207               0.002030965               0.001318759               0.000000000               0.000000000               0.000000000               0.000000000              -0.000082599               0.005207483              -0.000079390              -0.000681908               0.001963113               0.001281205               0.000000000               0.000000000               0.000000000               0.000000000              -0.000103418               0.005085595              -0.000028724              -0.000674479               0.001920008               0.001245529               0.000000000               0.000000000               0.000000000               0.000000000              -0.000129356               0.005025578              -0.000007050              -0.000676704               0.001900744               0.001224040               0.000000000               0.000000000               0.000000000               0.000000000              -0.002214107               0.002972924              -0.001028465              -0.001201903               0.001391599               0.000189695               0.000000000               0.000000000               0.000000000               0.000000000              -0.002541604               0.004819605              -0.001747107              -0.001555549               0.002125035               0.000569486               0.000000000               0.000000000               0.000000000               0.000000000              -0.003087538               0.006695677              -0.002208622              -0.001994782               0.002896797               0.000902015               0.000000000               0.000000000               0.000000000               0.000000000              -0.002926345               0.007356538              -0.002048559              -0.002016942               0.003124468               0.001107526               0.000000000               0.000000000               0.000000000               0.000000000              -0.002574937               0.007516011              -0.001787768              -0.001905099               0.003140345               0.001235246               0.000000000               0.000000000               0.000000000               0.000000000              -0.002193176               0.007435978              -0.001542521              -0.001751934               0.003062612               0.001310678               0.000000000               0.000000000               0.000000000               0.000000000              -0.001825003               0.007244359              -0.001331226              -0.001589917               0.002944734               0.001354817               0.000000000               0.000000000               0.000000000               0.000000000              -0.001465547               0.007005233              -0.001148202              -0.001425231               0.002810131               0.001384900               0.000000000               0.000000000               0.000000000               0.000000000              -0.001129147               0.006741778              -0.000991840              -0.001266150               0.002669287               0.001403137               0.000000000               0.000000000               0.000000000               0.000000000              -0.000829186               0.006470390              -0.000855079              -0.001119741               0.002530022               0.001410281               0.000000000               0.000000000               0.000000000               0.000000000              -0.000573348               0.006206675              -0.000725848              -0.000990838               0.002399150               0.001408313               0.000000000               0.000000000               0.000000000               0.000000000              -0.000361609               0.005950925              -0.000592557              -0.000879467               0.002276777               0.001397311               0.000000000               0.000000000               0.000000000               0.000000000              -0.000193057               0.005706355              -0.000454365              -0.000785689               0.002163996               0.001378307               0.000000000               0.000000000               0.000000000               0.000000000              -0.000085039               0.005475835              -0.000315520              -0.000716367               0.002064049               0.001347682               0.000000000               0.000000000               0.000000000               0.000000000              -0.000043609               0.005277612              -0.000186412              -0.000676053               0.001984537               0.001308484               0.000000000               0.000000000               0.000000000               0.000000000              -0.000068485               0.005118991              -0.000079847              -0.000665554               0.001928165               0.001262610               0.000000000               0.000000000               0.000000000               0.000000000              -0.000114477               0.005037722              -0.000027685              -0.000672643               0.001903438               0.001230795               0.000000000               0.000000000               0.000000000               0.000000000              -0.003865471               0.001511992              -0.000273909              -0.001638548               0.001050173              -0.000588375               0.000000000               0.000000000               0.000000000               0.000000000              -0.003316310               0.003367093              -0.001446870              -0.001664500               0.001677185               0.000012686               0.000000000               0.000000000               0.000000000               0.000000000              -0.003243464               0.005208829              -0.002350639              -0.001867399               0.002358724               0.000491326               0.000000000               0.000000000               0.000000000               0.000000000              -0.002914715               0.006110442              -0.002367916              -0.001856820               0.002655733               0.000798913               0.000000000               0.000000000               0.000000000               0.000000000              -0.002528600               0.006525368              -0.002159783              -0.001763892               0.002763064               0.000999172               0.000000000               0.000000000               0.000000000               0.000000000              -0.002146147               0.006677484              -0.001909677              -0.001639487               0.002772301               0.001132814               0.000000000               0.000000000               0.000000000               0.000000000              -0.001785902               0.006680726              -0.001678765              -0.001504801               0.002728486               0.001223685               0.000000000               0.000000000               0.000000000               0.000000000              -0.001437517               0.006597289              -0.001477245              -0.001363727               0.002653650               0.001289923               0.000000000               0.000000000               0.000000000               0.000000000              -0.001101427               0.006458371              -0.001303370              -0.001220329               0.002559545               0.001339216               0.000000000               0.000000000               0.000000000               0.000000000              -0.000790305               0.006286837              -0.001149191              -0.001082217               0.002456330               0.001374113               0.000000000               0.000000000               0.000000000               0.000000000              -0.000517305               0.006100457              -0.001000935              -0.000956544               0.002352313               0.001395769               0.000000000               0.000000000               0.000000000               0.000000000              -0.000285867               0.005907779              -0.000851254              -0.000845671               0.002251130               0.001405460               0.000000000               0.000000000               0.000000000               0.000000000              -0.000094171               0.005710552              -0.000691986              -0.000749132               0.002153209               0.001404077               0.000000000               0.000000000               0.000000000               0.000000000               0.000050570               0.005508135              -0.000519962              -0.000669552               0.002059211               0.001389659               0.000000000               0.000000000               0.000000000               0.000000000               0.000132372               0.005314381              -0.000340693              -0.000614657               0.001976328               0.001361671               0.000000000               0.000000000               0.000000000               0.000000000               0.000131641               0.005143953              -0.000164873              -0.000593627               0.001912510               0.001318882               0.000000000               0.000000000               0.000000000               0.000000000               0.000088965               0.005055643              -0.000073576              -0.000598592               0.001884728               0.001286136               0.000000000               0.000000000               0.000000000               0.000000000              -0.005621522               0.000432426               0.000311605              -0.002162122               0.000864844              -0.001297278               0.000000000               0.000000000               0.000000000               0.000000000              -0.004162374               0.002074928              -0.001091570              -0.001820253               0.001298385              -0.000521869               0.000000000               0.000000000               0.000000000               0.000000000              -0.003370080               0.003681367              -0.002262418              -0.001723948               0.001801758               0.000077810               0.000000000               0.000000000               0.000000000               0.000000000              -0.002803816               0.004703956              -0.002442941              -0.001639423               0.002114443               0.000475020               0.000000000               0.000000000               0.000000000               0.000000000              -0.002349140               0.005322915              -0.002316088              -0.001546289               0.002289716               0.000743427               0.000000000               0.000000000               0.000000000               0.000000000              -0.001956155               0.005685686              -0.002099160              -0.001444266               0.002376631               0.000932365               0.000000000               0.000000000               0.000000000               0.000000000              -0.001603233               0.005881255              -0.001877445              -0.001336367               0.002405854               0.001069487               0.000000000               0.000000000               0.000000000               0.000000000              -0.001273893               0.005964092              -0.001678733              -0.001223219               0.002395750               0.001172531               0.000000000               0.000000000               0.000000000               0.000000000              -0.000952336               0.005970120              -0.001503824              -0.001103389               0.002357816               0.001254427               0.000000000               0.000000000               0.000000000               0.000000000              -0.000643317               0.005922852              -0.001343138              -0.000981598               0.002301463               0.001319865               0.000000000               0.000000000               0.000000000               0.000000000              -0.000357103               0.005837033              -0.001188122              -0.000863541               0.002233505               0.001369964               0.000000000               0.000000000               0.000000000               0.000000000              -0.000097739               0.005729944              -0.001034966              -0.000752894               0.002160927               0.001408033               0.000000000               0.000000000               0.000000000               0.000000000               0.000131396               0.005603759              -0.000873952              -0.000651195               0.002084966               0.001433771               0.000000000               0.000000000               0.000000000               0.000000000               0.000326749               0.005457074              -0.000694612              -0.000559602               0.002005541               0.001445938               0.000000000               0.000000000               0.000000000               0.000000000               0.000473411               0.005298889              -0.000485957              -0.000484831               0.001927889               0.001443058               0.000000000               0.000000000               0.000000000               0.000000000               0.000545148               0.005145507              -0.000250879              -0.000438757               0.001861404               0.001422647               0.000000000               0.000000000               0.000000000               0.000000000               0.000550971               0.005068980              -0.000126941              -0.000427007               0.001831979               0.001404972               0.000000000               0.000000000               0.000000000               0.000000000              -0.007311285              -0.000272934               0.000632269              -0.002707613               0.000811554              -0.001896059               0.000000000               0.000000000               0.000000000               0.000000000              -0.005007571               0.001023589              -0.000736118              -0.002005786               0.001009784              -0.000996001               0.000000000               0.000000000               0.000000000               0.000000000              -0.003478662               0.002268257              -0.001936486              -0.001588028               0.001285419              -0.000302609               0.000000000               0.000000000               0.000000000               0.000000000              -0.002633838               0.003298876              -0.002216488              -0.001400046               0.001566295               0.000166249               0.000000000               0.000000000               0.000000000               0.000000000              -0.002083863               0.004045705              -0.002172539              -0.001287160               0.001777607               0.000490447               0.000000000               0.000000000               0.000000000               0.000000000              -0.001667122               0.004569285              -0.002015443              -0.001196329               0.001921855               0.000725526               0.000000000               0.000000000               0.000000000               0.000000000              -0.001314468               0.004933530              -0.001833080              -0.001109615               0.002014365               0.000904750               0.000000000               0.000000000               0.000000000               0.000000000              -0.000997969               0.005178477              -0.001661162              -0.001021546               0.002066657               0.001045110               0.000000000               0.000000000               0.000000000               0.000000000              -0.000698296               0.005330332              -0.001504863              -0.000928151               0.002086143               0.001157992               0.000000000               0.000000000               0.000000000               0.000000000              -0.000406484               0.005415414              -0.001355606              -0.000829357               0.002081572               0.001252215               0.000000000               0.000000000               0.000000000               0.000000000              -0.000118046               0.005448784              -0.001211214              -0.000725364               0.002058031               0.001332667               0.000000000               0.000000000               0.000000000               0.000000000               0.000165576               0.005442053              -0.001071363              -0.000618165               0.002020054               0.001401890               0.000000000               0.000000000               0.000000000               0.000000000               0.000441465               0.005401784              -0.000926911              -0.000509673               0.001970467               0.001460795               0.000000000               0.000000000               0.000000000               0.000000000               0.000703886               0.005333479              -0.000761572              -0.000402727               0.001912051               0.001509324               0.000000000               0.000000000               0.000000000               0.000000000               0.000944072               0.005238249              -0.000555202              -0.000300754               0.001846317               0.001545563               0.000000000               0.000000000               0.000000000               0.000000000               0.001148517               0.005124261              -0.000299175              -0.000209839               0.001778016               0.001568178               0.000000000               0.000000000               0.000000000               0.000000000               0.001265867               0.005075721              -0.000164187              -0.000159765               0.001745145               0.001585381               0.000000000               0.000000000               0.000000000               0.000000000              -0.008728030              -0.000665726               0.000651159              -0.003189793               0.000841350              -0.002348444               0.000000000               0.000000000               0.000000000               0.000000000              -0.005747825               0.000263011              -0.000429734              -0.002188309               0.000817101              -0.001371208               0.000000000               0.000000000               0.000000000               0.000000000              -0.003578246               0.001122266              -0.001409582              -0.001482124               0.000868123              -0.000614000               0.000000000               0.000000000               0.000000000               0.000000000              -0.002456781               0.002087341              -0.001685487              -0.001182208               0.001089841              -0.000092367               0.000000000               0.000000000               0.000000000               0.000000000              -0.001797981               0.002897629              -0.001695021              -0.001036445               0.001311348               0.000274903               0.000000000               0.000000000               0.000000000               0.000000000              -0.001348647               0.003531416              -0.001603690              -0.000947168               0.001492849               0.000545681               0.000000000               0.000000000               0.000000000               0.000000000              -0.000993918               0.004019347              -0.001481270              -0.000875136               0.001631480               0.000756344               0.000000000               0.000000000               0.000000000               0.000000000              -0.000688593               0.004389807              -0.001358077              -0.000806947               0.001732236               0.000925289               0.000000000               0.000000000               0.000000000               0.000000000              -0.000408707               0.004667081              -0.001239801              -0.000736649               0.001801228               0.001064578               0.000000000               0.000000000               0.000000000               0.000000000              -0.000133927               0.004871178              -0.001124511              -0.000659119               0.001843416               0.001184297               0.000000000               0.000000000               0.000000000               0.000000000               0.000151305               0.005014381              -0.001013258              -0.000570057               0.001861462               0.001291405               0.000000000               0.000000000               0.000000000               0.000000000               0.000452483               0.005108760              -0.000905832              -0.000468913               0.001859207               0.001390294               0.000000000               0.000000000               0.000000000               0.000000000               0.000770672               0.005160981              -0.000794150              -0.000356120               0.001839016               0.001482896               0.000000000               0.000000000               0.000000000               0.000000000               0.001103406               0.005172741              -0.000662642              -0.000232815               0.001801835               0.001569020               0.000000000               0.000000000               0.000000000               0.000000000               0.001452817               0.005146052              -0.000495626              -0.000098450               0.001748150               0.001649700               0.000000000               0.000000000               0.000000000               0.000000000               0.001824673               0.005085540              -0.000276060               0.000048559               0.001678977               0.001727536               0.000000000               0.000000000               0.000000000               0.000000000               0.002094818               0.005076604              -0.000161063               0.000150980               0.001641858               0.001792838               0.000000000               0.000000000               0.000000000               0.000000000              -0.009670908              -0.000840733               0.000405050              -0.003521497               0.000893582              -0.002627915               0.000000000               0.000000000               0.000000000               0.000000000              -0.006258977              -0.000188182              -0.000189205              -0.002323592               0.000711798              -0.001611793               0.000000000               0.000000000               0.000000000               0.000000000              -0.003658638               0.000376824              -0.000740213              -0.001419091               0.000598634              -0.000820457               0.000000000               0.000000000               0.000000000               0.000000000              -0.002331824               0.001265495              -0.000911543              -0.001032619               0.000766032              -0.000266587               0.000000000               0.000000000               0.000000000               0.000000000              -0.001577339               0.002098747              -0.000931748              -0.000853844               0.000984189               0.000130346               0.000000000               0.000000000               0.000000000               0.000000000              -0.001094658               0.002788538              -0.000892707              -0.000759063               0.001182524               0.000423461               0.000000000               0.000000000               0.000000000               0.000000000              -0.000738514               0.003351129              -0.000832561              -0.000695833               0.001348976               0.000653143               0.000000000               0.000000000               0.000000000               0.000000000              -0.000442405               0.003804033              -0.000768888              -0.000641405               0.001481800               0.000840395               0.000000000               0.000000000               0.000000000               0.000000000              -0.000173822               0.004160467              -0.000705734              -0.000585241               0.001581889               0.000996648               0.000000000               0.000000000               0.000000000               0.000000000               0.000095105               0.004443390              -0.000643716              -0.000519758               0.001654368               0.001134610               0.000000000               0.000000000               0.000000000               0.000000000               0.000379737               0.004662158              -0.000583266              -0.000440367               0.001700826               0.001260459               0.000000000               0.000000000               0.000000000               0.000000000               0.000689698               0.004826317              -0.000524389              -0.000344652               0.001723640               0.001378988               0.000000000               0.000000000               0.000000000               0.000000000               0.001032664               0.004945873              -0.000462069              -0.000230985               0.001725603               0.001494618               0.000000000               0.000000000               0.000000000               0.000000000               0.001418521               0.005023537              -0.000386517              -0.000095997               0.001706495               0.001610498               0.000000000               0.000000000               0.000000000               0.000000000               0.001859611               0.005056940              -0.000291997               0.000065236               0.001663884               0.001729120               0.000000000               0.000000000               0.000000000               0.000000000               0.002371724               0.005042787              -0.000165784               0.000259045               0.001594564               0.001853609               0.000000000               0.000000000               0.000000000               0.000000000               0.002772546               0.005067801              -0.000100450               0.000406226               0.001553842               0.001960067               0.000000000               0.000000000               0.000000000               0.000000000               0.000000000               0.000000000               0.000000000               0.000000000               0.000000000               0.000000000               0.000000000               0.000000000               0.000000000               0.000000000               0.000000000               0.000000000               0.000000000               0.000000000               0.000000000               0.000000000               0.000000000               0.000000000               0.000000000               0.000000000               0.000000000               0.000000000               0.000000000               0.000000000               0.000000000               0.000000000               0.000000000               0.000000000               0.000000000               0.000000000               0.000000000               0.000000000               0.000000000               0.000000000               0.000000000               0.000000000               0.000000000               0.000000000               0.000000000               0.000000000               0.000000000               0.000000000               0.000000000               0.000000000               0.000000000               0.000000000               0.000000000               0.000000000               0.000000000               0.000000000               0.000000000               0.000000000               0.000000000               0.000000000               0.000000000               0.000000000               0.000000000               0.000000000               0.000000000               0.000000000               0.000000000               0.000000000               0.000000000               0.000000000               0.000000000               0.000000000               0.000000000               0.000000000               0.000000000               0.000000000               0.000000000               0.000000000               0.000000000               0.000000000               0.000000000               0.000000000               0.000000000               0.000000000               0.000000000               0.000000000               0.000000000               0.000000000               0.000000000               0.000000000               0.000000000               0.000000000               0.000000000               0.000000000               0.000000000               0.000000000               0.000000000               0.000000000               0.000000000               0.000000000               0.000000000               0.000000000               0.000000000               0.000000000               0.000000000               0.000000000               0.000000000               0.000000000               0.000000000               0.000000000               0.000000000               0.000000000               0.000000000               0.000000000               0.000000000               0.000000000               0.000000000               0.000000000               0.000000000               0.000000000               0.000000000               0.000000000               0.000000000               0.000000000               0.000000000               0.000000000               0.000000000               0.000000000               0.000000000               0.000000000               0.000000000               0.000000000               0.000000000               0.000000000               0.000000000               0.000000000               0.000000000               0.000000000               0.000000000               0.000000000               0.000000000               0.000000000               0.000000000               0.000000000               0.000000000               0.000000000               0.000000000               0.000000000               0.000000000               0.000000000               0.000000000               0.000000000               0.000000000               0.000000000               0.000000000               0.000000000               0.000000000               0.000000000               0.000000000               0.000000000               0.000000000               0.000000000               0.000000000               0.000000000               0.000000000               0.000000000               0.000000000               0.000000000               0.000000000               0.000000000               0.000000000               0.000000000               0.000000000               0.000000000               0.000000000               0.000000000               0.000000000               0.000000000               0.000000000               0.000000000               0.000000000               0.000000000               0.000000000               0.000000000               0.000000000               0.000000000               0.000000000               0.000000000               0.000000000               0.000000000               0.000000000               0.000000000               0.000000000               0.000000000               0.000000000               0.000000000               0.000000000               0.000000000               0.000000000               0.000000000               0.000000000               0.000000000               0.000000000               0.000000000               0.000000000               0.000000000               0.000000000               0.000000000               0.000000000               0.000000000               0.000000000               0.000000000               0.000000000               0.000000000               0.000000000               0.000000000               0.000000000               0.000000000               0.000000000               0.000000000               0.000000000               0.000000000               0.000000000               0.000000000               0.000000000               0.000000000               0.000000000               0.000000000               0.000000000               0.000000000               0.000000000               0.000000000               0.000000000               0.000000000               0.000000000               0.000000000               0.000000000               0.000000000               0.000000000               0.000000000               0.000000000               0.000000000               0.000000000               0.000000000               0.000000000               0.000000000               0.000000000               0.000000000               0.000000000               0.000000000               0.000000000               0.000000000               0.000000000               0.000000000               0.000000000               0.000000000               0.000000000               0.000000000               0.000000000               0.000000000               0.000000000               0.000000000               0.000000000               0.000000000               0.000000000               0.000000000               0.000000000               0.000000000               0.000000000               0.000000000               0.000000000               0.000000000               0.000000000               0.000000000               0.000000000               0.000000000               0.000000000               0.000000000               0.000000000               0.000000000               0.000000000               0.000000000               0.000000000               0.000000000               0.000000000               0.000000000               0.000000000               0.000000000               0.000000000               0.000000000               0.000000000               0.000000000               0.000000000               0.000000000               0.000000000               0.000000000               0.000000000               0.000000000               0.000000000               0.000000000               0.000000000               0.000000000               0.000000000               0.000000000               0.000000000               0.000000000               0.000000000               0.000000000               0.000000000               0.000000000               0.000000000               0.000000000               0.000000000               0.000000000               0.000000000               0.000000000               0.000000000               0.000000000               0.000000000               0.000000000               0.000000000               0.000000000               0.000000000               0.000000000               0.000000000               0.000000000               0.000000000               0.000000000               0.000000000               0.000000000               0.000000000               0.000000000               0.000000000               0.000000000               0.000000000               0.000000000               0.000000000               0.000000000               0.000000000               0.000000000               0.000000000               0.000000000               0.000000000               0.000000000               0.000000000               0.000000000               0.002152376               0.021971448               0.001536886              -0.001939286               0.007970171               0.006030886               0.000000000               0.000000000               0.000000000               0.000000000               0.002040125               0.017294313               0.000772718              -0.001396739               0.006230293               0.004833554               0.000000000               0.000000000               0.000000000               0.000000000               0.002579793               0.013553497               0.000011400              -0.000726763               0.004760041               0.004033279               0.000000000               0.000000000               0.000000000               0.000000000               0.002430123               0.011455232              -0.000309932              -0.000520606               0.003991908               0.003471301               0.000000000               0.000000000               0.000000000               0.000000000               0.002091418               0.010146811              -0.000440559              -0.000484068               0.003543593               0.003059524               0.000000000               0.000000000               0.000000000               0.000000000               0.001731243               0.009253507              -0.000484507              -0.000507471               0.003253628               0.002746157               0.000000000               0.000000000               0.000000000               0.000000000               0.001402278               0.008587863              -0.000484979              -0.000547627               0.003045135               0.002497507               0.000000000               0.000000000               0.000000000               0.000000000               0.001115183               0.008043989              -0.000463887              -0.000587304               0.002877071               0.002289767               0.000000000               0.000000000               0.000000000               0.000000000               0.000868193               0.007570340              -0.000441057              -0.000620719               0.002730328               0.002109609               0.000000000               0.000000000               0.000000000               0.000000000               0.000653231               0.007140333              -0.000422069              -0.000647579               0.002595947               0.001948368               0.000000000               0.000000000               0.000000000               0.000000000               0.000470558               0.006735458              -0.000399935              -0.000665472               0.002466954               0.001801482               0.000000000               0.000000000               0.000000000               0.000000000               0.000319963               0.006340817              -0.000372468              -0.000672614               0.002337789               0.001665175               0.000000000               0.000000000               0.000000000               0.000000000               0.000192982               0.005940847              -0.000338764              -0.000670236               0.002203675               0.001533439               0.000000000               0.000000000               0.000000000               0.000000000               0.000093038               0.005522978              -0.000293699              -0.000655482               0.002059468               0.001403987               0.000000000               0.000000000               0.000000000               0.000000000               0.000028330               0.005076731              -0.000226614              -0.000623966               0.001900216               0.001276249               0.000000000               0.000000000               0.000000000               0.000000000               0.000001746               0.004585320              -0.000128222              -0.000572509               0.001719261               0.001146752               0.000000000               0.000000000               0.000000000               0.000000000              -0.000039792               0.004218301              -0.000077469              -0.000542208               0.001586822               0.001044614               0.000000000               0.000000000               0.000000000               0.000000000               0.002344223               0.020671465               0.002861553              -0.001704846               0.007458701               0.005753855               0.000000000               0.000000000               0.000000000               0.000000000               0.001921544               0.016456331               0.001442489              -0.001336459               0.005930875               0.004594416               0.000000000               0.000000000               0.000000000               0.000000000               0.002131343               0.013197986               0.000040679              -0.000850492               0.004682782               0.003832290               0.000000000               0.000000000               0.000000000               0.000000000               0.001865808               0.011350284              -0.000533612              -0.000719106               0.004023092               0.003303986               0.000000000               0.000000000               0.000000000               0.000000000               0.001513700               0.010175346              -0.000760573              -0.000704279               0.003626508               0.002922229               0.000000000               0.000000000               0.000000000               0.000000000               0.001182337               0.009351652              -0.000832678              -0.000725579               0.003359046               0.002633467               0.000000000               0.000000000               0.000000000               0.000000000               0.000899034               0.008718134              -0.000828710              -0.000752628               0.003156892               0.002404264               0.000000000               0.000000000               0.000000000               0.000000000               0.000668082               0.008193172              -0.000788916              -0.000773614               0.002988901               0.002215287               0.000000000               0.000000000               0.000000000               0.000000000               0.000478430               0.007729391              -0.000742371              -0.000786761               0.002838692               0.002051931               0.000000000               0.000000000               0.000000000               0.000000000               0.000325011               0.007299072              -0.000698700              -0.000790503               0.002696501               0.001905998               0.000000000               0.000000000               0.000000000               0.000000000               0.000206951               0.006892611              -0.000653889              -0.000783968               0.002558836               0.001774868               0.000000000               0.000000000               0.000000000               0.000000000               0.000115982               0.006503778              -0.000603732              -0.000769477               0.002424397               0.001654919               0.000000000               0.000000000               0.000000000               0.000000000               0.000045480               0.006124608              -0.000541511              -0.000748519               0.002291022               0.001542503               0.000000000               0.000000000               0.000000000               0.000000000              -0.000001828               0.005749433              -0.000461329              -0.000719363               0.002156246               0.001436883               0.000000000               0.000000000               0.000000000               0.000000000              -0.000024032               0.005375310              -0.000349715              -0.000680924               0.002018727               0.001337803               0.000000000               0.000000000               0.000000000               0.000000000              -0.000021092               0.005003391              -0.000194716              -0.000633332               0.001878891               0.001245559               0.000000000               0.000000000               0.000000000               0.000000000              -0.000039043               0.004749811              -0.000116410              -0.000608366               0.001786043               0.001177677               0.000000000               0.000000000               0.000000000               0.000000000               0.002542111               0.018699066               0.003813333              -0.001384091               0.006694323               0.005310232               0.000000000               0.000000000               0.000000000               0.000000000               0.001686391               0.015209213               0.001931048              -0.001268753               0.005492604               0.004223852               0.000000000               0.000000000               0.000000000               0.000000000               0.001441694               0.012678873               0.000096238              -0.001044221               0.004574322               0.003530101               0.000000000               0.000000000               0.000000000               0.000000000               0.001044998               0.011184543              -0.000614939              -0.001006191               0.004063541               0.003057350               0.000000000               0.000000000               0.000000000               0.000000000               0.000696516               0.010182838              -0.000877995              -0.001011659               0.003731465               0.002719806               0.000000000               0.000000000               0.000000000               0.000000000               0.000428771               0.009437341              -0.000950069              -0.001018876               0.003485374               0.002466498               0.000000000               0.000000000               0.000000000               0.000000000               0.000228539               0.008832218              -0.000936280              -0.001018323               0.003283484               0.002265161               0.000000000               0.000000000               0.000000000               0.000000000               0.000080795               0.008311960              -0.000884374              -0.001008695               0.003106857               0.002098162               0.000000000               0.000000000               0.000000000               0.000000000              -0.000025190               0.007846491              -0.000823264              -0.000990255               0.002945556               0.001955300               0.000000000               0.000000000               0.000000000               0.000000000              -0.000095602               0.007415143              -0.000766847              -0.000962741               0.002792603               0.001829862               0.000000000               0.000000000               0.000000000               0.000000000              -0.000137113               0.007011264              -0.000711187              -0.000927823               0.002646339               0.001718516               0.000000000               0.000000000               0.000000000               0.000000000              -0.000156755               0.006630365              -0.000648393              -0.000887577               0.002505958               0.001618382               0.000000000               0.000000000               0.000000000               0.000000000              -0.000157200               0.006270967              -0.000572483              -0.000842819               0.002371241               0.001528422               0.000000000               0.000000000               0.000000000               0.000000000              -0.000136134               0.005936743              -0.000476583              -0.000793141               0.002243275               0.001450134               0.000000000               0.000000000               0.000000000               0.000000000              -0.000099413               0.005630242              -0.000350939              -0.000741058               0.002123748               0.001382690               0.000000000               0.000000000               0.000000000               0.000000000              -0.000052332               0.005363187              -0.000190148              -0.000690021               0.002017718               0.001327697               0.000000000               0.000000000               0.000000000               0.000000000              -0.000043323               0.005203577              -0.000110937              -0.000666691               0.001956739               0.001290047               0.000000000               0.000000000               0.000000000               0.000000000               0.002621110               0.016291474               0.004307884              -0.001053519               0.005781609               0.004728090               0.000000000               0.000000000               0.000000000               0.000000000               0.001312271               0.013716345               0.002216544              -0.001222440               0.004979549               0.003757109               0.000000000               0.000000000               0.000000000               0.000000000               0.000586756               0.012057063               0.000210735              -0.001287096               0.004448013               0.003160917               0.000000000               0.000000000               0.000000000               0.000000000               0.000098424               0.010947502              -0.000518845              -0.001331526               0.004092973               0.002761447               0.000000000               0.000000000               0.000000000               0.000000000              -0.000200316               0.010113019              -0.000773183              -0.001339243               0.003817387               0.002478144               0.000000000               0.000000000               0.000000000               0.000000000              -0.000368059               0.009430372              -0.000836315              -0.001316815               0.003582364               0.002265549               0.000000000               0.000000000               0.000000000               0.000000000              -0.000453428               0.008842797              -0.000817935              -0.001275382               0.003372697               0.002097315               0.000000000               0.000000000               0.000000000               0.000000000              -0.000488163               0.008319764              -0.000767290              -0.001223029               0.003180903               0.001957874               0.000000000               0.000000000               0.000000000               0.000000000              -0.000489191               0.007847136              -0.000709541              -0.001164336               0.003003798               0.001839462               0.000000000               0.000000000               0.000000000               0.000000000              -0.000468372               0.007414278              -0.000654219              -0.001102422               0.002838875               0.001736454               0.000000000               0.000000000               0.000000000               0.000000000              -0.000435945               0.007014797              -0.000599755              -0.001040327               0.002685018               0.001644691               0.000000000               0.000000000               0.000000000               0.000000000              -0.000389294               0.006646738              -0.000538999              -0.000976825               0.002541166               0.001564341               0.000000000               0.000000000               0.000000000               0.000000000              -0.000324804               0.006310784              -0.000467103              -0.000910647               0.002407123               0.001496476               0.000000000               0.000000000               0.000000000               0.000000000              -0.000246316               0.006009215              -0.000378734              -0.000843518               0.002284224               0.001440706               0.000000000               0.000000000               0.000000000               0.000000000              -0.000159925               0.005751534              -0.000269385              -0.000778912               0.002176796               0.001397884               0.000000000               0.000000000               0.000000000               0.000000000              -0.000076870               0.005551721              -0.000140570              -0.000722789               0.002091485               0.001368696               0.000000000               0.000000000               0.000000000               0.000000000              -0.000050564               0.005445894              -0.000080486              -0.000699697               0.002048512               0.001348815               0.000000000               0.000000000               0.000000000               0.000000000               0.002453136               0.013692072               0.004355173              -0.000791585               0.004827839               0.004036254               0.000000000               0.000000000               0.000000000               0.000000000               0.000787475               0.012136917               0.002328339              -0.001221810               0.004452868               0.003231058               0.000000000               0.000000000               0.000000000               0.000000000              -0.000330879               0.011378804               0.000404191              -0.001546426               0.004308372               0.002761946               0.000000000               0.000000000               0.000000000               0.000000000              -0.000825385               0.010620701              -0.000258747              -0.001637103               0.004085899               0.002448796               0.000000000               0.000000000               0.000000000               0.000000000              -0.001020105               0.009921909              -0.000483335              -0.001622774               0.003848194               0.002225421               0.000000000               0.000000000               0.000000000               0.000000000              -0.001061732               0.009286802              -0.000543779              -0.001558996               0.003615235               0.002056239               0.000000000               0.000000000               0.000000000               0.000000000              -0.001020275               0.008710119              -0.000537840              -0.001471364               0.003393799               0.001922434               0.000000000               0.000000000               0.000000000               0.000000000              -0.000935630               0.008187354              -0.000503848              -0.001374277               0.003187183               0.001812906               0.000000000               0.000000000               0.000000000               0.000000000              -0.000832206               0.007709188              -0.000464301              -0.001275723               0.002994944               0.001719222               0.000000000               0.000000000               0.000000000               0.000000000              -0.000725896               0.007274099              -0.000429222              -0.001181470               0.002818499               0.001637029               0.000000000               0.000000000               0.000000000               0.000000000              -0.000619857               0.006881227              -0.000396178              -0.001092597               0.002657919               0.001565321               0.000000000               0.000000000               0.000000000               0.000000000              -0.000509295               0.006531601              -0.000355514              -0.001007433               0.002512990               0.001505556               0.000000000               0.000000000               0.000000000               0.000000000              -0.000394454               0.006221029              -0.000301004              -0.000925547               0.002382171               0.001456624               0.000000000               0.000000000               0.000000000               0.000000000              -0.000279005               0.005949095              -0.000235147              -0.000848262               0.002265766               0.001417504               0.000000000               0.000000000               0.000000000               0.000000000              -0.000169340               0.005727747              -0.000161000              -0.000779469               0.002169053               0.001389584               0.000000000               0.000000000               0.000000000               0.000000000              -0.000076440               0.005569913              -0.000081286              -0.000724902               0.002098253               0.001373351               0.000000000               0.000000000               0.000000000               0.000000000              -0.000044993               0.005494210              -0.000046898              -0.000703647               0.002065934               0.001362287               0.000000000               0.000000000               0.000000000               0.000000000               0.001978619               0.011114387               0.004029793              -0.000647318               0.003920530               0.003273212               0.000000000               0.000000000               0.000000000               0.000000000               0.000138849               0.010590416               0.002312913              -0.001271732               0.003954014               0.002682281               0.000000000               0.000000000               0.000000000               0.000000000              -0.001214976               0.010658948               0.000679180              -0.001787980               0.004148940               0.002360960               0.000000000               0.000000000               0.000000000               0.000000000              -0.001619437               0.010184240               0.000127336              -0.001880314               0.004021484               0.002141170               0.000000000               0.000000000               0.000000000               0.000000000              -0.001659902               0.009595576              -0.000076537              -0.001821906               0.003805795               0.001983889               0.000000000               0.000000000               0.000000000               0.000000000              -0.001554781               0.009005119              -0.000151867              -0.001708678               0.003571236               0.001862557               0.000000000               0.000000000               0.000000000               0.000000000              -0.001389016               0.008445097              -0.000174285              -0.001576514               0.003340509               0.001763995               0.000000000               0.000000000               0.000000000               0.000000000              -0.001199215               0.007925881              -0.000175093              -0.001440437               0.003122080               0.001681643               0.000000000               0.000000000               0.000000000               0.000000000              -0.001007902               0.007451552              -0.000171703              -0.001309404               0.002920294               0.001610890               0.000000000               0.000000000               0.000000000               0.000000000              -0.000828827               0.007024154              -0.000173822              -0.001188826               0.002737637               0.001548810               0.000000000               0.000000000               0.000000000               0.000000000              -0.000664635               0.006645687              -0.000176553              -0.001079946               0.002575189               0.001495243               0.000000000               0.000000000               0.000000000               0.000000000              -0.000510614               0.006313653              -0.000167536              -0.000980684               0.002431425               0.001450740               0.000000000               0.000000000               0.000000000               0.000000000              -0.000363467               0.006023935              -0.000139791              -0.000889290               0.002304388               0.001415099               0.000000000               0.000000000               0.000000000               0.000000000              -0.000231034               0.005777706              -0.000102739              -0.000808849               0.002195499               0.001386650               0.000000000               0.000000000               0.000000000               0.000000000              -0.000123827               0.005586670              -0.000066154              -0.000744767               0.002110460               0.001365693               0.000000000               0.000000000               0.000000000               0.000000000              -0.000048954               0.005460013              -0.000031753              -0.000700857               0.002053605               0.001352748               0.000000000               0.000000000               0.000000000               0.000000000              -0.000026580               0.005403464              -0.000019269              -0.000685399               0.002029603               0.001344204               0.000000000               0.000000000               0.000000000               0.000000000               0.001227257               0.008716025               0.003426920              -0.000629284               0.003115073               0.002485789               0.000000000               0.000000000               0.000000000               0.000000000              -0.000591161               0.009153409               0.002217728              -0.001365859               0.003506392               0.002140532               0.000000000               0.000000000               0.000000000               0.000000000              -0.001971393               0.009898428               0.001027508              -0.001976571               0.003958300               0.001981729               0.000000000               0.000000000               0.000000000               0.000000000              -0.002199149               0.009645904               0.000578149              -0.002030414               0.003892074               0.001861660               0.000000000               0.000000000               0.000000000               0.000000000              -0.002069555               0.009154888               0.000368196              -0.001920439               0.003691745               0.001771306               0.000000000               0.000000000               0.000000000               0.000000000              -0.001828415               0.008613462               0.000260642              -0.001762334               0.003458570               0.001696236               0.000000000               0.000000000               0.000000000               0.000000000              -0.001552611               0.008078636               0.000195888              -0.001592055               0.003223537               0.001631482               0.000000000               0.000000000               0.000000000               0.000000000              -0.001274248               0.007574848               0.000146437              -0.001424695               0.002999823               0.001575127               0.000000000               0.000000000               0.000000000               0.000000000              -0.001016619               0.007117988               0.000101585              -0.001270978               0.002796298               0.001525321               0.000000000               0.000000000               0.000000000               0.000000000              -0.000789808               0.006712936               0.000056959              -0.001135292               0.002616054               0.001480761               0.000000000               0.000000000               0.000000000               0.000000000              -0.000590073               0.006354413               0.000017213              -0.001015576               0.002456642               0.001441066               0.000000000               0.000000000               0.000000000               0.000000000              -0.000411315               0.006035197              -0.000007699              -0.000908640               0.002314592               0.001405952               0.000000000               0.000000000               0.000000000               0.000000000              -0.000259866               0.005758054              -0.000011750              -0.000817204               0.002191734               0.001374529               0.000000000               0.000000000               0.000000000               0.000000000              -0.000144594               0.005536197              -0.000004405              -0.000746245               0.002094129               0.001347884               0.000000000               0.000000000               0.000000000               0.000000000              -0.000068197               0.005377572              -0.000001056              -0.000697768               0.002025096               0.001327327               0.000000000               0.000000000               0.000000000               0.000000000              -0.000025894               0.005276062              -0.000001201              -0.000669216               0.001981742               0.001312526               0.000000000               0.000000000               0.000000000               0.000000000              -0.000016320               0.005228429              -0.000004404              -0.000659672               0.001962683               0.001303011               0.000000000               0.000000000               0.000000000               0.000000000               0.000306492               0.006667187               0.002663415              -0.000718464               0.002461861               0.001743396               0.000000000               0.000000000               0.000000000               0.000000000              -0.001302156               0.007855395               0.002095744              -0.001470230               0.003108515               0.001638285               0.000000000               0.000000000               0.000000000               0.000000000              -0.002548617               0.009137366               0.001435411              -0.002097897               0.003745057               0.001647160               0.000000000               0.000000000               0.000000000               0.000000000              -0.002585489               0.009116618               0.001052923              -0.002109130               0.003741886               0.001632755               0.000000000               0.000000000               0.000000000               0.000000000              -0.002315429               0.008750497               0.000816527              -0.001962093               0.003570834               0.001608741               0.000000000               0.000000000               0.000000000               0.000000000              -0.001970414               0.008280156               0.000662594              -0.001773920               0.003351331               0.001577411               0.000000000               0.000000000               0.000000000               0.000000000              -0.001611609               0.007789896               0.000547613              -0.001578086               0.003122635               0.001544548               0.000000000               0.000000000               0.000000000               0.000000000              -0.001267476               0.007324062               0.000446826              -0.001390808               0.002904932               0.001514124               0.000000000               0.000000000               0.000000000               0.000000000              -0.000962050               0.006900218               0.000355477              -0.001223293               0.002707814               0.001484521               0.000000000               0.000000000               0.000000000               0.000000000              -0.000701965               0.006521037               0.000274659              -0.001078364               0.002533112               0.001454748               0.000000000               0.000000000               0.000000000               0.000000000              -0.000480611               0.006173379               0.000202776              -0.000951899               0.002375072               0.001423173               0.000000000               0.000000000               0.000000000               0.000000000              -0.000295585               0.005854830               0.000141613              -0.000842696               0.002232489               0.001389793               0.000000000               0.000000000               0.000000000               0.000000000              -0.000163253               0.005576134               0.000095904              -0.000758235               0.002111438               0.001353203               0.000000000               0.000000000               0.000000000               0.000000000              -0.000084690               0.005364965               0.000064221              -0.000702378               0.002022430               0.001320052               0.000000000               0.000000000               0.000000000               0.000000000              -0.000052349               0.005223728               0.000036168              -0.000672595               0.001965424               0.001292828               0.000000000               0.000000000               0.000000000               0.000000000              -0.000051639               0.005130058               0.000013797              -0.000660620               0.001930209               0.001269589               0.000000000               0.000000000               0.000000000               0.000000000              -0.000057873               0.005083231               0.000002703              -0.000657105               0.001913428               0.001256324               0.000000000               0.000000000               0.000000000               0.000000000              -0.000791586               0.004736627               0.001847183              -0.000888922               0.001875166               0.000986244               0.000000000               0.000000000               0.000000000               0.000000000              -0.001887560               0.006345329               0.001956542              -0.001500998               0.002615421               0.001114423               0.000000000               0.000000000               0.000000000               0.000000000              -0.002869806               0.008013108               0.001867489              -0.002077811               0.003363612               0.001285802               0.000000000               0.000000000               0.000000000               0.000000000              -0.002802935               0.008338459               0.001563647              -0.002093403               0.003477259               0.001383856               0.000000000               0.000000000               0.000000000               0.000000000              -0.002475992               0.008215429               0.001298885              -0.001955421               0.003390256               0.001434835               0.000000000               0.000000000               0.000000000               0.000000000              -0.002100740               0.007915607               0.001092522              -0.001777224               0.003230917               0.001453693               0.000000000               0.000000000               0.000000000               0.000000000              -0.001727252               0.007552383               0.000924744              -0.001591764               0.003048023               0.001456260               0.000000000               0.000000000               0.000000000               0.000000000              -0.001369114               0.007182727               0.000777345              -0.001411255               0.002864637               0.001453382               0.000000000               0.000000000               0.000000000               0.000000000              -0.001045004               0.006826319               0.000648804              -0.001245163               0.002690471               0.001445308               0.000000000               0.000000000               0.000000000               0.000000000              -0.000764547               0.006489328               0.000536866              -0.001097869               0.002529044               0.001431175               0.000000000               0.000000000               0.000000000               0.000000000              -0.000527040               0.006174407               0.000433970              -0.000969439               0.002381261               0.001411823               0.000000000               0.000000000               0.000000000               0.000000000              -0.000331152               0.005879698               0.000331395              -0.000859142               0.002246260               0.001387118               0.000000000               0.000000000               0.000000000               0.000000000              -0.000187068               0.005609826               0.000235285              -0.000771377               0.002127049               0.001355672               0.000000000               0.000000000               0.000000000               0.000000000              -0.000105641               0.005380743               0.000151541              -0.000712207               0.002030965               0.001318759               0.000000000               0.000000000               0.000000000               0.000000000              -0.000082599               0.005207483               0.000079390              -0.000681908               0.001963113               0.001281205               0.000000000               0.000000000               0.000000000               0.000000000              -0.000103418               0.005085595               0.000028724              -0.000674479               0.001920008               0.001245529               0.000000000               0.000000000               0.000000000               0.000000000              -0.000129356               0.005025578               0.000007050              -0.000676704               0.001900744               0.001224040               0.000000000               0.000000000               0.000000000               0.000000000              -0.002214107               0.002972924               0.001028465              -0.001201903               0.001391599               0.000189695               0.000000000               0.000000000               0.000000000               0.000000000              -0.002541604               0.004819605               0.001747107              -0.001555549               0.002125035               0.000569486               0.000000000               0.000000000               0.000000000               0.000000000              -0.003087538               0.006695677               0.002208622              -0.001994782               0.002896797               0.000902015               0.000000000               0.000000000               0.000000000               0.000000000              -0.002926345               0.007356538               0.002048559              -0.002016942               0.003124468               0.001107526               0.000000000               0.000000000               0.000000000               0.000000000              -0.002574937               0.007516011               0.001787768              -0.001905099               0.003140345               0.001235246               0.000000000               0.000000000               0.000000000               0.000000000              -0.002193176               0.007435978               0.001542521              -0.001751934               0.003062612               0.001310678               0.000000000               0.000000000               0.000000000               0.000000000              -0.001825003               0.007244359               0.001331226              -0.001589917               0.002944734               0.001354817               0.000000000               0.000000000               0.000000000               0.000000000              -0.001465547               0.007005233               0.001148202              -0.001425231               0.002810131               0.001384900               0.000000000               0.000000000               0.000000000               0.000000000              -0.001129147               0.006741778               0.000991840              -0.001266150               0.002669287               0.001403137               0.000000000               0.000000000               0.000000000               0.000000000              -0.000829186               0.006470390               0.000855079              -0.001119741               0.002530022               0.001410281               0.000000000               0.000000000               0.000000000               0.000000000              -0.000573348               0.006206675               0.000725848              -0.000990838               0.002399150               0.001408313               0.000000000               0.000000000               0.000000000               0.000000000              -0.000361609               0.005950925               0.000592557              -0.000879467               0.002276777               0.001397311               0.000000000               0.000000000               0.000000000               0.000000000              -0.000193057               0.005706355               0.000454365              -0.000785689               0.002163996               0.001378307               0.000000000               0.000000000               0.000000000               0.000000000              -0.000085039               0.005475835               0.000315520              -0.000716367               0.002064049               0.001347682               0.000000000               0.000000000               0.000000000               0.000000000              -0.000043609               0.005277612               0.000186412              -0.000676053               0.001984537               0.001308484               0.000000000               0.000000000               0.000000000               0.000000000              -0.000068485               0.005118991               0.000079847              -0.000665554               0.001928165               0.001262610               0.000000000               0.000000000               0.000000000               0.000000000              -0.000114477               0.005037722               0.000027685              -0.000672643               0.001903438               0.001230795               0.000000000               0.000000000               0.000000000               0.000000000              -0.003865471               0.001511992               0.000273909              -0.001638548               0.001050173              -0.000588375               0.000000000               0.000000000               0.000000000               0.000000000              -0.003316310               0.003367093               0.001446870              -0.001664500               0.001677185               0.000012686               0.000000000               0.000000000               0.000000000               0.000000000              -0.003243464               0.005208829               0.002350639              -0.001867399               0.002358724               0.000491326               0.000000000               0.000000000               0.000000000               0.000000000              -0.002914715               0.006110442               0.002367916              -0.001856820               0.002655733               0.000798913               0.000000000               0.000000000               0.000000000               0.000000000              -0.002528600               0.006525368               0.002159783              -0.001763892               0.002763064               0.000999172               0.000000000               0.000000000               0.000000000               0.000000000              -0.002146147               0.006677484               0.001909677              -0.001639487               0.002772301               0.001132814               0.000000000               0.000000000               0.000000000               0.000000000              -0.001785902               0.006680726               0.001678765              -0.001504801               0.002728486               0.001223685               0.000000000               0.000000000               0.000000000               0.000000000              -0.001437517               0.006597289               0.001477245              -0.001363727               0.002653650               0.001289923               0.000000000               0.000000000               0.000000000               0.000000000              -0.001101427               0.006458371               0.001303370              -0.001220329               0.002559545               0.001339216               0.000000000               0.000000000               0.000000000               0.000000000              -0.000790305               0.006286837               0.001149191              -0.001082217               0.002456330               0.001374113               0.000000000               0.000000000               0.000000000               0.000000000              -0.000517305               0.006100457               0.001000935              -0.000956544               0.002352313               0.001395769               0.000000000               0.000000000               0.000000000               0.000000000              -0.000285867               0.005907779               0.000851254              -0.000845671               0.002251130               0.001405460               0.000000000               0.000000000               0.000000000               0.000000000              -0.000094171               0.005710552               0.000691986              -0.000749132               0.002153209               0.001404077               0.000000000               0.000000000               0.000000000               0.000000000               0.000050570               0.005508135               0.000519962              -0.000669552               0.002059211               0.001389659               0.000000000               0.000000000               0.000000000               0.000000000               0.000132372               0.005314381               0.000340693              -0.000614657               0.001976328               0.001361671               0.000000000               0.000000000               0.000000000               0.000000000               0.000131641               0.005143953               0.000164873              -0.000593627               0.001912510               0.001318882               0.000000000               0.000000000               0.000000000               0.000000000               0.000088965               0.005055643               0.000073576              -0.000598592               0.001884728               0.001286136               0.000000000               0.000000000               0.000000000               0.000000000              -0.005621522               0.000432426              -0.000311605              -0.002162122               0.000864844              -0.001297278               0.000000000               0.000000000               0.000000000               0.000000000              -0.004162374               0.002074928               0.001091570              -0.001820253               0.001298385              -0.000521869               0.000000000               0.000000000               0.000000000               0.000000000              -0.003370080               0.003681367               0.002262418              -0.001723948               0.001801758               0.000077810               0.000000000               0.000000000               0.000000000               0.000000000              -0.002803816               0.004703956               0.002442941              -0.001639423               0.002114443               0.000475020               0.000000000               0.000000000               0.000000000               0.000000000              -0.002349140               0.005322915               0.002316088              -0.001546289               0.002289716               0.000743427               0.000000000               0.000000000               0.000000000               0.000000000              -0.001956155               0.005685686               0.002099160              -0.001444266               0.002376631               0.000932365               0.000000000               0.000000000               0.000000000               0.000000000              -0.001603233               0.005881255               0.001877445              -0.001336367               0.002405854               0.001069487               0.000000000               0.000000000               0.000000000               0.000000000              -0.001273893               0.005964092               0.001678733              -0.001223219               0.002395750               0.001172531               0.000000000               0.000000000               0.000000000               0.000000000              -0.000952336               0.005970120               0.001503824              -0.001103389               0.002357816               0.001254427               0.000000000               0.000000000               0.000000000               0.000000000              -0.000643317               0.005922852               0.001343138              -0.000981598               0.002301463               0.001319865               0.000000000               0.000000000               0.000000000               0.000000000              -0.000357103               0.005837033               0.001188122              -0.000863541               0.002233505               0.001369964               0.000000000               0.000000000               0.000000000               0.000000000              -0.000097739               0.005729944               0.001034966              -0.000752894               0.002160927               0.001408033               0.000000000               0.000000000               0.000000000               0.000000000               0.000131396               0.005603759               0.000873952              -0.000651195               0.002084966               0.001433771               0.000000000               0.000000000               0.000000000               0.000000000               0.000326749               0.005457074               0.000694612              -0.000559602               0.002005541               0.001445938               0.000000000               0.000000000               0.000000000               0.000000000               0.000473411               0.005298889               0.000485957              -0.000484831               0.001927889               0.001443058               0.000000000               0.000000000               0.000000000               0.000000000               0.000545148               0.005145507               0.000250879              -0.000438757               0.001861404               0.001422647               0.000000000               0.000000000               0.000000000               0.000000000               0.000550971               0.005068980               0.000126941              -0.000427007               0.001831979               0.001404972               0.000000000               0.000000000               0.000000000               0.000000000              -0.007311285              -0.000272934              -0.000632269              -0.002707613               0.000811554              -0.001896059               0.000000000               0.000000000               0.000000000               0.000000000              -0.005007571               0.001023589               0.000736118              -0.002005786               0.001009784              -0.000996001               0.000000000               0.000000000               0.000000000               0.000000000              -0.003478662               0.002268257               0.001936486              -0.001588028               0.001285419              -0.000302609               0.000000000               0.000000000               0.000000000               0.000000000              -0.002633838               0.003298876               0.002216488              -0.001400046               0.001566295               0.000166249               0.000000000               0.000000000               0.000000000               0.000000000              -0.002083863               0.004045705               0.002172539              -0.001287160               0.001777607               0.000490447               0.000000000               0.000000000               0.000000000               0.000000000              -0.001667122               0.004569285               0.002015443              -0.001196329               0.001921855               0.000725526               0.000000000               0.000000000               0.000000000               0.000000000              -0.001314468               0.004933530               0.001833080              -0.001109615               0.002014365               0.000904750               0.000000000               0.000000000               0.000000000               0.000000000              -0.000997969               0.005178477               0.001661162              -0.001021546               0.002066657               0.001045110               0.000000000               0.000000000               0.000000000               0.000000000              -0.000698296               0.005330332               0.001504863              -0.000928151               0.002086143               0.001157992               0.000000000               0.000000000               0.000000000               0.000000000              -0.000406484               0.005415414               0.001355606              -0.000829357               0.002081572               0.001252215               0.000000000               0.000000000               0.000000000               0.000000000              -0.000118046               0.005448784               0.001211214              -0.000725364               0.002058031               0.001332667               0.000000000               0.000000000               0.000000000               0.000000000               0.000165576               0.005442053               0.001071363              -0.000618165               0.002020054               0.001401890               0.000000000               0.000000000               0.000000000               0.000000000               0.000441465               0.005401784               0.000926911              -0.000509673               0.001970467               0.001460795               0.000000000               0.000000000               0.000000000               0.000000000               0.000703886               0.005333479               0.000761572              -0.000402727               0.001912051               0.001509324               0.000000000               0.000000000               0.000000000               0.000000000               0.000944072               0.005238249               0.000555202              -0.000300754               0.001846317               0.001545563               0.000000000               0.000000000               0.000000000               0.000000000               0.001148517               0.005124261               0.000299175              -0.000209839               0.001778016               0.001568178               0.000000000               0.000000000               0.000000000               0.000000000               0.001265867               0.005075721               0.000164187              -0.000159765               0.001745145               0.001585381               0.000000000               0.000000000               0.000000000               0.000000000              -0.008728030              -0.000665726              -0.000651159              -0.003189793               0.000841350              -0.002348444               0.000000000               0.000000000               0.000000000               0.000000000              -0.005747825               0.000263011               0.000429734              -0.002188309               0.000817101              -0.001371208               0.000000000               0.000000000               0.000000000               0.000000000              -0.003578246               0.001122266               0.001409582              -0.001482124               0.000868123              -0.000614000               0.000000000               0.000000000               0.000000000               0.000000000              -0.002456781               0.002087341               0.001685487              -0.001182208               0.001089841              -0.000092367               0.000000000               0.000000000               0.000000000               0.000000000              -0.001797981               0.002897629               0.001695021              -0.001036445               0.001311348               0.000274903               0.000000000               0.000000000               0.000000000               0.000000000              -0.001348647               0.003531416               0.001603690              -0.000947168               0.001492849               0.000545681               0.000000000               0.000000000               0.000000000               0.000000000              -0.000993918               0.004019347               0.001481270              -0.000875136               0.001631480               0.000756344               0.000000000               0.000000000               0.000000000               0.000000000              -0.000688593               0.004389807               0.001358077              -0.000806947               0.001732236               0.000925289               0.000000000               0.000000000               0.000000000               0.000000000              -0.000408707               0.004667081               0.001239801              -0.000736649               0.001801228               0.001064578               0.000000000               0.000000000               0.000000000               0.000000000              -0.000133927               0.004871178               0.001124511              -0.000659119               0.001843416               0.001184297               0.000000000               0.000000000               0.000000000               0.000000000               0.000151305               0.005014381               0.001013258              -0.000570057               0.001861462               0.001291405               0.000000000               0.000000000               0.000000000               0.000000000               0.000452483               0.005108760               0.000905832              -0.000468913               0.001859207               0.001390294               0.000000000               0.000000000               0.000000000               0.000000000               0.000770672               0.005160981               0.000794150              -0.000356120               0.001839016               0.001482896               0.000000000               0.000000000               0.000000000               0.000000000               0.001103406               0.005172741               0.000662642              -0.000232815               0.001801835               0.001569020               0.000000000               0.000000000               0.000000000               0.000000000               0.001452817               0.005146052               0.000495626              -0.000098450               0.001748150               0.001649700               0.000000000               0.000000000               0.000000000               0.000000000               0.001824673               0.005085540               0.000276060               0.000048559               0.001678977               0.001727536               0.000000000               0.000000000               0.000000000               0.000000000               0.002094818               0.005076604               0.000161063               0.000150980               0.001641858               0.001792838               0.000000000               0.000000000               0.000000000               0.000000000              -0.009670908              -0.000840733              -0.000405050              -0.003521497               0.000893582              -0.002627915               0.000000000               0.000000000               0.000000000               0.000000000              -0.006258977              -0.000188182               0.000189205              -0.002323592               0.000711798              -0.001611793               0.000000000               0.000000000               0.000000000               0.000000000              -0.003658638               0.000376824               0.000740213              -0.001419091               0.000598634              -0.000820457               0.000000000               0.000000000               0.000000000               0.000000000              -0.002331824               0.001265495               0.000911543              -0.001032619               0.000766032              -0.000266587               0.000000000               0.000000000               0.000000000               0.000000000              -0.001577339               0.002098747               0.000931748              -0.000853844               0.000984189               0.000130346               0.000000000               0.000000000               0.000000000               0.000000000              -0.001094658               0.002788538               0.000892707              -0.000759063               0.001182524               0.000423461               0.000000000               0.000000000               0.000000000               0.000000000              -0.000738514               0.003351129               0.000832561              -0.000695833               0.001348976               0.000653143               0.000000000               0.000000000               0.000000000               0.000000000              -0.000442405               0.003804033               0.000768888              -0.000641405               0.001481800               0.000840395               0.000000000               0.000000000               0.000000000               0.000000000              -0.000173822               0.004160467               0.000705734              -0.000585241               0.001581889               0.000996648               0.000000000               0.000000000               0.000000000               0.000000000               0.000095105               0.004443390               0.000643716              -0.000519758               0.001654368               0.001134610               0.000000000               0.000000000               0.000000000               0.000000000               0.000379737               0.004662158               0.000583266              -0.000440367               0.001700826               0.001260459               0.000000000               0.000000000               0.000000000               0.000000000               0.000689698               0.004826317               0.000524389              -0.000344652               0.001723640               0.001378988               0.000000000               0.000000000               0.000000000               0.000000000               0.001032664               0.004945873               0.000462069              -0.000230985               0.001725603               0.001494618               0.000000000               0.000000000               0.000000000               0.000000000               0.001418521               0.005023537               0.000386517              -0.000095997               0.001706495               0.001610498               0.000000000               0.000000000               0.000000000               0.000000000               0.001859611               0.005056940               0.000291997               0.000065236               0.001663884               0.001729120               0.000000000               0.000000000               0.000000000               0.000000000               0.002371724               0.005042787               0.000165784               0.000259045               0.001594564               0.001853609               0.000000000               0.000000000               0.000000000               0.000000000               0.002772546               0.005067801               0.000100450               0.000406226               0.001553842               0.001960067               0.000000000               0.000000000               0.000000000               0.000000000               0.000000000               0.000000000               0.000000000               0.000000000               0.000000000               0.000000000               0.000000000               0.000000000               0.000000000               0.000000000               0.000000000               0.000000000               0.000000000               0.000000000               0.000000000               0.000000000               0.000000000               0.000000000               0.000000000               0.000000000               0.000000000               0.000000000               0.000000000               0.000000000               0.000000000               0.000000000               0.000000000               0.000000000               0.000000000               0.000000000               0.000000000               0.000000000               0.000000000               0.000000000               0.000000000               0.000000000               0.000000000               0.000000000               0.000000000               0.000000000               0.000000000               0.000000000               0.000000000               0.000000000               0.000000000               0.000000000               0.000000000               0.000000000               0.000000000               0.000000000               0.000000000               0.000000000               0.000000000               0.000000000               0.000000000               0.000000000               0.000000000               0.000000000               0.000000000               0.000000000               0.000000000               0.000000000               0.000000000               0.000000000               0.000000000               0.000000000               0.000000000               0.000000000               0.000000000               0.000000000               0.000000000               0.000000000               0.000000000               0.000000000               0.000000000               0.000000000               0.000000000               0.000000000               0.000000000               0.000000000               0.000000000               0.000000000               0.000000000               0.000000000               0.000000000               0.000000000               0.000000000               0.000000000               0.000000000               0.000000000               0.000000000               0.000000000               0.000000000               0.000000000               0.000000000               0.000000000               0.000000000               0.000000000               0.000000000               0.000000000               0.000000000               0.000000000               0.000000000               0.000000000               0.000000000               0.000000000               0.000000000               0.000000000               0.000000000               0.000000000               0.000000000               0.000000000               0.000000000               0.000000000               0.000000000               0.000000000               0.000000000               0.000000000               0.000000000               0.000000000               0.000000000               0.000000000               0.000000000               0.000000000               0.000000000               0.000000000               0.000000000               0.000000000               0.000000000               0.000000000               0.000000000               0.000000000               0.000000000               0.000000000               0.000000000               0.000000000               0.000000000               0.000000000               0.000000000               0.000000000               0.000000000               0.000000000               0.000000000               0.000000000               0.000000000               0.000000000               0.000000000               0.000000000               0.000000000               0.000000000               0.000000000               0.000000000               0.000000000               0.000000000               0.000000000               0.000000000               0.000000000               0.000000000               0.000000000               0.000000000               0.000000000               0.000000000               0.000000000               0.000000000               0.000000000               0.000000000               0.000000000               0.000000000               0.000000000               0.000000000 </DataArray>
</PointData>
</Piece>
</UnstructuredGrid> </VTKFile>
