<?xml version="1.0"?>
<VTKFile type="UnstructuredGrid" version="0.1">
<UnstructuredGrid>
<Piece NumberOfPoints="      1156" NumberOfCells="      1024">
<Points>
<DataArray type="Float64"                                    Name="coordinates"                                                      NumberOfComponents=" 3" format="ascii">
              0.133000000               0.000000000               0.000000000               0.155937500               0.000000000               0.000000000               0.178875000               0.000000000               0.000000000               0.201812500               0.000000000               0.000000000               0.224750000               0.000000000               0.000000000               0.247687500               0.000000000               0.000000000               0.270625000               0.000000000               0.000000000               0.293562500               0.000000000               0.000000000               0.316500000               0.000000000               0.000000000               0.339437500               0.000000000               0.000000000               0.362375000               0.000000000               0.000000000               0.385312500               0.000000000               0.000000000               0.408250000               0.000000000               0.000000000               0.431187500               0.000000000               0.000000000               0.454125000               0.000000000               0.000000000               0.477062500               0.000000000               0.000000000               0.500000000               0.000000000               0.000000000               0.132359569               0.013036280               0.000000000               0.155337096               0.016127762               0.000000000               0.178314623               0.019219245               0.000000000               0.201292150               0.022310727               0.000000000               0.224269676               0.025402210               0.000000000               0.247247203               0.028493692               0.000000000               0.270224730               0.031585175               0.000000000               0.293202257               0.034676657               0.000000000               0.316179784               0.037768140               0.000000000               0.339157311               0.040859622               0.000000000               0.362134838               0.043951105               0.000000000               0.385112365               0.047042587               0.000000000               0.408089892               0.050134070               0.000000000               0.431067419               0.053225552               0.000000000               0.454044946               0.056317035               0.000000000               0.477022473               0.059408517               0.000000000               0.500000000               0.062500000               0.000000000               0.130444442               0.025947013               0.000000000               0.153541665               0.032137825               0.000000000               0.176638887               0.038328636               0.000000000               0.199736109               0.044519448               0.000000000               0.222833332               0.050710260               0.000000000               0.245930554               0.056901071               0.000000000               0.269027776               0.063091883               0.000000000               0.292124999               0.069282695               0.000000000               0.315222221               0.075473506               0.000000000               0.338319444               0.081664318               0.000000000               0.361416666               0.087855130               0.000000000               0.384513888               0.094045942               0.000000000               0.407611111               0.100236753               0.000000000               0.430708333               0.106427565               0.000000000               0.453805555               0.112618377               0.000000000               0.476902778               0.118809188               0.000000000               0.500000000               0.125000000               0.000000000               0.127273065               0.038607862               0.000000000               0.150568498               0.047913621               0.000000000               0.173863932               0.057219379               0.000000000               0.197159365               0.066525138               0.000000000               0.220454798               0.075830897               0.000000000               0.243750232               0.085136655               0.000000000               0.267045665               0.094442414               0.000000000               0.290341099               0.103748172               0.000000000               0.313636532               0.113053931               0.000000000               0.336931966               0.122359690               0.000000000               0.360227399               0.131665448               0.000000000               0.383522833               0.140971207               0.000000000               0.406818266               0.150276966               0.000000000               0.430113700               0.159582724               0.000000000               0.453409133               0.168888483               0.000000000               0.476704567               0.178194241               0.000000000               0.500000000               0.187500000               0.000000000               0.122875978               0.050896897               0.000000000               0.146446229               0.063340840               0.000000000               0.170016481               0.075784784               0.000000000               0.193586732               0.088228728               0.000000000               0.217156983               0.100672672               0.000000000               0.240727235               0.113116616               0.000000000               0.264297486               0.125560560               0.000000000               0.287867738               0.138004504               0.000000000               0.311437989               0.150448448               0.000000000               0.335008240               0.162892392               0.000000000               0.358578492               0.175336336               0.000000000               0.382148743               0.187780280               0.000000000               0.405718994               0.200224224               0.000000000               0.429289246               0.212668168               0.000000000               0.452859497               0.225112112               0.000000000               0.476429749               0.237556056               0.000000000               0.500000000               0.250000000               0.000000000               0.117295528               0.062695766               0.000000000               0.141214558               0.078308531               0.000000000               0.165133587               0.093921295               0.000000000               0.189052617               0.109534060               0.000000000               0.212971646               0.125146824               0.000000000               0.236890676               0.140759589               0.000000000               0.260809705               0.156372354               0.000000000               0.284728735               0.171985118               0.000000000               0.308647764               0.187597883               0.000000000               0.332566794               0.203210648               0.000000000               0.356485823               0.218823412               0.000000000               0.380404853               0.234436177               0.000000000               0.404323882               0.250048941               0.000000000               0.428242912               0.265661706               0.000000000               0.452161941               0.281274471               0.000000000               0.476080971               0.296887235               0.000000000               0.500000000               0.312500000               0.000000000               0.110585458               0.073890841               0.000000000               0.134923867               0.092710163               0.000000000               0.159262276               0.111529486               0.000000000               0.183600685               0.130348808               0.000000000               0.207939094               0.149168131               0.000000000               0.232277503               0.167987453               0.000000000               0.256615912               0.186806776               0.000000000               0.280954320               0.205626098               0.000000000               0.305292729               0.224445420               0.000000000               0.329631138               0.243264743               0.000000000               0.353969547               0.262084065               0.000000000               0.378307956               0.280903388               0.000000000               0.402646365               0.299722710               0.000000000               0.426984773               0.318542033               0.000000000               0.451323182               0.337361355               0.000000000               0.475661591               0.356180678               0.000000000               0.500000000               0.375000000               0.000000000               0.102810390               0.084374307               0.000000000               0.127634741               0.106444663               0.000000000               0.152459092               0.128515018               0.000000000               0.177283442               0.150585374               0.000000000               0.202107793               0.172655730               0.000000000               0.226932143               0.194726086               0.000000000               0.251756494               0.216796442               0.000000000               0.276580845               0.238866798               0.000000000               0.301405195               0.260937153               0.000000000               0.326229546               0.283007509               0.000000000               0.351053896               0.305077865               0.000000000               0.375878247               0.327148221               0.000000000               0.400702598               0.349218577               0.000000000               0.425526948               0.371288933               0.000000000               0.450351299               0.393359288               0.000000000               0.475175649               0.415429644               0.000000000               0.500000000               0.437500000               0.000000000               0.094045202               0.094045202               0.000000000               0.119417377               0.119417377               0.000000000               0.144789552               0.144789552               0.000000000               0.170161727               0.170161727               0.000000000               0.195533901               0.195533901               0.000000000               0.220906076               0.220906076               0.000000000               0.246278251               0.246278251               0.000000000               0.271650426               0.271650426               0.000000000               0.297022601               0.297022601               0.000000000               0.322394776               0.322394776               0.000000000               0.347766951               0.347766951               0.000000000               0.373139126               0.373139126               0.000000000               0.398511300               0.398511300               0.000000000               0.423883475               0.423883475               0.000000000               0.449255650               0.449255650               0.000000000               0.474627825               0.474627825               0.000000000               0.500000000               0.500000000               0.000000000               0.084374307               0.102810390               0.000000000               0.106444663               0.127634741               0.000000000               0.128515018               0.152459092               0.000000000               0.150585374               0.177283442               0.000000000               0.172655730               0.202107793               0.000000000               0.194726086               0.226932143               0.000000000               0.216796442               0.251756494               0.000000000               0.238866798               0.276580845               0.000000000               0.260937153               0.301405195               0.000000000               0.283007509               0.326229546               0.000000000               0.305077865               0.351053896               0.000000000               0.327148221               0.375878247               0.000000000               0.349218577               0.400702598               0.000000000               0.371288933               0.425526948               0.000000000               0.393359288               0.450351299               0.000000000               0.415429644               0.475175649               0.000000000               0.437500000               0.500000000               0.000000000               0.073890841               0.110585458               0.000000000               0.092710163               0.134923867               0.000000000               0.111529486               0.159262276               0.000000000               0.130348808               0.183600685               0.000000000               0.149168131               0.207939094               0.000000000               0.167987453               0.232277503               0.000000000               0.186806776               0.256615912               0.000000000               0.205626098               0.280954320               0.000000000               0.224445420               0.305292729               0.000000000               0.243264743               0.329631138               0.000000000               0.262084065               0.353969547               0.000000000               0.280903388               0.378307956               0.000000000               0.299722710               0.402646365               0.000000000               0.318542033               0.426984773               0.000000000               0.337361355               0.451323182               0.000000000               0.356180678               0.475661591               0.000000000               0.375000000               0.500000000               0.000000000               0.062695766               0.117295528               0.000000000               0.078308531               0.141214558               0.000000000               0.093921295               0.165133587               0.000000000               0.109534060               0.189052617               0.000000000               0.125146824               0.212971646               0.000000000               0.140759589               0.236890676               0.000000000               0.156372354               0.260809705               0.000000000               0.171985118               0.284728735               0.000000000               0.187597883               0.308647764               0.000000000               0.203210648               0.332566794               0.000000000               0.218823412               0.356485823               0.000000000               0.234436177               0.380404853               0.000000000               0.250048941               0.404323882               0.000000000               0.265661706               0.428242912               0.000000000               0.281274471               0.452161941               0.000000000               0.296887235               0.476080971               0.000000000               0.312500000               0.500000000               0.000000000               0.050896897               0.122875978               0.000000000               0.063340840               0.146446229               0.000000000               0.075784784               0.170016481               0.000000000               0.088228728               0.193586732               0.000000000               0.100672672               0.217156983               0.000000000               0.113116616               0.240727235               0.000000000               0.125560560               0.264297486               0.000000000               0.138004504               0.287867738               0.000000000               0.150448448               0.311437989               0.000000000               0.162892392               0.335008240               0.000000000               0.175336336               0.358578492               0.000000000               0.187780280               0.382148743               0.000000000               0.200224224               0.405718994               0.000000000               0.212668168               0.429289246               0.000000000               0.225112112               0.452859497               0.000000000               0.237556056               0.476429749               0.000000000               0.250000000               0.500000000               0.000000000               0.038607862               0.127273065               0.000000000               0.047913621               0.150568498               0.000000000               0.057219379               0.173863932               0.000000000               0.066525138               0.197159365               0.000000000               0.075830897               0.220454798               0.000000000               0.085136655               0.243750232               0.000000000               0.094442414               0.267045665               0.000000000               0.103748172               0.290341099               0.000000000               0.113053931               0.313636532               0.000000000               0.122359690               0.336931966               0.000000000               0.131665448               0.360227399               0.000000000               0.140971207               0.383522833               0.000000000               0.150276966               0.406818266               0.000000000               0.159582724               0.430113700               0.000000000               0.168888483               0.453409133               0.000000000               0.178194241               0.476704567               0.000000000               0.187500000               0.500000000               0.000000000               0.025947013               0.130444442               0.000000000               0.032137825               0.153541665               0.000000000               0.038328636               0.176638887               0.000000000               0.044519448               0.199736109               0.000000000               0.050710260               0.222833332               0.000000000               0.056901071               0.245930554               0.000000000               0.063091883               0.269027776               0.000000000               0.069282695               0.292124999               0.000000000               0.075473506               0.315222221               0.000000000               0.081664318               0.338319444               0.000000000               0.087855130               0.361416666               0.000000000               0.094045942               0.384513888               0.000000000               0.100236753               0.407611111               0.000000000               0.106427565               0.430708333               0.000000000               0.112618377               0.453805555               0.000000000               0.118809188               0.476902778               0.000000000               0.125000000               0.500000000               0.000000000               0.013036280               0.132359569               0.000000000               0.016127762               0.155337096               0.000000000               0.019219245               0.178314623               0.000000000               0.022310727               0.201292150               0.000000000               0.025402210               0.224269676               0.000000000               0.028493692               0.247247203               0.000000000               0.031585175               0.270224730               0.000000000               0.034676657               0.293202257               0.000000000               0.037768140               0.316179784               0.000000000               0.040859622               0.339157311               0.000000000               0.043951105               0.362134838               0.000000000               0.047042587               0.385112365               0.000000000               0.050134070               0.408089892               0.000000000               0.053225552               0.431067419               0.000000000               0.056317035               0.454044946               0.000000000               0.059408517               0.477022473               0.000000000               0.062500000               0.500000000               0.000000000               0.000000000               0.133000000               0.000000000               0.000000000               0.155937500               0.000000000               0.000000000               0.178875000               0.000000000               0.000000000               0.201812500               0.000000000               0.000000000               0.224750000               0.000000000               0.000000000               0.247687500               0.000000000               0.000000000               0.270625000               0.000000000               0.000000000               0.293562500               0.000000000               0.000000000               0.316500000               0.000000000               0.000000000               0.339437500               0.000000000               0.000000000               0.362375000               0.000000000               0.000000000               0.385312500               0.000000000               0.000000000               0.408250000               0.000000000               0.000000000               0.431187500               0.000000000               0.000000000               0.454125000               0.000000000               0.000000000               0.477062500               0.000000000               0.000000000               0.500000000               0.000000000               0.133000000               0.000000000               0.000000000               0.155937500               0.000000000               0.000000000               0.178875000               0.000000000               0.000000000               0.201812500               0.000000000               0.000000000               0.224750000               0.000000000               0.000000000               0.247687500               0.000000000               0.000000000               0.270625000               0.000000000               0.000000000               0.293562500               0.000000000               0.000000000               0.316500000               0.000000000               0.000000000               0.339437500               0.000000000               0.000000000               0.362375000               0.000000000               0.000000000               0.385312500               0.000000000               0.000000000               0.408250000               0.000000000               0.000000000               0.431187500               0.000000000               0.000000000               0.454125000               0.000000000               0.000000000               0.477062500               0.000000000               0.000000000               0.500000000               0.000000000               0.000000000               0.132359569              -0.013036280               0.000000000               0.155337096              -0.016127762               0.000000000               0.178314623              -0.019219245               0.000000000               0.201292150              -0.022310727               0.000000000               0.224269676              -0.025402210               0.000000000               0.247247203              -0.028493692               0.000000000               0.270224730              -0.031585175               0.000000000               0.293202257              -0.034676657               0.000000000               0.316179784              -0.037768140               0.000000000               0.339157311              -0.040859622               0.000000000               0.362134838              -0.043951105               0.000000000               0.385112365              -0.047042587               0.000000000               0.408089892              -0.050134070               0.000000000               0.431067419              -0.053225552               0.000000000               0.454044946              -0.056317035               0.000000000               0.477022473              -0.059408517               0.000000000               0.500000000              -0.062500000               0.000000000               0.130444442              -0.025947013               0.000000000               0.153541665              -0.032137825               0.000000000               0.176638887              -0.038328636               0.000000000               0.199736109              -0.044519448               0.000000000               0.222833332              -0.050710260               0.000000000               0.245930554              -0.056901071               0.000000000               0.269027776              -0.063091883               0.000000000               0.292124999              -0.069282695               0.000000000               0.315222221              -0.075473506               0.000000000               0.338319444              -0.081664318               0.000000000               0.361416666              -0.087855130               0.000000000               0.384513888              -0.094045942               0.000000000               0.407611111              -0.100236753               0.000000000               0.430708333              -0.106427565               0.000000000               0.453805555              -0.112618377               0.000000000               0.476902778              -0.118809188               0.000000000               0.500000000              -0.125000000               0.000000000               0.127273065              -0.038607862               0.000000000               0.150568498              -0.047913621               0.000000000               0.173863932              -0.057219379               0.000000000               0.197159365              -0.066525138               0.000000000               0.220454798              -0.075830897               0.000000000               0.243750232              -0.085136655               0.000000000               0.267045665              -0.094442414               0.000000000               0.290341099              -0.103748172               0.000000000               0.313636532              -0.113053931               0.000000000               0.336931966              -0.122359690               0.000000000               0.360227399              -0.131665448               0.000000000               0.383522833              -0.140971207               0.000000000               0.406818266              -0.150276966               0.000000000               0.430113700              -0.159582724               0.000000000               0.453409133              -0.168888483               0.000000000               0.476704567              -0.178194241               0.000000000               0.500000000              -0.187500000               0.000000000               0.122875978              -0.050896897               0.000000000               0.146446229              -0.063340840               0.000000000               0.170016481              -0.075784784               0.000000000               0.193586732              -0.088228728               0.000000000               0.217156983              -0.100672672               0.000000000               0.240727235              -0.113116616               0.000000000               0.264297486              -0.125560560               0.000000000               0.287867738              -0.138004504               0.000000000               0.311437989              -0.150448448               0.000000000               0.335008240              -0.162892392               0.000000000               0.358578492              -0.175336336               0.000000000               0.382148743              -0.187780280               0.000000000               0.405718994              -0.200224224               0.000000000               0.429289246              -0.212668168               0.000000000               0.452859497              -0.225112112               0.000000000               0.476429749              -0.237556056               0.000000000               0.500000000              -0.250000000               0.000000000               0.117295528              -0.062695766               0.000000000               0.141214558              -0.078308531               0.000000000               0.165133587              -0.093921295               0.000000000               0.189052617              -0.109534060               0.000000000               0.212971646              -0.125146824               0.000000000               0.236890676              -0.140759589               0.000000000               0.260809705              -0.156372354               0.000000000               0.284728735              -0.171985118               0.000000000               0.308647764              -0.187597883               0.000000000               0.332566794              -0.203210648               0.000000000               0.356485823              -0.218823412               0.000000000               0.380404853              -0.234436177               0.000000000               0.404323882              -0.250048941               0.000000000               0.428242912              -0.265661706               0.000000000               0.452161941              -0.281274471               0.000000000               0.476080971              -0.296887235               0.000000000               0.500000000              -0.312500000               0.000000000               0.110585458              -0.073890841               0.000000000               0.134923867              -0.092710163               0.000000000               0.159262276              -0.111529486               0.000000000               0.183600685              -0.130348808               0.000000000               0.207939094              -0.149168131               0.000000000               0.232277503              -0.167987453               0.000000000               0.256615912              -0.186806776               0.000000000               0.280954320              -0.205626098               0.000000000               0.305292729              -0.224445420               0.000000000               0.329631138              -0.243264743               0.000000000               0.353969547              -0.262084065               0.000000000               0.378307956              -0.280903388               0.000000000               0.402646365              -0.299722710               0.000000000               0.426984773              -0.318542033               0.000000000               0.451323182              -0.337361355               0.000000000               0.475661591              -0.356180678               0.000000000               0.500000000              -0.375000000               0.000000000               0.102810390              -0.084374307               0.000000000               0.127634741              -0.106444663               0.000000000               0.152459092              -0.128515018               0.000000000               0.177283442              -0.150585374               0.000000000               0.202107793              -0.172655730               0.000000000               0.226932143              -0.194726086               0.000000000               0.251756494              -0.216796442               0.000000000               0.276580845              -0.238866798               0.000000000               0.301405195              -0.260937153               0.000000000               0.326229546              -0.283007509               0.000000000               0.351053896              -0.305077865               0.000000000               0.375878247              -0.327148221               0.000000000               0.400702598              -0.349218577               0.000000000               0.425526948              -0.371288933               0.000000000               0.450351299              -0.393359288               0.000000000               0.475175649              -0.415429644               0.000000000               0.500000000              -0.437500000               0.000000000               0.094045202              -0.094045202               0.000000000               0.119417377              -0.119417377               0.000000000               0.144789552              -0.144789552               0.000000000               0.170161727              -0.170161727               0.000000000               0.195533901              -0.195533901               0.000000000               0.220906076              -0.220906076               0.000000000               0.246278251              -0.246278251               0.000000000               0.271650426              -0.271650426               0.000000000               0.297022601              -0.297022601               0.000000000               0.322394776              -0.322394776               0.000000000               0.347766951              -0.347766951               0.000000000               0.373139126              -0.373139126               0.000000000               0.398511300              -0.398511300               0.000000000               0.423883475              -0.423883475               0.000000000               0.449255650              -0.449255650               0.000000000               0.474627825              -0.474627825               0.000000000               0.500000000              -0.500000000               0.000000000               0.084374307              -0.102810390               0.000000000               0.106444663              -0.127634741               0.000000000               0.128515018              -0.152459092               0.000000000               0.150585374              -0.177283442               0.000000000               0.172655730              -0.202107793               0.000000000               0.194726086              -0.226932143               0.000000000               0.216796442              -0.251756494               0.000000000               0.238866798              -0.276580845               0.000000000               0.260937153              -0.301405195               0.000000000               0.283007509              -0.326229546               0.000000000               0.305077865              -0.351053896               0.000000000               0.327148221              -0.375878247               0.000000000               0.349218577              -0.400702598               0.000000000               0.371288933              -0.425526948               0.000000000               0.393359288              -0.450351299               0.000000000               0.415429644              -0.475175649               0.000000000               0.437500000              -0.500000000               0.000000000               0.073890841              -0.110585458               0.000000000               0.092710163              -0.134923867               0.000000000               0.111529486              -0.159262276               0.000000000               0.130348808              -0.183600685               0.000000000               0.149168131              -0.207939094               0.000000000               0.167987453              -0.232277503               0.000000000               0.186806776              -0.256615912               0.000000000               0.205626098              -0.280954320               0.000000000               0.224445420              -0.305292729               0.000000000               0.243264743              -0.329631138               0.000000000               0.262084065              -0.353969547               0.000000000               0.280903388              -0.378307956               0.000000000               0.299722710              -0.402646365               0.000000000               0.318542033              -0.426984773               0.000000000               0.337361355              -0.451323182               0.000000000               0.356180678              -0.475661591               0.000000000               0.375000000              -0.500000000               0.000000000               0.062695766              -0.117295528               0.000000000               0.078308531              -0.141214558               0.000000000               0.093921295              -0.165133587               0.000000000               0.109534060              -0.189052617               0.000000000               0.125146824              -0.212971646               0.000000000               0.140759589              -0.236890676               0.000000000               0.156372354              -0.260809705               0.000000000               0.171985118              -0.284728735               0.000000000               0.187597883              -0.308647764               0.000000000               0.203210648              -0.332566794               0.000000000               0.218823412              -0.356485823               0.000000000               0.234436177              -0.380404853               0.000000000               0.250048941              -0.404323882               0.000000000               0.265661706              -0.428242912               0.000000000               0.281274471              -0.452161941               0.000000000               0.296887235              -0.476080971               0.000000000               0.312500000              -0.500000000               0.000000000               0.050896897              -0.122875978               0.000000000               0.063340840              -0.146446229               0.000000000               0.075784784              -0.170016481               0.000000000               0.088228728              -0.193586732               0.000000000               0.100672672              -0.217156983               0.000000000               0.113116616              -0.240727235               0.000000000               0.125560560              -0.264297486               0.000000000               0.138004504              -0.287867738               0.000000000               0.150448448              -0.311437989               0.000000000               0.162892392              -0.335008240               0.000000000               0.175336336              -0.358578492               0.000000000               0.187780280              -0.382148743               0.000000000               0.200224224              -0.405718994               0.000000000               0.212668168              -0.429289246               0.000000000               0.225112112              -0.452859497               0.000000000               0.237556056              -0.476429749               0.000000000               0.250000000              -0.500000000               0.000000000               0.038607862              -0.127273065               0.000000000               0.047913621              -0.150568498               0.000000000               0.057219379              -0.173863932               0.000000000               0.066525138              -0.197159365               0.000000000               0.075830897              -0.220454798               0.000000000               0.085136655              -0.243750232               0.000000000               0.094442414              -0.267045665               0.000000000               0.103748172              -0.290341099               0.000000000               0.113053931              -0.313636532               0.000000000               0.122359690              -0.336931966               0.000000000               0.131665448              -0.360227399               0.000000000               0.140971207              -0.383522833               0.000000000               0.150276966              -0.406818266               0.000000000               0.159582724              -0.430113700               0.000000000               0.168888483              -0.453409133               0.000000000               0.178194241              -0.476704567               0.000000000               0.187500000              -0.500000000               0.000000000               0.025947013              -0.130444442               0.000000000               0.032137825              -0.153541665               0.000000000               0.038328636              -0.176638887               0.000000000               0.044519448              -0.199736109               0.000000000               0.050710260              -0.222833332               0.000000000               0.056901071              -0.245930554               0.000000000               0.063091883              -0.269027776               0.000000000               0.069282695              -0.292124999               0.000000000               0.075473506              -0.315222221               0.000000000               0.081664318              -0.338319444               0.000000000               0.087855130              -0.361416666               0.000000000               0.094045942              -0.384513888               0.000000000               0.100236753              -0.407611111               0.000000000               0.106427565              -0.430708333               0.000000000               0.112618377              -0.453805555               0.000000000               0.118809188              -0.476902778               0.000000000               0.125000000              -0.500000000               0.000000000               0.013036280              -0.132359569               0.000000000               0.016127762              -0.155337096               0.000000000               0.019219245              -0.178314623               0.000000000               0.022310727              -0.201292150               0.000000000               0.025402210              -0.224269676               0.000000000               0.028493692              -0.247247203               0.000000000               0.031585175              -0.270224730               0.000000000               0.034676657              -0.293202257               0.000000000               0.037768140              -0.316179784               0.000000000               0.040859622              -0.339157311               0.000000000               0.043951105              -0.362134838               0.000000000               0.047042587              -0.385112365               0.000000000               0.050134070              -0.408089892               0.000000000               0.053225552              -0.431067419               0.000000000               0.056317035              -0.454044946               0.000000000               0.059408517              -0.477022473               0.000000000               0.062500000              -0.500000000               0.000000000               0.000000000              -0.133000000               0.000000000               0.000000000              -0.155937500               0.000000000               0.000000000              -0.178875000               0.000000000               0.000000000              -0.201812500               0.000000000               0.000000000              -0.224750000               0.000000000               0.000000000              -0.247687500               0.000000000               0.000000000              -0.270625000               0.000000000               0.000000000              -0.293562500               0.000000000               0.000000000              -0.316500000               0.000000000               0.000000000              -0.339437500               0.000000000               0.000000000              -0.362375000               0.000000000               0.000000000              -0.385312500               0.000000000               0.000000000              -0.408250000               0.000000000               0.000000000              -0.431187500               0.000000000               0.000000000              -0.454125000               0.000000000               0.000000000              -0.477062500               0.000000000               0.000000000              -0.500000000               0.000000000              -0.133000000               0.000000000               0.000000000              -0.155937500               0.000000000               0.000000000              -0.178875000               0.000000000               0.000000000              -0.201812500               0.000000000               0.000000000              -0.224750000               0.000000000               0.000000000              -0.247687500               0.000000000               0.000000000              -0.270625000               0.000000000               0.000000000              -0.293562500               0.000000000               0.000000000              -0.316500000               0.000000000               0.000000000              -0.339437500               0.000000000               0.000000000              -0.362375000               0.000000000               0.000000000              -0.385312500               0.000000000               0.000000000              -0.408250000               0.000000000               0.000000000              -0.431187500               0.000000000               0.000000000              -0.454125000               0.000000000               0.000000000              -0.477062500               0.000000000               0.000000000              -0.500000000               0.000000000               0.000000000              -0.132359569              -0.013036280               0.000000000              -0.155337096              -0.016127762               0.000000000              -0.178314623              -0.019219245               0.000000000              -0.201292150              -0.022310727               0.000000000              -0.224269676              -0.025402210               0.000000000              -0.247247203              -0.028493692               0.000000000              -0.270224730              -0.031585175               0.000000000              -0.293202257              -0.034676657               0.000000000              -0.316179784              -0.037768140               0.000000000              -0.339157311              -0.040859622               0.000000000              -0.362134838              -0.043951105               0.000000000              -0.385112365              -0.047042587               0.000000000              -0.408089892              -0.050134070               0.000000000              -0.431067419              -0.053225552               0.000000000              -0.454044946              -0.056317035               0.000000000              -0.477022473              -0.059408517               0.000000000              -0.500000000              -0.062500000               0.000000000              -0.130444442              -0.025947013               0.000000000              -0.153541665              -0.032137825               0.000000000              -0.176638887              -0.038328636               0.000000000              -0.199736109              -0.044519448               0.000000000              -0.222833332              -0.050710260               0.000000000              -0.245930554              -0.056901071               0.000000000              -0.269027776              -0.063091883               0.000000000              -0.292124999              -0.069282695               0.000000000              -0.315222221              -0.075473506               0.000000000              -0.338319444              -0.081664318               0.000000000              -0.361416666              -0.087855130               0.000000000              -0.384513888              -0.094045942               0.000000000              -0.407611111              -0.100236753               0.000000000              -0.430708333              -0.106427565               0.000000000              -0.453805555              -0.112618377               0.000000000              -0.476902778              -0.118809188               0.000000000              -0.500000000              -0.125000000               0.000000000              -0.127273065              -0.038607862               0.000000000              -0.150568498              -0.047913621               0.000000000              -0.173863932              -0.057219379               0.000000000              -0.197159365              -0.066525138               0.000000000              -0.220454798              -0.075830897               0.000000000              -0.243750232              -0.085136655               0.000000000              -0.267045665              -0.094442414               0.000000000              -0.290341099              -0.103748172               0.000000000              -0.313636532              -0.113053931               0.000000000              -0.336931966              -0.122359690               0.000000000              -0.360227399              -0.131665448               0.000000000              -0.383522833              -0.140971207               0.000000000              -0.406818266              -0.150276966               0.000000000              -0.430113700              -0.159582724               0.000000000              -0.453409133              -0.168888483               0.000000000              -0.476704567              -0.178194241               0.000000000              -0.500000000              -0.187500000               0.000000000              -0.122875978              -0.050896897               0.000000000              -0.146446229              -0.063340840               0.000000000              -0.170016481              -0.075784784               0.000000000              -0.193586732              -0.088228728               0.000000000              -0.217156983              -0.100672672               0.000000000              -0.240727235              -0.113116616               0.000000000              -0.264297486              -0.125560560               0.000000000              -0.287867738              -0.138004504               0.000000000              -0.311437989              -0.150448448               0.000000000              -0.335008240              -0.162892392               0.000000000              -0.358578492              -0.175336336               0.000000000              -0.382148743              -0.187780280               0.000000000              -0.405718994              -0.200224224               0.000000000              -0.429289246              -0.212668168               0.000000000              -0.452859497              -0.225112112               0.000000000              -0.476429749              -0.237556056               0.000000000              -0.500000000              -0.250000000               0.000000000              -0.117295528              -0.062695766               0.000000000              -0.141214558              -0.078308531               0.000000000              -0.165133587              -0.093921295               0.000000000              -0.189052617              -0.109534060               0.000000000              -0.212971646              -0.125146824               0.000000000              -0.236890676              -0.140759589               0.000000000              -0.260809705              -0.156372354               0.000000000              -0.284728735              -0.171985118               0.000000000              -0.308647764              -0.187597883               0.000000000              -0.332566794              -0.203210648               0.000000000              -0.356485823              -0.218823412               0.000000000              -0.380404853              -0.234436177               0.000000000              -0.404323882              -0.250048941               0.000000000              -0.428242912              -0.265661706               0.000000000              -0.452161941              -0.281274471               0.000000000              -0.476080971              -0.296887235               0.000000000              -0.500000000              -0.312500000               0.000000000              -0.110585458              -0.073890841               0.000000000              -0.134923867              -0.092710163               0.000000000              -0.159262276              -0.111529486               0.000000000              -0.183600685              -0.130348808               0.000000000              -0.207939094              -0.149168131               0.000000000              -0.232277503              -0.167987453               0.000000000              -0.256615912              -0.186806776               0.000000000              -0.280954320              -0.205626098               0.000000000              -0.305292729              -0.224445420               0.000000000              -0.329631138              -0.243264743               0.000000000              -0.353969547              -0.262084065               0.000000000              -0.378307956              -0.280903388               0.000000000              -0.402646365              -0.299722710               0.000000000              -0.426984773              -0.318542033               0.000000000              -0.451323182              -0.337361355               0.000000000              -0.475661591              -0.356180678               0.000000000              -0.500000000              -0.375000000               0.000000000              -0.102810390              -0.084374307               0.000000000              -0.127634741              -0.106444663               0.000000000              -0.152459092              -0.128515018               0.000000000              -0.177283442              -0.150585374               0.000000000              -0.202107793              -0.172655730               0.000000000              -0.226932143              -0.194726086               0.000000000              -0.251756494              -0.216796442               0.000000000              -0.276580845              -0.238866798               0.000000000              -0.301405195              -0.260937153               0.000000000              -0.326229546              -0.283007509               0.000000000              -0.351053896              -0.305077865               0.000000000              -0.375878247              -0.327148221               0.000000000              -0.400702598              -0.349218577               0.000000000              -0.425526948              -0.371288933               0.000000000              -0.450351299              -0.393359288               0.000000000              -0.475175649              -0.415429644               0.000000000              -0.500000000              -0.437500000               0.000000000              -0.094045202              -0.094045202               0.000000000              -0.119417377              -0.119417377               0.000000000              -0.144789552              -0.144789552               0.000000000              -0.170161727              -0.170161727               0.000000000              -0.195533901              -0.195533901               0.000000000              -0.220906076              -0.220906076               0.000000000              -0.246278251              -0.246278251               0.000000000              -0.271650426              -0.271650426               0.000000000              -0.297022601              -0.297022601               0.000000000              -0.322394776              -0.322394776               0.000000000              -0.347766951              -0.347766951               0.000000000              -0.373139126              -0.373139126               0.000000000              -0.398511300              -0.398511300               0.000000000              -0.423883475              -0.423883475               0.000000000              -0.449255650              -0.449255650               0.000000000              -0.474627825              -0.474627825               0.000000000              -0.500000000              -0.500000000               0.000000000              -0.084374307              -0.102810390               0.000000000              -0.106444663              -0.127634741               0.000000000              -0.128515018              -0.152459092               0.000000000              -0.150585374              -0.177283442               0.000000000              -0.172655730              -0.202107793               0.000000000              -0.194726086              -0.226932143               0.000000000              -0.216796442              -0.251756494               0.000000000              -0.238866798              -0.276580845               0.000000000              -0.260937153              -0.301405195               0.000000000              -0.283007509              -0.326229546               0.000000000              -0.305077865              -0.351053896               0.000000000              -0.327148221              -0.375878247               0.000000000              -0.349218577              -0.400702598               0.000000000              -0.371288933              -0.425526948               0.000000000              -0.393359288              -0.450351299               0.000000000              -0.415429644              -0.475175649               0.000000000              -0.437500000              -0.500000000               0.000000000              -0.073890841              -0.110585458               0.000000000              -0.092710163              -0.134923867               0.000000000              -0.111529486              -0.159262276               0.000000000              -0.130348808              -0.183600685               0.000000000              -0.149168131              -0.207939094               0.000000000              -0.167987453              -0.232277503               0.000000000              -0.186806776              -0.256615912               0.000000000              -0.205626098              -0.280954320               0.000000000              -0.224445420              -0.305292729               0.000000000              -0.243264743              -0.329631138               0.000000000              -0.262084065              -0.353969547               0.000000000              -0.280903388              -0.378307956               0.000000000              -0.299722710              -0.402646365               0.000000000              -0.318542033              -0.426984773               0.000000000              -0.337361355              -0.451323182               0.000000000              -0.356180678              -0.475661591               0.000000000              -0.375000000              -0.500000000               0.000000000              -0.062695766              -0.117295528               0.000000000              -0.078308531              -0.141214558               0.000000000              -0.093921295              -0.165133587               0.000000000              -0.109534060              -0.189052617               0.000000000              -0.125146824              -0.212971646               0.000000000              -0.140759589              -0.236890676               0.000000000              -0.156372354              -0.260809705               0.000000000              -0.171985118              -0.284728735               0.000000000              -0.187597883              -0.308647764               0.000000000              -0.203210648              -0.332566794               0.000000000              -0.218823412              -0.356485823               0.000000000              -0.234436177              -0.380404853               0.000000000              -0.250048941              -0.404323882               0.000000000              -0.265661706              -0.428242912               0.000000000              -0.281274471              -0.452161941               0.000000000              -0.296887235              -0.476080971               0.000000000              -0.312500000              -0.500000000               0.000000000              -0.050896897              -0.122875978               0.000000000              -0.063340840              -0.146446229               0.000000000              -0.075784784              -0.170016481               0.000000000              -0.088228728              -0.193586732               0.000000000              -0.100672672              -0.217156983               0.000000000              -0.113116616              -0.240727235               0.000000000              -0.125560560              -0.264297486               0.000000000              -0.138004504              -0.287867738               0.000000000              -0.150448448              -0.311437989               0.000000000              -0.162892392              -0.335008240               0.000000000              -0.175336336              -0.358578492               0.000000000              -0.187780280              -0.382148743               0.000000000              -0.200224224              -0.405718994               0.000000000              -0.212668168              -0.429289246               0.000000000              -0.225112112              -0.452859497               0.000000000              -0.237556056              -0.476429749               0.000000000              -0.250000000              -0.500000000               0.000000000              -0.038607862              -0.127273065               0.000000000              -0.047913621              -0.150568498               0.000000000              -0.057219379              -0.173863932               0.000000000              -0.066525138              -0.197159365               0.000000000              -0.075830897              -0.220454798               0.000000000              -0.085136655              -0.243750232               0.000000000              -0.094442414              -0.267045665               0.000000000              -0.103748172              -0.290341099               0.000000000              -0.113053931              -0.313636532               0.000000000              -0.122359690              -0.336931966               0.000000000              -0.131665448              -0.360227399               0.000000000              -0.140971207              -0.383522833               0.000000000              -0.150276966              -0.406818266               0.000000000              -0.159582724              -0.430113700               0.000000000              -0.168888483              -0.453409133               0.000000000              -0.178194241              -0.476704567               0.000000000              -0.187500000              -0.500000000               0.000000000              -0.025947013              -0.130444442               0.000000000              -0.032137825              -0.153541665               0.000000000              -0.038328636              -0.176638887               0.000000000              -0.044519448              -0.199736109               0.000000000              -0.050710260              -0.222833332               0.000000000              -0.056901071              -0.245930554               0.000000000              -0.063091883              -0.269027776               0.000000000              -0.069282695              -0.292124999               0.000000000              -0.075473506              -0.315222221               0.000000000              -0.081664318              -0.338319444               0.000000000              -0.087855130              -0.361416666               0.000000000              -0.094045942              -0.384513888               0.000000000              -0.100236753              -0.407611111               0.000000000              -0.106427565              -0.430708333               0.000000000              -0.112618377              -0.453805555               0.000000000              -0.118809188              -0.476902778               0.000000000              -0.125000000              -0.500000000               0.000000000              -0.013036280              -0.132359569               0.000000000              -0.016127762              -0.155337096               0.000000000              -0.019219245              -0.178314623               0.000000000              -0.022310727              -0.201292150               0.000000000              -0.025402210              -0.224269676               0.000000000              -0.028493692              -0.247247203               0.000000000              -0.031585175              -0.270224730               0.000000000              -0.034676657              -0.293202257               0.000000000              -0.037768140              -0.316179784               0.000000000              -0.040859622              -0.339157311               0.000000000              -0.043951105              -0.362134838               0.000000000              -0.047042587              -0.385112365               0.000000000              -0.050134070              -0.408089892               0.000000000              -0.053225552              -0.431067419               0.000000000              -0.056317035              -0.454044946               0.000000000              -0.059408517              -0.477022473               0.000000000              -0.062500000              -0.500000000               0.000000000               0.000000000              -0.133000000               0.000000000               0.000000000              -0.155937500               0.000000000               0.000000000              -0.178875000               0.000000000               0.000000000              -0.201812500               0.000000000               0.000000000              -0.224750000               0.000000000               0.000000000              -0.247687500               0.000000000               0.000000000              -0.270625000               0.000000000               0.000000000              -0.293562500               0.000000000               0.000000000              -0.316500000               0.000000000               0.000000000              -0.339437500               0.000000000               0.000000000              -0.362375000               0.000000000               0.000000000              -0.385312500               0.000000000               0.000000000              -0.408250000               0.000000000               0.000000000              -0.431187500               0.000000000               0.000000000              -0.454125000               0.000000000               0.000000000              -0.477062500               0.000000000               0.000000000              -0.500000000               0.000000000              -0.133000000               0.000000000               0.000000000              -0.155937500               0.000000000               0.000000000              -0.178875000               0.000000000               0.000000000              -0.201812500               0.000000000               0.000000000              -0.224750000               0.000000000               0.000000000              -0.247687500               0.000000000               0.000000000              -0.270625000               0.000000000               0.000000000              -0.293562500               0.000000000               0.000000000              -0.316500000               0.000000000               0.000000000              -0.339437500               0.000000000               0.000000000              -0.362375000               0.000000000               0.000000000              -0.385312500               0.000000000               0.000000000              -0.408250000               0.000000000               0.000000000              -0.431187500               0.000000000               0.000000000              -0.454125000               0.000000000               0.000000000              -0.477062500               0.000000000               0.000000000              -0.500000000               0.000000000               0.000000000              -0.132359569               0.013036280               0.000000000              -0.155337096               0.016127762               0.000000000              -0.178314623               0.019219245               0.000000000              -0.201292150               0.022310727               0.000000000              -0.224269676               0.025402210               0.000000000              -0.247247203               0.028493692               0.000000000              -0.270224730               0.031585175               0.000000000              -0.293202257               0.034676657               0.000000000              -0.316179784               0.037768140               0.000000000              -0.339157311               0.040859622               0.000000000              -0.362134838               0.043951105               0.000000000              -0.385112365               0.047042587               0.000000000              -0.408089892               0.050134070               0.000000000              -0.431067419               0.053225552               0.000000000              -0.454044946               0.056317035               0.000000000              -0.477022473               0.059408517               0.000000000              -0.500000000               0.062500000               0.000000000              -0.130444442               0.025947013               0.000000000              -0.153541665               0.032137825               0.000000000              -0.176638887               0.038328636               0.000000000              -0.199736109               0.044519448               0.000000000              -0.222833332               0.050710260               0.000000000              -0.245930554               0.056901071               0.000000000              -0.269027776               0.063091883               0.000000000              -0.292124999               0.069282695               0.000000000              -0.315222221               0.075473506               0.000000000              -0.338319444               0.081664318               0.000000000              -0.361416666               0.087855130               0.000000000              -0.384513888               0.094045942               0.000000000              -0.407611111               0.100236753               0.000000000              -0.430708333               0.106427565               0.000000000              -0.453805555               0.112618377               0.000000000              -0.476902778               0.118809188               0.000000000              -0.500000000               0.125000000               0.000000000              -0.127273065               0.038607862               0.000000000              -0.150568498               0.047913621               0.000000000              -0.173863932               0.057219379               0.000000000              -0.197159365               0.066525138               0.000000000              -0.220454798               0.075830897               0.000000000              -0.243750232               0.085136655               0.000000000              -0.267045665               0.094442414               0.000000000              -0.290341099               0.103748172               0.000000000              -0.313636532               0.113053931               0.000000000              -0.336931966               0.122359690               0.000000000              -0.360227399               0.131665448               0.000000000              -0.383522833               0.140971207               0.000000000              -0.406818266               0.150276966               0.000000000              -0.430113700               0.159582724               0.000000000              -0.453409133               0.168888483               0.000000000              -0.476704567               0.178194241               0.000000000              -0.500000000               0.187500000               0.000000000              -0.122875978               0.050896897               0.000000000              -0.146446229               0.063340840               0.000000000              -0.170016481               0.075784784               0.000000000              -0.193586732               0.088228728               0.000000000              -0.217156983               0.100672672               0.000000000              -0.240727235               0.113116616               0.000000000              -0.264297486               0.125560560               0.000000000              -0.287867738               0.138004504               0.000000000              -0.311437989               0.150448448               0.000000000              -0.335008240               0.162892392               0.000000000              -0.358578492               0.175336336               0.000000000              -0.382148743               0.187780280               0.000000000              -0.405718994               0.200224224               0.000000000              -0.429289246               0.212668168               0.000000000              -0.452859497               0.225112112               0.000000000              -0.476429749               0.237556056               0.000000000              -0.500000000               0.250000000               0.000000000              -0.117295528               0.062695766               0.000000000              -0.141214558               0.078308531               0.000000000              -0.165133587               0.093921295               0.000000000              -0.189052617               0.109534060               0.000000000              -0.212971646               0.125146824               0.000000000              -0.236890676               0.140759589               0.000000000              -0.260809705               0.156372354               0.000000000              -0.284728735               0.171985118               0.000000000              -0.308647764               0.187597883               0.000000000              -0.332566794               0.203210648               0.000000000              -0.356485823               0.218823412               0.000000000              -0.380404853               0.234436177               0.000000000              -0.404323882               0.250048941               0.000000000              -0.428242912               0.265661706               0.000000000              -0.452161941               0.281274471               0.000000000              -0.476080971               0.296887235               0.000000000              -0.500000000               0.312500000               0.000000000              -0.110585458               0.073890841               0.000000000              -0.134923867               0.092710163               0.000000000              -0.159262276               0.111529486               0.000000000              -0.183600685               0.130348808               0.000000000              -0.207939094               0.149168131               0.000000000              -0.232277503               0.167987453               0.000000000              -0.256615912               0.186806776               0.000000000              -0.280954320               0.205626098               0.000000000              -0.305292729               0.224445420               0.000000000              -0.329631138               0.243264743               0.000000000              -0.353969547               0.262084065               0.000000000              -0.378307956               0.280903388               0.000000000              -0.402646365               0.299722710               0.000000000              -0.426984773               0.318542033               0.000000000              -0.451323182               0.337361355               0.000000000              -0.475661591               0.356180678               0.000000000              -0.500000000               0.375000000               0.000000000              -0.102810390               0.084374307               0.000000000              -0.127634741               0.106444663               0.000000000              -0.152459092               0.128515018               0.000000000              -0.177283442               0.150585374               0.000000000              -0.202107793               0.172655730               0.000000000              -0.226932143               0.194726086               0.000000000              -0.251756494               0.216796442               0.000000000              -0.276580845               0.238866798               0.000000000              -0.301405195               0.260937153               0.000000000              -0.326229546               0.283007509               0.000000000              -0.351053896               0.305077865               0.000000000              -0.375878247               0.327148221               0.000000000              -0.400702598               0.349218577               0.000000000              -0.425526948               0.371288933               0.000000000              -0.450351299               0.393359288               0.000000000              -0.475175649               0.415429644               0.000000000              -0.500000000               0.437500000               0.000000000              -0.094045202               0.094045202               0.000000000              -0.119417377               0.119417377               0.000000000              -0.144789552               0.144789552               0.000000000              -0.170161727               0.170161727               0.000000000              -0.195533901               0.195533901               0.000000000              -0.220906076               0.220906076               0.000000000              -0.246278251               0.246278251               0.000000000              -0.271650426               0.271650426               0.000000000              -0.297022601               0.297022601               0.000000000              -0.322394776               0.322394776               0.000000000              -0.347766951               0.347766951               0.000000000              -0.373139126               0.373139126               0.000000000              -0.398511300               0.398511300               0.000000000              -0.423883475               0.423883475               0.000000000              -0.449255650               0.449255650               0.000000000              -0.474627825               0.474627825               0.000000000              -0.500000000               0.500000000               0.000000000              -0.084374307               0.102810390               0.000000000              -0.106444663               0.127634741               0.000000000              -0.128515018               0.152459092               0.000000000              -0.150585374               0.177283442               0.000000000              -0.172655730               0.202107793               0.000000000              -0.194726086               0.226932143               0.000000000              -0.216796442               0.251756494               0.000000000              -0.238866798               0.276580845               0.000000000              -0.260937153               0.301405195               0.000000000              -0.283007509               0.326229546               0.000000000              -0.305077865               0.351053896               0.000000000              -0.327148221               0.375878247               0.000000000              -0.349218577               0.400702598               0.000000000              -0.371288933               0.425526948               0.000000000              -0.393359288               0.450351299               0.000000000              -0.415429644               0.475175649               0.000000000              -0.437500000               0.500000000               0.000000000              -0.073890841               0.110585458               0.000000000              -0.092710163               0.134923867               0.000000000              -0.111529486               0.159262276               0.000000000              -0.130348808               0.183600685               0.000000000              -0.149168131               0.207939094               0.000000000              -0.167987453               0.232277503               0.000000000              -0.186806776               0.256615912               0.000000000              -0.205626098               0.280954320               0.000000000              -0.224445420               0.305292729               0.000000000              -0.243264743               0.329631138               0.000000000              -0.262084065               0.353969547               0.000000000              -0.280903388               0.378307956               0.000000000              -0.299722710               0.402646365               0.000000000              -0.318542033               0.426984773               0.000000000              -0.337361355               0.451323182               0.000000000              -0.356180678               0.475661591               0.000000000              -0.375000000               0.500000000               0.000000000              -0.062695766               0.117295528               0.000000000              -0.078308531               0.141214558               0.000000000              -0.093921295               0.165133587               0.000000000              -0.109534060               0.189052617               0.000000000              -0.125146824               0.212971646               0.000000000              -0.140759589               0.236890676               0.000000000              -0.156372354               0.260809705               0.000000000              -0.171985118               0.284728735               0.000000000              -0.187597883               0.308647764               0.000000000              -0.203210648               0.332566794               0.000000000              -0.218823412               0.356485823               0.000000000              -0.234436177               0.380404853               0.000000000              -0.250048941               0.404323882               0.000000000              -0.265661706               0.428242912               0.000000000              -0.281274471               0.452161941               0.000000000              -0.296887235               0.476080971               0.000000000              -0.312500000               0.500000000               0.000000000              -0.050896897               0.122875978               0.000000000              -0.063340840               0.146446229               0.000000000              -0.075784784               0.170016481               0.000000000              -0.088228728               0.193586732               0.000000000              -0.100672672               0.217156983               0.000000000              -0.113116616               0.240727235               0.000000000              -0.125560560               0.264297486               0.000000000              -0.138004504               0.287867738               0.000000000              -0.150448448               0.311437989               0.000000000              -0.162892392               0.335008240               0.000000000              -0.175336336               0.358578492               0.000000000              -0.187780280               0.382148743               0.000000000              -0.200224224               0.405718994               0.000000000              -0.212668168               0.429289246               0.000000000              -0.225112112               0.452859497               0.000000000              -0.237556056               0.476429749               0.000000000              -0.250000000               0.500000000               0.000000000              -0.038607862               0.127273065               0.000000000              -0.047913621               0.150568498               0.000000000              -0.057219379               0.173863932               0.000000000              -0.066525138               0.197159365               0.000000000              -0.075830897               0.220454798               0.000000000              -0.085136655               0.243750232               0.000000000              -0.094442414               0.267045665               0.000000000              -0.103748172               0.290341099               0.000000000              -0.113053931               0.313636532               0.000000000              -0.122359690               0.336931966               0.000000000              -0.131665448               0.360227399               0.000000000              -0.140971207               0.383522833               0.000000000              -0.150276966               0.406818266               0.000000000              -0.159582724               0.430113700               0.000000000              -0.168888483               0.453409133               0.000000000              -0.178194241               0.476704567               0.000000000              -0.187500000               0.500000000               0.000000000              -0.025947013               0.130444442               0.000000000              -0.032137825               0.153541665               0.000000000              -0.038328636               0.176638887               0.000000000              -0.044519448               0.199736109               0.000000000              -0.050710260               0.222833332               0.000000000              -0.056901071               0.245930554               0.000000000              -0.063091883               0.269027776               0.000000000              -0.069282695               0.292124999               0.000000000              -0.075473506               0.315222221               0.000000000              -0.081664318               0.338319444               0.000000000              -0.087855130               0.361416666               0.000000000              -0.094045942               0.384513888               0.000000000              -0.100236753               0.407611111               0.000000000              -0.106427565               0.430708333               0.000000000              -0.112618377               0.453805555               0.000000000              -0.118809188               0.476902778               0.000000000              -0.125000000               0.500000000               0.000000000              -0.013036280               0.132359569               0.000000000              -0.016127762               0.155337096               0.000000000              -0.019219245               0.178314623               0.000000000              -0.022310727               0.201292150               0.000000000              -0.025402210               0.224269676               0.000000000              -0.028493692               0.247247203               0.000000000              -0.031585175               0.270224730               0.000000000              -0.034676657               0.293202257               0.000000000              -0.037768140               0.316179784               0.000000000              -0.040859622               0.339157311               0.000000000              -0.043951105               0.362134838               0.000000000              -0.047042587               0.385112365               0.000000000              -0.050134070               0.408089892               0.000000000              -0.053225552               0.431067419               0.000000000              -0.056317035               0.454044946               0.000000000              -0.059408517               0.477022473               0.000000000              -0.062500000               0.500000000               0.000000000               0.000000000               0.133000000               0.000000000               0.000000000               0.155937500               0.000000000               0.000000000               0.178875000               0.000000000               0.000000000               0.201812500               0.000000000               0.000000000               0.224750000               0.000000000               0.000000000               0.247687500               0.000000000               0.000000000               0.270625000               0.000000000               0.000000000               0.293562500               0.000000000               0.000000000               0.316500000               0.000000000               0.000000000               0.339437500               0.000000000               0.000000000               0.362375000               0.000000000               0.000000000               0.385312500               0.000000000               0.000000000               0.408250000               0.000000000               0.000000000               0.431187500               0.000000000               0.000000000               0.454125000               0.000000000               0.000000000               0.477062500               0.000000000               0.000000000               0.500000000               0.000000000 </DataArray>
</Points>
<Cells>
<DataArray type="Int32"                                    Name="connectivity"                                                      NumberOfComponents=" 1" format="ascii">
         0          1         18         17          1          2         19         18          2          3         20         19          3          4         21         20          4          5         22         21          5          6         23         22          6          7         24         23          7          8         25         24          8          9         26         25          9         10         27         26         10         11         28         27         11         12         29         28         12         13         30         29         13         14         31         30         14         15         32         31         15         16         33         32         17         18         35         34         18         19         36         35         19         20         37         36         20         21         38         37         21         22         39         38         22         23         40         39         23         24         41         40         24         25         42         41         25         26         43         42         26         27         44         43         27         28         45         44         28         29         46         45         29         30         47         46         30         31         48         47         31         32         49         48         32         33         50         49         34         35         52         51         35         36         53         52         36         37         54         53         37         38         55         54         38         39         56         55         39         40         57         56         40         41         58         57         41         42         59         58         42         43         60         59         43         44         61         60         44         45         62         61         45         46         63         62         46         47         64         63         47         48         65         64         48         49         66         65         49         50         67         66         51         52         69         68         52         53         70         69         53         54         71         70         54         55         72         71         55         56         73         72         56         57         74         73         57         58         75         74         58         59         76         75         59         60         77         76         60         61         78         77         61         62         79         78         62         63         80         79         63         64         81         80         64         65         82         81         65         66         83         82         66         67         84         83         68         69         86         85         69         70         87         86         70         71         88         87         71         72         89         88         72         73         90         89         73         74         91         90         74         75         92         91         75         76         93         92         76         77         94         93         77         78         95         94         78         79         96         95         79         80         97         96         80         81         98         97         81         82         99         98         82         83        100         99         83         84        101        100         85         86        103        102         86         87        104        103         87         88        105        104         88         89        106        105         89         90        107        106         90         91        108        107         91         92        109        108         92         93        110        109         93         94        111        110         94         95        112        111         95         96        113        112         96         97        114        113         97         98        115        114         98         99        116        115         99        100        117        116        100        101        118        117        102        103        120        119        103        104        121        120        104        105        122        121        105        106        123        122        106        107        124        123        107        108        125        124        108        109        126        125        109        110        127        126        110        111        128        127        111        112        129        128        112        113        130        129        113        114        131        130        114        115        132        131        115        116        133        132        116        117        134        133        117        118        135        134        119        120        137        136        120        121        138        137        121        122        139        138        122        123        140        139        123        124        141        140        124        125        142        141        125        126        143        142        126        127        144        143        127        128        145        144        128        129        146        145        129        130        147        146        130        131        148        147        131        132        149        148        132        133        150        149        133        134        151        150        134        135        152        151        136        137        154        153        137        138        155        154        138        139        156        155        139        140        157        156        140        141        158        157        141        142        159        158        142        143        160        159        143        144        161        160        144        145        162        161        145        146        163        162        146        147        164        163        147        148        165        164        148        149        166        165        149        150        167        166        150        151        168        167        151        152        169        168        153        154        171        170        154        155        172        171        155        156        173        172        156        157        174        173        157        158        175        174        158        159        176        175        159        160        177        176        160        161        178        177        161        162        179        178        162        163        180        179        163        164        181        180        164        165        182        181        165        166        183        182        166        167        184        183        167        168        185        184        168        169        186        185        170        171        188        187        171        172        189        188        172        173        190        189        173        174        191        190        174        175        192        191        175        176        193        192        176        177        194        193        177        178        195        194        178        179        196        195        179        180        197        196        180        181        198        197        181        182        199        198        182        183        200        199        183        184        201        200        184        185        202        201        185        186        203        202        187        188        205        204        188        189        206        205        189        190        207        206        190        191        208        207        191        192        209        208        192        193        210        209        193        194        211        210        194        195        212        211        195        196        213        212        196        197        214        213        197        198        215        214        198        199        216        215        199        200        217        216        200        201        218        217        201        202        219        218        202        203        220        219        204        205        222        221        205        206        223        222        206        207        224        223        207        208        225        224        208        209        226        225        209        210        227        226        210        211        228        227        211        212        229        228        212        213        230        229        213        214        231        230        214        215        232        231        215        216        233        232        216        217        234        233        217        218        235        234        218        219        236        235        219        220        237        236        221        222        239        238        222        223        240        239        223        224        241        240        224        225        242        241        225        226        243        242        226        227        244        243        227        228        245        244        228        229        246        245        229        230        247        246        230        231        248        247        231        232        249        248        232        233        250        249        233        234        251        250        234        235        252        251        235        236        253        252        236        237        254        253        238        239        256        255        239        240        257        256        240        241        258        257        241        242        259        258        242        243        260        259        243        244        261        260        244        245        262        261        245        246        263        262        246        247        264        263        247        248        265        264        248        249        266        265        249        250        267        266        250        251        268        267        251        252        269        268        252        253        270        269        253        254        271        270        255        256        273        272        256        257        274        273        257        258        275        274        258        259        276        275        259        260        277        276        260        261        278        277        261        262        279        278        262        263        280        279        263        264        281        280        264        265        282        281        265        266        283        282        266        267        284        283        267        268        285        284        268        269        286        285        269        270        287        286        270        271        288        287        306        307          1          0        307        308          2          1        308        309          3          2        309        310          4          3        310        311          5          4        311        312          6          5        312        313          7          6        313        314          8          7        314        315          9          8        315        316         10          9        316        317         11         10        317        318         12         11        318        319         13         12        319        320         14         13        320        321         15         14        321        322         16         15        323        324        307        306        324        325        308        307        325        326        309        308        326        327        310        309        327        328        311        310        328        329        312        311        329        330        313        312        330        331        314        313        331        332        315        314        332        333        316        315        333        334        317        316        334        335        318        317        335        336        319        318        336        337        320        319        337        338        321        320        338        339        322        321        340        341        324        323        341        342        325        324        342        343        326        325        343        344        327        326        344        345        328        327        345        346        329        328        346        347        330        329        347        348        331        330        348        349        332        331        349        350        333        332        350        351        334        333        351        352        335        334        352        353        336        335        353        354        337        336        354        355        338        337        355        356        339        338        357        358        341        340        358        359        342        341        359        360        343        342        360        361        344        343        361        362        345        344        362        363        346        345        363        364        347        346        364        365        348        347        365        366        349        348        366        367        350        349        367        368        351        350        368        369        352        351        369        370        353        352        370        371        354        353        371        372        355        354        372        373        356        355        374        375        358        357        375        376        359        358        376        377        360        359        377        378        361        360        378        379        362        361        379        380        363        362        380        381        364        363        381        382        365        364        382        383        366        365        383        384        367        366        384        385        368        367        385        386        369        368        386        387        370        369        387        388        371        370        388        389        372        371        389        390        373        372        391        392        375        374        392        393        376        375        393        394        377        376        394        395        378        377        395        396        379        378        396        397        380        379        397        398        381        380        398        399        382        381        399        400        383        382        400        401        384        383        401        402        385        384        402        403        386        385        403        404        387        386        404        405        388        387        405        406        389        388        406        407        390        389        408        409        392        391        409        410        393        392        410        411        394        393        411        412        395        394        412        413        396        395        413        414        397        396        414        415        398        397        415        416        399        398        416        417        400        399        417        418        401        400        418        419        402        401        419        420        403        402        420        421        404        403        421        422        405        404        422        423        406        405        423        424        407        406        425        426        409        408        426        427        410        409        427        428        411        410        428        429        412        411        429        430        413        412        430        431        414        413        431        432        415        414        432        433        416        415        433        434        417        416        434        435        418        417        435        436        419        418        436        437        420        419        437        438        421        420        438        439        422        421        439        440        423        422        440        441        424        423        442        443        426        425        443        444        427        426        444        445        428        427        445        446        429        428        446        447        430        429        447        448        431        430        448        449        432        431        449        450        433        432        450        451        434        433        451        452        435        434        452        453        436        435        453        454        437        436        454        455        438        437        455        456        439        438        456        457        440        439        457        458        441        440        459        460        443        442        460        461        444        443        461        462        445        444        462        463        446        445        463        464        447        446        464        465        448        447        465        466        449        448        466        467        450        449        467        468        451        450        468        469        452        451        469        470        453        452        470        471        454        453        471        472        455        454        472        473        456        455        473        474        457        456        474        475        458        457        476        477        460        459        477        478        461        460        478        479        462        461        479        480        463        462        480        481        464        463        481        482        465        464        482        483        466        465        483        484        467        466        484        485        468        467        485        486        469        468        486        487        470        469        487        488        471        470        488        489        472        471        489        490        473        472        490        491        474        473        491        492        475        474        493        494        477        476        494        495        478        477        495        496        479        478        496        497        480        479        497        498        481        480        498        499        482        481        499        500        483        482        500        501        484        483        501        502        485        484        502        503        486        485        503        504        487        486        504        505        488        487        505        506        489        488        506        507        490        489        507        508        491        490        508        509        492        491        510        511        494        493        511        512        495        494        512        513        496        495        513        514        497        496        514        515        498        497        515        516        499        498        516        517        500        499        517        518        501        500        518        519        502        501        519        520        503        502        520        521        504        503        521        522        505        504        522        523        506        505        523        524        507        506        524        525        508        507        525        526        509        508        527        528        511        510        528        529        512        511        529        530        513        512        530        531        514        513        531        532        515        514        532        533        516        515        533        534        517        516        534        535        518        517        535        536        519        518        536        537        520        519        537        538        521        520        538        539        522        521        539        540        523        522        540        541        524        523        541        542        525        524        542        543        526        525        544        545        528        527        545        546        529        528        546        547        530        529        547        548        531        530        548        549        532        531        549        550        533        532        550        551        534        533        551        552        535        534        552        553        536        535        553        554        537        536        554        555        538        537        555        556        539        538        556        557        540        539        557        558        541        540        558        559        542        541        559        560        543        542        561        562        545        544        562        563        546        545        563        564        547        546        564        565        548        547        565        566        549        548        566        567        550        549        567        568        551        550        568        569        552        551        569        570        553        552        570        571        554        553        571        572        555        554        572        573        556        555        573        574        557        556        574        575        558        557        575        576        559        558        576        577        560        559        578        579        596        595        579        580        597        596        580        581        598        597        581        582        599        598        582        583        600        599        583        584        601        600        584        585        602        601        585        586        603        602        586        587        604        603        587        588        605        604        588        589        606        605        589        590        607        606        590        591        608        607        591        592        609        608        592        593        610        609        593        594        611        610        595        596        613        612        596        597        614        613        597        598        615        614        598        599        616        615        599        600        617        616        600        601        618        617        601        602        619        618        602        603        620        619        603        604        621        620        604        605        622        621        605        606        623        622        606        607        624        623        607        608        625        624        608        609        626        625        609        610        627        626        610        611        628        627        612        613        630        629        613        614        631        630        614        615        632        631        615        616        633        632        616        617        634        633        617        618        635        634        618        619        636        635        619        620        637        636        620        621        638        637        621        622        639        638        622        623        640        639        623        624        641        640        624        625        642        641        625        626        643        642        626        627        644        643        627        628        645        644        629        630        647        646        630        631        648        647        631        632        649        648        632        633        650        649        633        634        651        650        634        635        652        651        635        636        653        652        636        637        654        653        637        638        655        654        638        639        656        655        639        640        657        656        640        641        658        657        641        642        659        658        642        643        660        659        643        644        661        660        644        645        662        661        646        647        664        663        647        648        665        664        648        649        666        665        649        650        667        666        650        651        668        667        651        652        669        668        652        653        670        669        653        654        671        670        654        655        672        671        655        656        673        672        656        657        674        673        657        658        675        674        658        659        676        675        659        660        677        676        660        661        678        677        661        662        679        678        663        664        681        680        664        665        682        681        665        666        683        682        666        667        684        683        667        668        685        684        668        669        686        685        669        670        687        686        670        671        688        687        671        672        689        688        672        673        690        689        673        674        691        690        674        675        692        691        675        676        693        692        676        677        694        693        677        678        695        694        678        679        696        695        680        681        698        697        681        682        699        698        682        683        700        699        683        684        701        700        684        685        702        701        685        686        703        702        686        687        704        703        687        688        705        704        688        689        706        705        689        690        707        706        690        691        708        707        691        692        709        708        692        693        710        709        693        694        711        710        694        695        712        711        695        696        713        712        697        698        715        714        698        699        716        715        699        700        717        716        700        701        718        717        701        702        719        718        702        703        720        719        703        704        721        720        704        705        722        721        705        706        723        722        706        707        724        723        707        708        725        724        708        709        726        725        709        710        727        726        710        711        728        727        711        712        729        728        712        713        730        729        714        715        732        731        715        716        733        732        716        717        734        733        717        718        735        734        718        719        736        735        719        720        737        736        720        721        738        737        721        722        739        738        722        723        740        739        723        724        741        740        724        725        742        741        725        726        743        742        726        727        744        743        727        728        745        744        728        729        746        745        729        730        747        746        731        732        749        748        732        733        750        749        733        734        751        750        734        735        752        751        735        736        753        752        736        737        754        753        737        738        755        754        738        739        756        755        739        740        757        756        740        741        758        757        741        742        759        758        742        743        760        759        743        744        761        760        744        745        762        761        745        746        763        762        746        747        764        763        748        749        766        765        749        750        767        766        750        751        768        767        751        752        769        768        752        753        770        769        753        754        771        770        754        755        772        771        755        756        773        772        756        757        774        773        757        758        775        774        758        759        776        775        759        760        777        776        760        761        778        777        761        762        779        778        762        763        780        779        763        764        781        780        765        766        783        782        766        767        784        783        767        768        785        784        768        769        786        785        769        770        787        786        770        771        788        787        771        772        789        788        772        773        790        789        773        774        791        790        774        775        792        791        775        776        793        792        776        777        794        793        777        778        795        794        778        779        796        795        779        780        797        796        780        781        798        797        782        783        800        799        783        784        801        800        784        785        802        801        785        786        803        802        786        787        804        803        787        788        805        804        788        789        806        805        789        790        807        806        790        791        808        807        791        792        809        808        792        793        810        809        793        794        811        810        794        795        812        811        795        796        813        812        796        797        814        813        797        798        815        814        799        800        817        816        800        801        818        817        801        802        819        818        802        803        820        819        803        804        821        820        804        805        822        821        805        806        823        822        806        807        824        823        807        808        825        824        808        809        826        825        809        810        827        826        810        811        828        827        811        812        829        828        812        813        830        829        813        814        831        830        814        815        832        831        816        817        834        833        817        818        835        834        818        819        836        835        819        820        837        836        820        821        838        837        821        822        839        838        822        823        840        839        823        824        841        840        824        825        842        841        825        826        843        842        826        827        844        843        827        828        845        844        828        829        846        845        829        830        847        846        830        831        848        847        831        832        849        848        833        834        562        561        834        835        563        562        835        836        564        563        836        837        565        564        837        838        566        565        838        839        567        566        839        840        568        567        840        841        569        568        841        842        570        569        842        843        571        570        843        844        572        571        844        845        573        572        845        846        574        573        846        847        575        574        847        848        576        575        848        849        577        576        884        885        579        578        885        886        580        579        886        887        581        580        887        888        582        581        888        889        583        582        889        890        584        583        890        891        585        584        891        892        586        585        892        893        587        586        893        894        588        587        894        895        589        588        895        896        590        589        896        897        591        590        897        898        592        591        898        899        593        592        899        900        594        593        901        902        885        884        902        903        886        885        903        904        887        886        904        905        888        887        905        906        889        888        906        907        890        889        907        908        891        890        908        909        892        891        909        910        893        892        910        911        894        893        911        912        895        894        912        913        896        895        913        914        897        896        914        915        898        897        915        916        899        898        916        917        900        899        918        919        902        901        919        920        903        902        920        921        904        903        921        922        905        904        922        923        906        905        923        924        907        906        924        925        908        907        925        926        909        908        926        927        910        909        927        928        911        910        928        929        912        911        929        930        913        912        930        931        914        913        931        932        915        914        932        933        916        915        933        934        917        916        935        936        919        918        936        937        920        919        937        938        921        920        938        939        922        921        939        940        923        922        940        941        924        923        941        942        925        924        942        943        926        925        943        944        927        926        944        945        928        927        945        946        929        928        946        947        930        929        947        948        931        930        948        949        932        931        949        950        933        932        950        951        934        933        952        953        936        935        953        954        937        936        954        955        938        937        955        956        939        938        956        957        940        939        957        958        941        940        958        959        942        941        959        960        943        942        960        961        944        943        961        962        945        944        962        963        946        945        963        964        947        946        964        965        948        947        965        966        949        948        966        967        950        949        967        968        951        950        969        970        953        952        970        971        954        953        971        972        955        954        972        973        956        955        973        974        957        956        974        975        958        957        975        976        959        958        976        977        960        959        977        978        961        960        978        979        962        961        979        980        963        962        980        981        964        963        981        982        965        964        982        983        966        965        983        984        967        966        984        985        968        967        986        987        970        969        987        988        971        970        988        989        972        971        989        990        973        972        990        991        974        973        991        992        975        974        992        993        976        975        993        994        977        976        994        995        978        977        995        996        979        978        996        997        980        979        997        998        981        980        998        999        982        981        999       1000        983        982       1000       1001        984        983       1001       1002        985        984       1003       1004        987        986       1004       1005        988        987       1005       1006        989        988       1006       1007        990        989       1007       1008        991        990       1008       1009        992        991       1009       1010        993        992       1010       1011        994        993       1011       1012        995        994       1012       1013        996        995       1013       1014        997        996       1014       1015        998        997       1015       1016        999        998       1016       1017       1000        999       1017       1018       1001       1000       1018       1019       1002       1001       1020       1021       1004       1003       1021       1022       1005       1004       1022       1023       1006       1005       1023       1024       1007       1006       1024       1025       1008       1007       1025       1026       1009       1008       1026       1027       1010       1009       1027       1028       1011       1010       1028       1029       1012       1011       1029       1030       1013       1012       1030       1031       1014       1013       1031       1032       1015       1014       1032       1033       1016       1015       1033       1034       1017       1016       1034       1035       1018       1017       1035       1036       1019       1018       1037       1038       1021       1020       1038       1039       1022       1021       1039       1040       1023       1022       1040       1041       1024       1023       1041       1042       1025       1024       1042       1043       1026       1025       1043       1044       1027       1026       1044       1045       1028       1027       1045       1046       1029       1028       1046       1047       1030       1029       1047       1048       1031       1030       1048       1049       1032       1031       1049       1050       1033       1032       1050       1051       1034       1033       1051       1052       1035       1034       1052       1053       1036       1035       1054       1055       1038       1037       1055       1056       1039       1038       1056       1057       1040       1039       1057       1058       1041       1040       1058       1059       1042       1041       1059       1060       1043       1042       1060       1061       1044       1043       1061       1062       1045       1044       1062       1063       1046       1045       1063       1064       1047       1046       1064       1065       1048       1047       1065       1066       1049       1048       1066       1067       1050       1049       1067       1068       1051       1050       1068       1069       1052       1051       1069       1070       1053       1052       1071       1072       1055       1054       1072       1073       1056       1055       1073       1074       1057       1056       1074       1075       1058       1057       1075       1076       1059       1058       1076       1077       1060       1059       1077       1078       1061       1060       1078       1079       1062       1061       1079       1080       1063       1062       1080       1081       1064       1063       1081       1082       1065       1064       1082       1083       1066       1065       1083       1084       1067       1066       1084       1085       1068       1067       1085       1086       1069       1068       1086       1087       1070       1069       1088       1089       1072       1071       1089       1090       1073       1072       1090       1091       1074       1073       1091       1092       1075       1074       1092       1093       1076       1075       1093       1094       1077       1076       1094       1095       1078       1077       1095       1096       1079       1078       1096       1097       1080       1079       1097       1098       1081       1080       1098       1099       1082       1081       1099       1100       1083       1082       1100       1101       1084       1083       1101       1102       1085       1084       1102       1103       1086       1085       1103       1104       1087       1086       1105       1106       1089       1088       1106       1107       1090       1089       1107       1108       1091       1090       1108       1109       1092       1091       1109       1110       1093       1092       1110       1111       1094       1093       1111       1112       1095       1094       1112       1113       1096       1095       1113       1114       1097       1096       1114       1115       1098       1097       1115       1116       1099       1098       1116       1117       1100       1099       1117       1118       1101       1100       1118       1119       1102       1101       1119       1120       1103       1102       1120       1121       1104       1103       1122       1123       1106       1105       1123       1124       1107       1106       1124       1125       1108       1107       1125       1126       1109       1108       1126       1127       1110       1109       1127       1128       1111       1110       1128       1129       1112       1111       1129       1130       1113       1112       1130       1131       1114       1113       1131       1132       1115       1114       1132       1133       1116       1115       1133       1134       1117       1116       1134       1135       1118       1117       1135       1136       1119       1118       1136       1137       1120       1119       1137       1138       1121       1120        272        273       1123       1122        273        274       1124       1123        274        275       1125       1124        275        276       1126       1125        276        277       1127       1126        277        278       1128       1127        278        279       1129       1128        279        280       1130       1129        280        281       1131       1130        281        282       1132       1131        282        283       1133       1132        283        284       1134       1133        284        285       1135       1134        285        286       1136       1135        286        287       1137       1136        287        288       1138       1137 </DataArray>
<DataArray type="Int32"                                    Name="offsets"                                                      NumberOfComponents=" 1" format="ascii">
         4          8         12         16         20         24         28         32         36         40         44         48         52         56         60         64         68         72         76         80         84         88         92         96        100        104        108        112        116        120        124        128        132        136        140        144        148        152        156        160        164        168        172        176        180        184        188        192        196        200        204        208        212        216        220        224        228        232        236        240        244        248        252        256        260        264        268        272        276        280        284        288        292        296        300        304        308        312        316        320        324        328        332        336        340        344        348        352        356        360        364        368        372        376        380        384        388        392        396        400        404        408        412        416        420        424        428        432        436        440        444        448        452        456        460        464        468        472        476        480        484        488        492        496        500        504        508        512        516        520        524        528        532        536        540        544        548        552        556        560        564        568        572        576        580        584        588        592        596        600        604        608        612        616        620        624        628        632        636        640        644        648        652        656        660        664        668        672        676        680        684        688        692        696        700        704        708        712        716        720        724        728        732        736        740        744        748        752        756        760        764        768        772        776        780        784        788        792        796        800        804        808        812        816        820        824        828        832        836        840        844        848        852        856        860        864        868        872        876        880        884        888        892        896        900        904        908        912        916        920        924        928        932        936        940        944        948        952        956        960        964        968        972        976        980        984        988        992        996       1000       1004       1008       1012       1016       1020       1024       1028       1032       1036       1040       1044       1048       1052       1056       1060       1064       1068       1072       1076       1080       1084       1088       1092       1096       1100       1104       1108       1112       1116       1120       1124       1128       1132       1136       1140       1144       1148       1152       1156       1160       1164       1168       1172       1176       1180       1184       1188       1192       1196       1200       1204       1208       1212       1216       1220       1224       1228       1232       1236       1240       1244       1248       1252       1256       1260       1264       1268       1272       1276       1280       1284       1288       1292       1296       1300       1304       1308       1312       1316       1320       1324       1328       1332       1336       1340       1344       1348       1352       1356       1360       1364       1368       1372       1376       1380       1384       1388       1392       1396       1400       1404       1408       1412       1416       1420       1424       1428       1432       1436       1440       1444       1448       1452       1456       1460       1464       1468       1472       1476       1480       1484       1488       1492       1496       1500       1504       1508       1512       1516       1520       1524       1528       1532       1536       1540       1544       1548       1552       1556       1560       1564       1568       1572       1576       1580       1584       1588       1592       1596       1600       1604       1608       1612       1616       1620       1624       1628       1632       1636       1640       1644       1648       1652       1656       1660       1664       1668       1672       1676       1680       1684       1688       1692       1696       1700       1704       1708       1712       1716       1720       1724       1728       1732       1736       1740       1744       1748       1752       1756       1760       1764       1768       1772       1776       1780       1784       1788       1792       1796       1800       1804       1808       1812       1816       1820       1824       1828       1832       1836       1840       1844       1848       1852       1856       1860       1864       1868       1872       1876       1880       1884       1888       1892       1896       1900       1904       1908       1912       1916       1920       1924       1928       1932       1936       1940       1944       1948       1952       1956       1960       1964       1968       1972       1976       1980       1984       1988       1992       1996       2000       2004       2008       2012       2016       2020       2024       2028       2032       2036       2040       2044       2048       2052       2056       2060       2064       2068       2072       2076       2080       2084       2088       2092       2096       2100       2104       2108       2112       2116       2120       2124       2128       2132       2136       2140       2144       2148       2152       2156       2160       2164       2168       2172       2176       2180       2184       2188       2192       2196       2200       2204       2208       2212       2216       2220       2224       2228       2232       2236       2240       2244       2248       2252       2256       2260       2264       2268       2272       2276       2280       2284       2288       2292       2296       2300       2304       2308       2312       2316       2320       2324       2328       2332       2336       2340       2344       2348       2352       2356       2360       2364       2368       2372       2376       2380       2384       2388       2392       2396       2400       2404       2408       2412       2416       2420       2424       2428       2432       2436       2440       2444       2448       2452       2456       2460       2464       2468       2472       2476       2480       2484       2488       2492       2496       2500       2504       2508       2512       2516       2520       2524       2528       2532       2536       2540       2544       2548       2552       2556       2560       2564       2568       2572       2576       2580       2584       2588       2592       2596       2600       2604       2608       2612       2616       2620       2624       2628       2632       2636       2640       2644       2648       2652       2656       2660       2664       2668       2672       2676       2680       2684       2688       2692       2696       2700       2704       2708       2712       2716       2720       2724       2728       2732       2736       2740       2744       2748       2752       2756       2760       2764       2768       2772       2776       2780       2784       2788       2792       2796       2800       2804       2808       2812       2816       2820       2824       2828       2832       2836       2840       2844       2848       2852       2856       2860       2864       2868       2872       2876       2880       2884       2888       2892       2896       2900       2904       2908       2912       2916       2920       2924       2928       2932       2936       2940       2944       2948       2952       2956       2960       2964       2968       2972       2976       2980       2984       2988       2992       2996       3000       3004       3008       3012       3016       3020       3024       3028       3032       3036       3040       3044       3048       3052       3056       3060       3064       3068       3072       3076       3080       3084       3088       3092       3096       3100       3104       3108       3112       3116       3120       3124       3128       3132       3136       3140       3144       3148       3152       3156       3160       3164       3168       3172       3176       3180       3184       3188       3192       3196       3200       3204       3208       3212       3216       3220       3224       3228       3232       3236       3240       3244       3248       3252       3256       3260       3264       3268       3272       3276       3280       3284       3288       3292       3296       3300       3304       3308       3312       3316       3320       3324       3328       3332       3336       3340       3344       3348       3352       3356       3360       3364       3368       3372       3376       3380       3384       3388       3392       3396       3400       3404       3408       3412       3416       3420       3424       3428       3432       3436       3440       3444       3448       3452       3456       3460       3464       3468       3472       3476       3480       3484       3488       3492       3496       3500       3504       3508       3512       3516       3520       3524       3528       3532       3536       3540       3544       3548       3552       3556       3560       3564       3568       3572       3576       3580       3584       3588       3592       3596       3600       3604       3608       3612       3616       3620       3624       3628       3632       3636       3640       3644       3648       3652       3656       3660       3664       3668       3672       3676       3680       3684       3688       3692       3696       3700       3704       3708       3712       3716       3720       3724       3728       3732       3736       3740       3744       3748       3752       3756       3760       3764       3768       3772       3776       3780       3784       3788       3792       3796       3800       3804       3808       3812       3816       3820       3824       3828       3832       3836       3840       3844       3848       3852       3856       3860       3864       3868       3872       3876       3880       3884       3888       3892       3896       3900       3904       3908       3912       3916       3920       3924       3928       3932       3936       3940       3944       3948       3952       3956       3960       3964       3968       3972       3976       3980       3984       3988       3992       3996       4000       4004       4008       4012       4016       4020       4024       4028       4032       4036       4040       4044       4048       4052       4056       4060       4064       4068       4072       4076       4080       4084       4088       4092       4096 </DataArray>
<DataArray type="UInt8"                                    Name="types"                                                      NumberOfComponents=" 1" format="ascii">
         9          9          9          9          9          9          9          9          9          9          9          9          9          9          9          9          9          9          9          9          9          9          9          9          9          9          9          9          9          9          9          9          9          9          9          9          9          9          9          9          9          9          9          9          9          9          9          9          9          9          9          9          9          9          9          9          9          9          9          9          9          9          9          9          9          9          9          9          9          9          9          9          9          9          9          9          9          9          9          9          9          9          9          9          9          9          9          9          9          9          9          9          9          9          9          9          9          9          9          9          9          9          9          9          9          9          9          9          9          9          9          9          9          9          9          9          9          9          9          9          9          9          9          9          9          9          9          9          9          9          9          9          9          9          9          9          9          9          9          9          9          9          9          9          9          9          9          9          9          9          9          9          9          9          9          9          9          9          9          9          9          9          9          9          9          9          9          9          9          9          9          9          9          9          9          9          9          9          9          9          9          9          9          9          9          9          9          9          9          9          9          9          9          9          9          9          9          9          9          9          9          9          9          9          9          9          9          9          9          9          9          9          9          9          9          9          9          9          9          9          9          9          9          9          9          9          9          9          9          9          9          9          9          9          9          9          9          9          9          9          9          9          9          9          9          9          9          9          9          9          9          9          9          9          9          9          9          9          9          9          9          9          9          9          9          9          9          9          9          9          9          9          9          9          9          9          9          9          9          9          9          9          9          9          9          9          9          9          9          9          9          9          9          9          9          9          9          9          9          9          9          9          9          9          9          9          9          9          9          9          9          9          9          9          9          9          9          9          9          9          9          9          9          9          9          9          9          9          9          9          9          9          9          9          9          9          9          9          9          9          9          9          9          9          9          9          9          9          9          9          9          9          9          9          9          9          9          9          9          9          9          9          9          9          9          9          9          9          9          9          9          9          9          9          9          9          9          9          9          9          9          9          9          9          9          9          9          9          9          9          9          9          9          9          9          9          9          9          9          9          9          9          9          9          9          9          9          9          9          9          9          9          9          9          9          9          9          9          9          9          9          9          9          9          9          9          9          9          9          9          9          9          9          9          9          9          9          9          9          9          9          9          9          9          9          9          9          9          9          9          9          9          9          9          9          9          9          9          9          9          9          9          9          9          9          9          9          9          9          9          9          9          9          9          9          9          9          9          9          9          9          9          9          9          9          9          9          9          9          9          9          9          9          9          9          9          9          9          9          9          9          9          9          9          9          9          9          9          9          9          9          9          9          9          9          9          9          9          9          9          9          9          9          9          9          9          9          9          9          9          9          9          9          9          9          9          9          9          9          9          9          9          9          9          9          9          9          9          9          9          9          9          9          9          9          9          9          9          9          9          9          9          9          9          9          9          9          9          9          9          9          9          9          9          9          9          9          9          9          9          9          9          9          9          9          9          9          9          9          9          9          9          9          9          9          9          9          9          9          9          9          9          9          9          9          9          9          9          9          9          9          9          9          9          9          9          9          9          9          9          9          9          9          9          9          9          9          9          9          9          9          9          9          9          9          9          9          9          9          9          9          9          9          9          9          9          9          9          9          9          9          9          9          9          9          9          9          9          9          9          9          9          9          9          9          9          9          9          9          9          9          9          9          9          9          9          9          9          9          9          9          9          9          9          9          9          9          9          9          9          9          9          9          9          9          9          9          9          9          9          9          9          9          9          9          9          9          9          9          9          9          9          9          9          9          9          9          9          9          9          9          9          9          9          9          9          9          9          9          9          9          9          9          9          9          9          9          9          9          9          9          9          9          9          9          9          9          9          9          9          9          9          9          9          9          9          9          9          9          9          9          9          9          9          9          9          9          9          9          9          9          9          9          9          9          9          9          9          9          9          9          9          9          9          9          9          9          9          9          9          9          9          9          9          9          9          9          9          9          9          9          9          9          9          9          9          9          9          9          9          9          9          9          9          9          9          9          9          9          9          9          9          9          9          9          9          9          9          9          9          9          9          9          9          9          9          9          9          9          9          9          9          9          9          9          9          9          9          9          9          9          9          9          9          9          9          9          9          9          9          9          9          9          9          9          9          9          9          9          9          9          9          9          9          9          9          9          9          9          9          9          9          9          9          9          9          9          9          9          9          9          9          9          9          9          9          9          9          9          9          9          9          9          9          9          9          9          9          9          9          9          9          9          9          9          9          9          9          9          9          9          9          9          9          9          9          9          9          9          9          9          9          9          9          9          9          9          9          9          9          9          9          9          9          9          9          9          9          9          9          9          9          9          9          9          9          9          9          9          9          9          9          9          9          9          9          9          9          9          9          9          9          9          9          9          9          9          9          9          9          9          9          9          9          9          9          9          9          9          9          9          9          9          9          9          9          9          9          9          9          9          9          9          9          9          9          9          9          9          9          9          9          9          9          9          9          9          9          9          9          9          9          9          9 </DataArray>
</Cells>
<CellData>
<DataArray type="Int32"                                    Name="material"                                                      NumberOfComponents=" 1" format="ascii">
         1          1          1          1          1          1          1          1          1          1          1          1          1          1          1          1          1          1          1          1          1          1          1          1          1          1          1          1          1          1          1          1          1          1          1          1          1          1          1          1          1          1          1          1          1          1          1          1          1          1          1          1          1          1          1          1          1          1          1          1          1          1          1          1          1          1          1          1          1          1          1          1          1          1          1          1          1          1          1          1          1          1          1          1          1          1          1          1          1          1          1          1          1          1          1          1          1          1          1          1          1          1          1          1          1          1          1          1          1          1          1          1          1          1          1          1          1          1          1          1          1          1          1          1          1          1          1          1          1          1          1          1          1          1          1          1          1          1          1          1          1          1          1          1          1          1          1          1          1          1          1          1          1          1          1          1          1          1          1          1          1          1          1          1          1          1          1          1          1          1          1          1          1          1          1          1          1          1          1          1          1          1          1          1          1          1          1          1          1          1          1          1          1          1          1          1          1          1          1          1          1          1          1          1          1          1          1          1          1          1          1          1          1          1          1          1          1          1          1          1          1          1          1          1          1          1          1          1          1          1          1          1          1          1          1          1          1          1          1          1          1          1          1          1          1          1          1          1          1          1          1          1          1          1          1          1          1          1          1          1          1          1          1          1          1          1          1          1          1          1          1          1          1          1          1          1          1          1          1          1          1          1          1          1          1          1          1          1          1          1          1          1          1          1          1          1          1          1          1          1          1          1          1          1          1          1          1          1          1          1          1          1          1          1          1          1          1          1          1          1          1          1          1          1          1          1          1          1          1          1          1          1          1          1          1          1          1          1          1          1          1          1          1          1          1          1          1          1          1          1          1          1          1          1          1          1          1          1          1          1          1          1          1          1          1          1          1          1          1          1          1          1          1          1          1          1          1          1          1          1          1          1          1          1          1          1          1          1          1          1          1          1          1          1          1          1          1          1          1          1          1          1          1          1          1          1          1          1          1          1          1          1          1          1          1          1          1          1          1          1          1          1          1          1          1          1          1          1          1          1          1          1          1          1          1          1          1          1          1          1          1          1          1          1          1          1          1          1          1          1          1          1          1          1          1          1          1          1          1          1          1          1          1          1          1          1          1          1          1          1          1          1          1          1          1          1          1          1          1          1          1          1          1          1          1          1          1          1          1          1          1          1          1          1          1          1          1          1          1          1          1          1          1          1          1          1          1          1          1          1          1          1          1          1          1          1          1          1          1          1          1          1          1          1          1          1          1          1          1          1          1          1          1          1          1          1          1          1          1          1          1          1          1          1          1          1          1          1          1          1          1          1          1          1          1          1          1          1          1          1          1          1          1          1          1          1          1          1          1          1          1          1          1          1          1          1          1          1          1          1          1          1          1          1          1          1          1          1          1          1          1          1          1          1          1          1          1          1          1          1          1          1          1          1          1          1          1          1          1          1          1          1          1          1          1          1          1          1          1          1          1          1          1          1          1          1          1          1          1          1          1          1          1          1          1          1          1          1          1          1          1          1          1          1          1          1          1          1          1          1          1          1          1          1          1          1          1          1          1          1          1          1          1          1          1          1          1          1          1          1          1          1          1          1          1          1          1          1          1          1          1          1          1          1          1          1          1          1          1          1          1          1          1          1          1          1          1          1          1          1          1          1          1          1          1          1          1          1          1          1          1          1          1          1          1          1          1          1          1          1          1          1          1          1          1          1          1          1          1          1          1          1          1          1          1          1          1          1          1          1          1          1          1          1          1          1          1          1          1          1          1          1          1          1          1          1          1          1          1          1          1          1          1          1          1          1          1          1          1          1          1          1          1          1          1          1          1          1          1          1          1          1          1          1          1          1          1          1          1          1          1          1          1          1          1          1          1          1          1          1          1          1          1          1          1          1          1          1          1          1          1          1          1          1          1          1          1          1          1          1          1          1          1          1          1          1          1          1          1          1          1          1          1          1          1          1          1          1          1          1          1          1          1          1          1          1          1          1          1          1          1          1          1          1          1          1          1          1          1          1          1          1          1          1          1          1          1          1          1          1          1          1          1          1          1          1          1          1          1          1          1          1          1          1          1          1          1          1          1          1          1          1          1          1          1          1          1          1          1          1          1          1          1          1          1          1          1          1          1          1          1          1          1          1          1          1          1          1          1          1          1          1          1          1          1          1          1          1          1          1          1          1          1          1          1          1          1          1          1          1          1          1          1          1          1          1          1          1          1          1          1          1          1          1          1          1          1          1          1          1          1          1          1          1          1          1          1          1          1          1          1          1          1          1          1          1          1          1          1          1          1          1          1          1          1          1          1          1          1          1          1          1          1          1          1          1          1          1          1          1          1          1          1          1          1          1          1          1          1          1          1          1          1          1          1          1          1          1          1          1          1          1          1          1 </DataArray>
</CellData>
<PointData>
<DataArray type="Float64"                                    Name="u"                                                      NumberOfComponents=" 3" format="ascii">
             -0.000549658               0.000000000               0.999999984              -0.000594823               0.000000000               0.999999984              -0.000614822               0.000000000               0.999999984              -0.000626330               0.000000000               0.999999984              -0.000635471               0.000000000               0.999999984              -0.000644470               0.000000000               0.999999984              -0.000654358               0.000000000               0.999999984              -0.000665516               0.000000000               0.999999984              -0.000677820               0.000000000               0.999999984              -0.000691140               0.000000000               0.999999984              -0.000705223               0.000000000               0.999999984              -0.000719751               0.000000000               0.999999984              -0.000734506               0.000000000               0.999999984              -0.000749274               0.000000000               0.999999984              -0.000763927               0.000000000               0.999999984              -0.000777984               0.000000000               0.999999984              -0.000790701              -0.000000000               0.999999984              -0.000546555               0.000116073               0.999999984              -0.000588610               0.000095924               0.999999984              -0.000606731               0.000087695               0.999999984              -0.000616992               0.000085618               0.999999984              -0.000625328               0.000086636               0.999999984              -0.000633904               0.000089302               0.999999984              -0.000643415               0.000092919               0.999999984              -0.000654106               0.000096927               0.999999984              -0.000665878               0.000100777               0.999999984              -0.000678526               0.000104342               0.999999984              -0.000691834               0.000107385               0.999999984              -0.000705510               0.000109587               0.999999984              -0.000719264               0.000110700               0.999999984              -0.000732847               0.000110563               0.999999984              -0.000745962               0.000108724               0.999999984              -0.000758331               0.000104382               0.999999984              -0.000769558               0.000096397               0.999999984              -0.000537450               0.000230954               0.999999984              -0.000570340               0.000191161               0.999999984              -0.000582972               0.000175684               0.999999984              -0.000590034               0.000172280               0.999999984              -0.000596485               0.000174982               0.999999984              -0.000603750               0.000180742               0.999999984              -0.000612119               0.000188197               0.999999984              -0.000621596               0.000196182               0.999999984              -0.000631988               0.000203987               0.999999984              -0.000643038               0.000211244               0.999999984              -0.000654330               0.000217313               0.999999984              -0.000665562               0.000221701               0.999999984              -0.000676407               0.000224079               0.999999984              -0.000686658               0.000224198               0.999999984              -0.000696184               0.000221457               0.999999984              -0.000704844               0.000214907               0.999999984              -0.000712624               0.000203160               0.999999984              -0.000522456               0.000343498               0.999999984              -0.000540860               0.000285159               0.999999984              -0.000545618               0.000264133               0.999999984              -0.000548462               0.000260834               0.999999984              -0.000552491               0.000266140               0.999999984              -0.000558094               0.000275641               0.999999984              -0.000565136               0.000287126               0.999999984              -0.000573273               0.000299228               0.999999984              -0.000581923               0.000310924               0.999999984              -0.000590591               0.000321592               0.999999984              -0.000598976               0.000330602               0.999999984              -0.000606689               0.000337485               0.999999984              -0.000613672               0.000341921               0.999999984              -0.000619899               0.000343565               0.999999984              -0.000625231               0.000341835               0.999999984              -0.000629664               0.000336160               0.999999984              -0.000633403               0.000325963               0.999999984              -0.000501803               0.000452555               0.999999984              -0.000501709               0.000377658               0.999999984              -0.000497765               0.000353214               0.999999984              -0.000496483               0.000351476               0.999999984              -0.000498421               0.000360354               0.999999984              -0.000502864               0.000374139               0.999999984              -0.000508829               0.000389982               0.999999984              -0.000515482               0.000406180               0.999999984              -0.000522224               0.000421638               0.999999984              -0.000528495               0.000435696               0.999999984              -0.000533923               0.000447663               0.999999984              -0.000538321               0.000457159               0.999999984              -0.000541599               0.000464029               0.999999984              -0.000543715               0.000468134               0.999999984              -0.000544707               0.000469027               0.999999984              -0.000544777               0.000466493               0.999999984              -0.000544110               0.000460631               0.999999984              -0.000475888               0.000557053               0.999999984              -0.000455000               0.000468548               0.999999984              -0.000442987               0.000442920               0.999999984              -0.000438869               0.000443889               0.999999984              -0.000439916               0.000456928               0.999999984              -0.000443835               0.000475207               0.999999984              -0.000449113               0.000495379               0.999999984              -0.000454744               0.000515591               0.999999984              -0.000459743               0.000534751               0.999999984              -0.000463555               0.000552066               0.999999984              -0.000465942               0.000566946               0.999999984              -0.000466732               0.000579026               0.999999984              -0.000465935               0.000588502               0.999999984              -0.000463665               0.000595340               0.999999984              -0.000460031               0.000599380               0.999999984              -0.000455239               0.000600703               0.999999984              -0.000449330               0.000599498               0.999999984              -0.000445214               0.000655962               0.999999984              -0.000403162               0.000557754               0.999999984              -0.000385165               0.000532752               0.999999984              -0.000380137               0.000537120               0.999999984              -0.000381658               0.000554400               0.999999984              -0.000386053               0.000576943               0.999999984              -0.000391222               0.000601357               0.999999984              -0.000395665               0.000625468               0.999999984              -0.000398589               0.000647986               0.999999984              -0.000399646               0.000668143               0.999999984              -0.000398583               0.000685462               0.999999984              -0.000395414               0.000699799               0.999999984              -0.000390180               0.000711510               0.999999984              -0.000383040               0.000720853               0.999999984              -0.000374166               0.000727907               0.999999984              -0.000363739               0.000732612               0.999999984              -0.000351897               0.000735096               0.999999984              -0.000410532               0.000748196               0.999999984              -0.000348907               0.000644952               0.999999984              -0.000327761               0.000621879               0.999999984              -0.000323984               0.000629646               0.999999984              -0.000327169               0.000650929               0.999999984              -0.000332467               0.000677682               0.999999984              -0.000337298               0.000706128               0.999999984              -0.000340384               0.000733548               0.999999984              -0.000341024               0.000758712               0.999999984              -0.000338860               0.000781003               0.999999984              -0.000333854               0.000800122               0.999999984              -0.000325921               0.000816189               0.999999984              -0.000315259               0.000829885               0.999999984              -0.000302231               0.000841548               0.999999984              -0.000287115               0.000851265               0.999999984              -0.000270274               0.000858965               0.999999984              -0.000252063               0.000864714               0.999999984              -0.000373166               0.000832152               0.999999984              -0.000294189               0.000729987               0.999999984              -0.000273812               0.000709074               0.999999984              -0.000272795               0.000719872               0.999999984              -0.000278194               0.000744976               0.999999984              -0.000284269               0.000775735               0.999999984              -0.000288522               0.000807513               0.999999984              -0.000289746               0.000837809               0.999999984              -0.000287398               0.000865075               0.999999984              -0.000281231               0.000888855               0.999999984              -0.000271072               0.000909246               0.999999984              -0.000257147               0.000926708               0.999999984              -0.000240070               0.000942011               0.999999984              -0.000220408               0.000955644               0.999999984              -0.000198770               0.000967711               0.999999984              -0.000175820               0.000978242               0.999999984              -0.000152436               0.000987493               0.999999984              -0.000335013               0.000910976               0.999999984              -0.000249118               0.000822807               0.999999984              -0.000225757               0.000797207               0.999999984              -0.000223354               0.000802128               0.999999984              -0.000228249               0.000822433               0.999999984              -0.000234485               0.000850059               0.999999984              -0.000239251               0.000880455               0.999999984              -0.000241579               0.000910777               0.999999984              -0.000240632               0.000939355               0.999999984              -0.000235871               0.000965365               0.999999984              -0.000227120               0.000988403               0.999999984              -0.000214318               0.001008701               0.999999984              -0.000197882               0.001026618               0.999999984              -0.000178571               0.001042952               0.999999984              -0.000156903               0.001057983               0.999999984              -0.000133669               0.001071994               0.999999984              -0.000110126               0.001084913               0.999999984              -0.000293283               0.000982312               0.999999984              -0.000206976               0.000911861               0.999999984              -0.000180648               0.000886920               0.999999984              -0.000176067               0.000888050               0.999999984              -0.000179627               0.000904556               0.999999984              -0.000185383               0.000929288               0.999999984              -0.000190398               0.000958035               0.999999984              -0.000193427               0.000988188               0.999999984              -0.000193493               0.001017880               0.999999984              -0.000190133               0.001046011               0.999999984              -0.000182802               0.001071748               0.999999984              -0.000171385               0.001094963               0.999999984              -0.000155899               0.001115812               0.999999984              -0.000136795               0.001134764               0.999999984              -0.000114643               0.001152233               0.999999984              -0.000090155               0.001168811               0.999999984              -0.000064533               0.001184744               0.999999984              -0.000248830               0.001044713               0.999999984              -0.000167610               0.000994742               0.999999984              -0.000139765               0.000974234               0.999999984              -0.000132879               0.000974467               0.999999984              -0.000134529               0.000988546               0.999999984              -0.000139082               0.001011198               0.999999984              -0.000143746               0.001038710               0.999999984              -0.000147062               0.001068512               0.999999984              -0.000147797               0.001099134               0.999999984              -0.000145522               0.001129226               0.999999984              -0.000139621               0.001157883               0.999999984              -0.000129768               0.001184479               0.999999984              -0.000115708               0.001208912               0.999999984              -0.000097246               0.001231243               0.999999984              -0.000074542               0.001251810               0.999999984              -0.000048161               0.001271110               0.999999984              -0.000018905               0.001289733               0.999999984              -0.000202120               0.001097098               0.999999984              -0.000130878               0.001068265               0.999999984              -0.000103742               0.001054958               0.999999984              -0.000095228               0.001056801               0.999999984              -0.000094924               0.001070294               0.999999984              -0.000097946               0.001091765               0.999999984              -0.000101714               0.001118632               0.999999984              -0.000104646               0.001148574               0.999999984              -0.000105586               0.001180094               0.999999984              -0.000104002               0.001212071               0.999999984              -0.000099470               0.001243578               0.999999984              -0.000091470               0.001273834               0.999999984              -0.000079216               0.001302435               0.999999984              -0.000062273               0.001329115               0.999999984              -0.000040353               0.001353915               0.999999984              -0.000013104               0.001377007               0.999999984               0.000019426               0.001398932               0.999999984              -0.000153483               0.001138727               0.999999984              -0.000096317               0.001129273               0.999999984              -0.000072561               0.001124539               0.999999984              -0.000063803               0.001129708               0.999999984              -0.000062146               0.001144043               0.999999984              -0.000063722               0.001165562               0.999999984              -0.000066251               0.001192290               0.999999984              -0.000068442               0.001222709               0.999999984              -0.000069206               0.001255440               0.999999984              -0.000068017               0.001289248               0.999999984              -0.000064630               0.001323437               0.999999984              -0.000058459               0.001357245               0.999999984              -0.000048599               0.001390174               0.999999984              -0.000034394               0.001421661               0.999999984              -0.000015210               0.001451431               0.999999984               0.000010049               0.001479408               0.999999984               0.000042252               0.001505672               0.999999984              -0.000103273               0.001168958               0.999999984              -0.000063367               0.001175022               0.999999984              -0.000045693               0.001178272               0.999999984              -0.000038452               0.001187400               0.999999984              -0.000036431               0.001203459               0.999999984              -0.000036947               0.001225713               0.999999984              -0.000038315               0.001252940               0.999999984              -0.000039563               0.001283953               0.999999984              -0.000040057               0.001317742               0.999999984              -0.000039384               0.001353182               0.999999984              -0.000037048               0.001389626               0.999999984              -0.000032722               0.001426384               0.999999984              -0.000025850               0.001462910               0.999999984              -0.000015698               0.001498696               0.999999984              -0.000001261               0.001533270               0.999999984               0.000018355               0.001566157               0.999999984               0.000044589               0.001597124               0.999999984              -0.000051948               0.001187244               0.999999984              -0.000031443               0.001203349               0.999999984              -0.000022012               0.001212301               0.999999984              -0.000017904               0.001224503               0.999999984              -0.000016597               0.001242239               0.999999984              -0.000016601               0.001265411               0.999999984              -0.000017090               0.001293173               0.999999984              -0.000017611               0.001324719               0.999999984              -0.000017885               0.001359207               0.999999984              -0.000017556               0.001395780               0.999999984              -0.000016407               0.001433764               0.999999984              -0.000014181               0.001472455               0.999999984              -0.000010663               0.001511431               0.999999984              -0.000005362               0.001550163               0.999999984               0.000002366               0.001588172               0.999999984               0.000013138               0.001624796               0.999999984               0.000028080               0.001659470               0.999999984              -0.000000000               0.001193423               0.999999984               0.000000000               0.001212958               0.999999984              -0.000000000               0.001223937               0.999999984              -0.000000000               0.001237371               0.999999984               0.000000000               0.001255745               0.999999984              -0.000000000               0.001279274               0.999999984              -0.000000000               0.001307324               0.999999984              -0.000000000               0.001339051               0.999999984              -0.000000000               0.001373801               0.999999984               0.000000000               0.001410742               0.999999984               0.000000000               0.001449256               0.999999984              -0.000000000               0.001488694               0.999999984              -0.000000000               0.001528613               0.999999984               0.000000000               0.001568442               0.999999984               0.000000000               0.001607718               0.999999984              -0.000000000               0.001645818               0.999999984              -0.000000000               0.001681919               0.999999984              -0.000549658               0.000000000               0.999999984              -0.000594823               0.000000000               0.999999984              -0.000614822               0.000000000               0.999999984              -0.000626330               0.000000000               0.999999984              -0.000635471               0.000000000               0.999999984              -0.000644470               0.000000000               0.999999984              -0.000654358               0.000000000               0.999999984              -0.000665516               0.000000000               0.999999984              -0.000677820               0.000000000               0.999999984              -0.000691140               0.000000000               0.999999984              -0.000705223               0.000000000               0.999999984              -0.000719751               0.000000000               0.999999984              -0.000734506               0.000000000               0.999999984              -0.000749274               0.000000000               0.999999984              -0.000763927               0.000000000               0.999999984              -0.000777984               0.000000000               0.999999984              -0.000790701              -0.000000000               0.999999984              -0.000546555              -0.000116073               0.999999984              -0.000588610              -0.000095924               0.999999984              -0.000606731              -0.000087695               0.999999984              -0.000616992              -0.000085618               0.999999984              -0.000625328              -0.000086636               0.999999984              -0.000633904              -0.000089302               0.999999984              -0.000643415              -0.000092919               0.999999984              -0.000654106              -0.000096927               0.999999984              -0.000665878              -0.000100777               0.999999984              -0.000678526              -0.000104342               0.999999984              -0.000691834              -0.000107385               0.999999984              -0.000705510              -0.000109587               0.999999984              -0.000719264              -0.000110700               0.999999984              -0.000732847              -0.000110563               0.999999984              -0.000745962              -0.000108724               0.999999984              -0.000758331              -0.000104382               0.999999984              -0.000769558              -0.000096397               0.999999984              -0.000537450              -0.000230954               0.999999984              -0.000570340              -0.000191161               0.999999984              -0.000582972              -0.000175684               0.999999984              -0.000590034              -0.000172280               0.999999984              -0.000596485              -0.000174982               0.999999984              -0.000603750              -0.000180742               0.999999984              -0.000612119              -0.000188197               0.999999984              -0.000621596              -0.000196182               0.999999984              -0.000631988              -0.000203987               0.999999984              -0.000643038              -0.000211244               0.999999984              -0.000654330              -0.000217313               0.999999984              -0.000665562              -0.000221701               0.999999984              -0.000676407              -0.000224079               0.999999984              -0.000686658              -0.000224198               0.999999984              -0.000696184              -0.000221457               0.999999984              -0.000704844              -0.000214907               0.999999984              -0.000712624              -0.000203160               0.999999984              -0.000522456              -0.000343498               0.999999984              -0.000540860              -0.000285159               0.999999984              -0.000545618              -0.000264133               0.999999984              -0.000548462              -0.000260834               0.999999984              -0.000552491              -0.000266140               0.999999984              -0.000558094              -0.000275641               0.999999984              -0.000565136              -0.000287126               0.999999984              -0.000573273              -0.000299228               0.999999984              -0.000581923              -0.000310924               0.999999984              -0.000590591              -0.000321592               0.999999984              -0.000598976              -0.000330602               0.999999984              -0.000606689              -0.000337485               0.999999984              -0.000613672              -0.000341921               0.999999984              -0.000619899              -0.000343565               0.999999984              -0.000625231              -0.000341835               0.999999984              -0.000629664              -0.000336160               0.999999984              -0.000633403              -0.000325963               0.999999984              -0.000501803              -0.000452555               0.999999984              -0.000501709              -0.000377658               0.999999984              -0.000497765              -0.000353214               0.999999984              -0.000496483              -0.000351476               0.999999984              -0.000498421              -0.000360354               0.999999984              -0.000502864              -0.000374139               0.999999984              -0.000508829              -0.000389982               0.999999984              -0.000515482              -0.000406180               0.999999984              -0.000522224              -0.000421638               0.999999984              -0.000528495              -0.000435696               0.999999984              -0.000533923              -0.000447663               0.999999984              -0.000538321              -0.000457159               0.999999984              -0.000541599              -0.000464029               0.999999984              -0.000543715              -0.000468134               0.999999984              -0.000544707              -0.000469027               0.999999984              -0.000544777              -0.000466493               0.999999984              -0.000544110              -0.000460631               0.999999984              -0.000475888              -0.000557053               0.999999984              -0.000455000              -0.000468548               0.999999984              -0.000442987              -0.000442920               0.999999984              -0.000438869              -0.000443889               0.999999984              -0.000439916              -0.000456928               0.999999984              -0.000443835              -0.000475207               0.999999984              -0.000449113              -0.000495379               0.999999984              -0.000454744              -0.000515591               0.999999984              -0.000459743              -0.000534751               0.999999984              -0.000463555              -0.000552066               0.999999984              -0.000465942              -0.000566946               0.999999984              -0.000466732              -0.000579026               0.999999984              -0.000465935              -0.000588502               0.999999984              -0.000463665              -0.000595340               0.999999984              -0.000460031              -0.000599380               0.999999984              -0.000455239              -0.000600703               0.999999984              -0.000449330              -0.000599498               0.999999984              -0.000445214              -0.000655962               0.999999984              -0.000403162              -0.000557754               0.999999984              -0.000385165              -0.000532752               0.999999984              -0.000380137              -0.000537120               0.999999984              -0.000381658              -0.000554400               0.999999984              -0.000386053              -0.000576943               0.999999984              -0.000391222              -0.000601357               0.999999984              -0.000395665              -0.000625468               0.999999984              -0.000398589              -0.000647986               0.999999984              -0.000399646              -0.000668143               0.999999984              -0.000398583              -0.000685462               0.999999984              -0.000395414              -0.000699799               0.999999984              -0.000390180              -0.000711510               0.999999984              -0.000383040              -0.000720853               0.999999984              -0.000374166              -0.000727907               0.999999984              -0.000363739              -0.000732612               0.999999984              -0.000351897              -0.000735096               0.999999984              -0.000410532              -0.000748196               0.999999984              -0.000348907              -0.000644952               0.999999984              -0.000327761              -0.000621879               0.999999984              -0.000323984              -0.000629646               0.999999984              -0.000327169              -0.000650929               0.999999984              -0.000332467              -0.000677682               0.999999984              -0.000337298              -0.000706128               0.999999984              -0.000340384              -0.000733548               0.999999984              -0.000341024              -0.000758712               0.999999984              -0.000338860              -0.000781003               0.999999984              -0.000333854              -0.000800122               0.999999984              -0.000325921              -0.000816189               0.999999984              -0.000315259              -0.000829885               0.999999984              -0.000302231              -0.000841548               0.999999984              -0.000287115              -0.000851265               0.999999984              -0.000270274              -0.000858965               0.999999984              -0.000252063              -0.000864714               0.999999984              -0.000373166              -0.000832152               0.999999984              -0.000294189              -0.000729987               0.999999984              -0.000273812              -0.000709074               0.999999984              -0.000272795              -0.000719872               0.999999984              -0.000278194              -0.000744976               0.999999984              -0.000284269              -0.000775735               0.999999984              -0.000288522              -0.000807513               0.999999984              -0.000289746              -0.000837809               0.999999984              -0.000287398              -0.000865075               0.999999984              -0.000281231              -0.000888855               0.999999984              -0.000271072              -0.000909246               0.999999984              -0.000257147              -0.000926708               0.999999984              -0.000240070              -0.000942011               0.999999984              -0.000220408              -0.000955644               0.999999984              -0.000198770              -0.000967711               0.999999984              -0.000175820              -0.000978242               0.999999984              -0.000152436              -0.000987493               0.999999984              -0.000335013              -0.000910976               0.999999984              -0.000249118              -0.000822807               0.999999984              -0.000225757              -0.000797207               0.999999984              -0.000223354              -0.000802128               0.999999984              -0.000228249              -0.000822433               0.999999984              -0.000234485              -0.000850059               0.999999984              -0.000239251              -0.000880455               0.999999984              -0.000241579              -0.000910777               0.999999984              -0.000240632              -0.000939355               0.999999984              -0.000235871              -0.000965365               0.999999984              -0.000227120              -0.000988403               0.999999984              -0.000214318              -0.001008701               0.999999984              -0.000197882              -0.001026618               0.999999984              -0.000178571              -0.001042952               0.999999984              -0.000156903              -0.001057983               0.999999984              -0.000133669              -0.001071994               0.999999984              -0.000110126              -0.001084913               0.999999984              -0.000293283              -0.000982312               0.999999984              -0.000206976              -0.000911861               0.999999984              -0.000180648              -0.000886920               0.999999984              -0.000176067              -0.000888050               0.999999984              -0.000179627              -0.000904556               0.999999984              -0.000185383              -0.000929288               0.999999984              -0.000190398              -0.000958035               0.999999984              -0.000193427              -0.000988188               0.999999984              -0.000193493              -0.001017880               0.999999984              -0.000190133              -0.001046011               0.999999984              -0.000182802              -0.001071748               0.999999984              -0.000171385              -0.001094963               0.999999984              -0.000155899              -0.001115812               0.999999984              -0.000136795              -0.001134764               0.999999984              -0.000114643              -0.001152233               0.999999984              -0.000090155              -0.001168811               0.999999984              -0.000064533              -0.001184744               0.999999984              -0.000248830              -0.001044713               0.999999984              -0.000167610              -0.000994742               0.999999984              -0.000139765              -0.000974234               0.999999984              -0.000132879              -0.000974467               0.999999984              -0.000134529              -0.000988546               0.999999984              -0.000139082              -0.001011198               0.999999984              -0.000143746              -0.001038710               0.999999984              -0.000147062              -0.001068512               0.999999984              -0.000147797              -0.001099134               0.999999984              -0.000145522              -0.001129226               0.999999984              -0.000139621              -0.001157883               0.999999984              -0.000129768              -0.001184479               0.999999984              -0.000115708              -0.001208912               0.999999984              -0.000097246              -0.001231243               0.999999984              -0.000074542              -0.001251810               0.999999984              -0.000048161              -0.001271110               0.999999984              -0.000018905              -0.001289733               0.999999984              -0.000202120              -0.001097098               0.999999984              -0.000130878              -0.001068265               0.999999984              -0.000103742              -0.001054958               0.999999984              -0.000095228              -0.001056801               0.999999984              -0.000094924              -0.001070294               0.999999984              -0.000097946              -0.001091765               0.999999984              -0.000101714              -0.001118632               0.999999984              -0.000104646              -0.001148574               0.999999984              -0.000105586              -0.001180094               0.999999984              -0.000104002              -0.001212071               0.999999984              -0.000099470              -0.001243578               0.999999984              -0.000091470              -0.001273834               0.999999984              -0.000079216              -0.001302435               0.999999984              -0.000062273              -0.001329115               0.999999984              -0.000040353              -0.001353915               0.999999984              -0.000013104              -0.001377007               0.999999984               0.000019426              -0.001398932               0.999999984              -0.000153483              -0.001138727               0.999999984              -0.000096317              -0.001129273               0.999999984              -0.000072561              -0.001124539               0.999999984              -0.000063803              -0.001129708               0.999999984              -0.000062146              -0.001144043               0.999999984              -0.000063722              -0.001165562               0.999999984              -0.000066251              -0.001192290               0.999999984              -0.000068442              -0.001222709               0.999999984              -0.000069206              -0.001255440               0.999999984              -0.000068017              -0.001289248               0.999999984              -0.000064630              -0.001323437               0.999999984              -0.000058459              -0.001357245               0.999999984              -0.000048599              -0.001390174               0.999999984              -0.000034394              -0.001421661               0.999999984              -0.000015210              -0.001451431               0.999999984               0.000010049              -0.001479408               0.999999984               0.000042252              -0.001505672               0.999999984              -0.000103273              -0.001168958               0.999999984              -0.000063367              -0.001175022               0.999999984              -0.000045693              -0.001178272               0.999999984              -0.000038452              -0.001187400               0.999999984              -0.000036431              -0.001203459               0.999999984              -0.000036947              -0.001225713               0.999999984              -0.000038315              -0.001252940               0.999999984              -0.000039563              -0.001283953               0.999999984              -0.000040057              -0.001317742               0.999999984              -0.000039384              -0.001353182               0.999999984              -0.000037048              -0.001389626               0.999999984              -0.000032722              -0.001426384               0.999999984              -0.000025850              -0.001462910               0.999999984              -0.000015698              -0.001498696               0.999999984              -0.000001261              -0.001533270               0.999999984               0.000018355              -0.001566157               0.999999984               0.000044589              -0.001597124               0.999999984              -0.000051948              -0.001187244               0.999999984              -0.000031443              -0.001203349               0.999999984              -0.000022012              -0.001212301               0.999999984              -0.000017904              -0.001224503               0.999999984              -0.000016597              -0.001242239               0.999999984              -0.000016601              -0.001265411               0.999999984              -0.000017090              -0.001293173               0.999999984              -0.000017611              -0.001324719               0.999999984              -0.000017885              -0.001359207               0.999999984              -0.000017556              -0.001395780               0.999999984              -0.000016407              -0.001433764               0.999999984              -0.000014181              -0.001472455               0.999999984              -0.000010663              -0.001511431               0.999999984              -0.000005362              -0.001550163               0.999999984               0.000002366              -0.001588172               0.999999984               0.000013138              -0.001624796               0.999999984               0.000028080              -0.001659470               0.999999984              -0.000000000              -0.001193423               0.999999984               0.000000000              -0.001212958               0.999999984              -0.000000000              -0.001223937               0.999999984               0.000000000              -0.001237371               0.999999984              -0.000000000              -0.001255745               0.999999984              -0.000000000              -0.001279274               0.999999984              -0.000000000              -0.001307324               0.999999984               0.000000000              -0.001339051               0.999999984               0.000000000              -0.001373801               0.999999984               0.000000000              -0.001410742               0.999999984              -0.000000000              -0.001449256               0.999999984              -0.000000000              -0.001488694               0.999999984              -0.000000000              -0.001528613               0.999999984               0.000000000              -0.001568442               0.999999984              -0.000000000              -0.001607718               0.999999984              -0.000000000              -0.001645818               0.999999984               0.000000000              -0.001681919               0.999999984               0.000549658              -0.000000000               0.999999984               0.000594823              -0.000000000               0.999999984               0.000614822               0.000000000               0.999999984               0.000626330               0.000000000               0.999999984               0.000635471               0.000000000               0.999999984               0.000644470               0.000000000               0.999999984               0.000654358               0.000000000               0.999999984               0.000665516               0.000000000               0.999999984               0.000677820               0.000000000               0.999999984               0.000691140               0.000000000               0.999999984               0.000705223               0.000000000               0.999999984               0.000719751              -0.000000000               0.999999984               0.000734506              -0.000000000               0.999999984               0.000749274              -0.000000000               0.999999984               0.000763927              -0.000000000               0.999999984               0.000777984               0.000000000               0.999999984               0.000790701               0.000000000               0.999999984               0.000546555              -0.000116073               0.999999984               0.000588610              -0.000095924               0.999999984               0.000606731              -0.000087695               0.999999984               0.000616992              -0.000085618               0.999999984               0.000625328              -0.000086636               0.999999984               0.000633904              -0.000089302               0.999999984               0.000643415              -0.000092919               0.999999984               0.000654106              -0.000096927               0.999999984               0.000665878              -0.000100777               0.999999984               0.000678526              -0.000104342               0.999999984               0.000691834              -0.000107385               0.999999984               0.000705510              -0.000109587               0.999999984               0.000719264              -0.000110700               0.999999984               0.000732847              -0.000110563               0.999999984               0.000745962              -0.000108724               0.999999984               0.000758331              -0.000104382               0.999999984               0.000769558              -0.000096397               0.999999984               0.000537450              -0.000230954               0.999999984               0.000570340              -0.000191161               0.999999984               0.000582972              -0.000175684               0.999999984               0.000590034              -0.000172280               0.999999984               0.000596485              -0.000174982               0.999999984               0.000603750              -0.000180742               0.999999984               0.000612119              -0.000188197               0.999999984               0.000621596              -0.000196182               0.999999984               0.000631988              -0.000203987               0.999999984               0.000643038              -0.000211244               0.999999984               0.000654330              -0.000217313               0.999999984               0.000665562              -0.000221701               0.999999984               0.000676407              -0.000224079               0.999999984               0.000686658              -0.000224198               0.999999984               0.000696184              -0.000221457               0.999999984               0.000704844              -0.000214907               0.999999984               0.000712624              -0.000203160               0.999999984               0.000522456              -0.000343498               0.999999984               0.000540860              -0.000285159               0.999999984               0.000545618              -0.000264133               0.999999984               0.000548462              -0.000260834               0.999999984               0.000552491              -0.000266140               0.999999984               0.000558094              -0.000275641               0.999999984               0.000565136              -0.000287126               0.999999984               0.000573273              -0.000299228               0.999999984               0.000581923              -0.000310924               0.999999984               0.000590591              -0.000321592               0.999999984               0.000598976              -0.000330602               0.999999984               0.000606689              -0.000337485               0.999999984               0.000613672              -0.000341921               0.999999984               0.000619899              -0.000343565               0.999999984               0.000625231              -0.000341835               0.999999984               0.000629664              -0.000336160               0.999999984               0.000633403              -0.000325963               0.999999984               0.000501803              -0.000452555               0.999999984               0.000501709              -0.000377658               0.999999984               0.000497765              -0.000353214               0.999999984               0.000496483              -0.000351476               0.999999984               0.000498421              -0.000360354               0.999999984               0.000502864              -0.000374139               0.999999984               0.000508829              -0.000389982               0.999999984               0.000515482              -0.000406180               0.999999984               0.000522224              -0.000421638               0.999999984               0.000528495              -0.000435696               0.999999984               0.000533923              -0.000447663               0.999999984               0.000538321              -0.000457159               0.999999984               0.000541599              -0.000464029               0.999999984               0.000543715              -0.000468134               0.999999984               0.000544707              -0.000469027               0.999999984               0.000544777              -0.000466493               0.999999984               0.000544110              -0.000460631               0.999999984               0.000475888              -0.000557053               0.999999984               0.000455000              -0.000468548               0.999999984               0.000442987              -0.000442920               0.999999984               0.000438869              -0.000443889               0.999999984               0.000439916              -0.000456928               0.999999984               0.000443835              -0.000475207               0.999999984               0.000449113              -0.000495379               0.999999984               0.000454744              -0.000515591               0.999999984               0.000459743              -0.000534751               0.999999984               0.000463555              -0.000552066               0.999999984               0.000465942              -0.000566946               0.999999984               0.000466732              -0.000579026               0.999999984               0.000465935              -0.000588502               0.999999984               0.000463665              -0.000595340               0.999999984               0.000460031              -0.000599380               0.999999984               0.000455239              -0.000600703               0.999999984               0.000449330              -0.000599498               0.999999984               0.000445214              -0.000655962               0.999999984               0.000403162              -0.000557754               0.999999984               0.000385165              -0.000532752               0.999999984               0.000380137              -0.000537120               0.999999984               0.000381658              -0.000554400               0.999999984               0.000386053              -0.000576943               0.999999984               0.000391222              -0.000601357               0.999999984               0.000395665              -0.000625468               0.999999984               0.000398589              -0.000647986               0.999999984               0.000399646              -0.000668143               0.999999984               0.000398583              -0.000685462               0.999999984               0.000395414              -0.000699799               0.999999984               0.000390180              -0.000711510               0.999999984               0.000383040              -0.000720853               0.999999984               0.000374166              -0.000727907               0.999999984               0.000363739              -0.000732612               0.999999984               0.000351897              -0.000735096               0.999999984               0.000410532              -0.000748196               0.999999984               0.000348907              -0.000644952               0.999999984               0.000327761              -0.000621879               0.999999984               0.000323984              -0.000629646               0.999999984               0.000327169              -0.000650929               0.999999984               0.000332467              -0.000677682               0.999999984               0.000337298              -0.000706128               0.999999984               0.000340384              -0.000733548               0.999999984               0.000341024              -0.000758712               0.999999984               0.000338860              -0.000781003               0.999999984               0.000333854              -0.000800122               0.999999984               0.000325921              -0.000816189               0.999999984               0.000315259              -0.000829885               0.999999984               0.000302231              -0.000841548               0.999999984               0.000287115              -0.000851265               0.999999984               0.000270274              -0.000858965               0.999999984               0.000252063              -0.000864714               0.999999984               0.000373166              -0.000832152               0.999999984               0.000294189              -0.000729987               0.999999984               0.000273812              -0.000709074               0.999999984               0.000272795              -0.000719872               0.999999984               0.000278194              -0.000744976               0.999999984               0.000284269              -0.000775735               0.999999984               0.000288522              -0.000807513               0.999999984               0.000289746              -0.000837809               0.999999984               0.000287398              -0.000865075               0.999999984               0.000281231              -0.000888855               0.999999984               0.000271072              -0.000909246               0.999999984               0.000257147              -0.000926708               0.999999984               0.000240070              -0.000942011               0.999999984               0.000220408              -0.000955644               0.999999984               0.000198770              -0.000967711               0.999999984               0.000175820              -0.000978242               0.999999984               0.000152436              -0.000987493               0.999999984               0.000335013              -0.000910976               0.999999984               0.000249118              -0.000822807               0.999999984               0.000225757              -0.000797207               0.999999984               0.000223354              -0.000802128               0.999999984               0.000228249              -0.000822433               0.999999984               0.000234485              -0.000850059               0.999999984               0.000239251              -0.000880455               0.999999984               0.000241579              -0.000910777               0.999999984               0.000240632              -0.000939355               0.999999984               0.000235871              -0.000965365               0.999999984               0.000227120              -0.000988403               0.999999984               0.000214318              -0.001008701               0.999999984               0.000197882              -0.001026618               0.999999984               0.000178571              -0.001042952               0.999999984               0.000156903              -0.001057983               0.999999984               0.000133669              -0.001071994               0.999999984               0.000110126              -0.001084913               0.999999984               0.000293283              -0.000982312               0.999999984               0.000206976              -0.000911861               0.999999984               0.000180648              -0.000886920               0.999999984               0.000176067              -0.000888050               0.999999984               0.000179627              -0.000904556               0.999999984               0.000185383              -0.000929288               0.999999984               0.000190398              -0.000958035               0.999999984               0.000193427              -0.000988188               0.999999984               0.000193493              -0.001017880               0.999999984               0.000190133              -0.001046011               0.999999984               0.000182802              -0.001071748               0.999999984               0.000171385              -0.001094963               0.999999984               0.000155899              -0.001115812               0.999999984               0.000136795              -0.001134764               0.999999984               0.000114643              -0.001152233               0.999999984               0.000090155              -0.001168811               0.999999984               0.000064533              -0.001184744               0.999999984               0.000248830              -0.001044713               0.999999984               0.000167610              -0.000994742               0.999999984               0.000139765              -0.000974234               0.999999984               0.000132879              -0.000974467               0.999999984               0.000134529              -0.000988546               0.999999984               0.000139082              -0.001011198               0.999999984               0.000143746              -0.001038710               0.999999984               0.000147062              -0.001068512               0.999999984               0.000147797              -0.001099134               0.999999984               0.000145522              -0.001129226               0.999999984               0.000139621              -0.001157883               0.999999984               0.000129768              -0.001184479               0.999999984               0.000115708              -0.001208912               0.999999984               0.000097246              -0.001231243               0.999999984               0.000074542              -0.001251810               0.999999984               0.000048161              -0.001271110               0.999999984               0.000018905              -0.001289733               0.999999984               0.000202120              -0.001097098               0.999999984               0.000130878              -0.001068265               0.999999984               0.000103742              -0.001054958               0.999999984               0.000095228              -0.001056801               0.999999984               0.000094924              -0.001070294               0.999999984               0.000097946              -0.001091765               0.999999984               0.000101714              -0.001118632               0.999999984               0.000104646              -0.001148574               0.999999984               0.000105586              -0.001180094               0.999999984               0.000104002              -0.001212071               0.999999984               0.000099470              -0.001243578               0.999999984               0.000091470              -0.001273834               0.999999984               0.000079216              -0.001302435               0.999999984               0.000062273              -0.001329115               0.999999984               0.000040353              -0.001353915               0.999999984               0.000013104              -0.001377007               0.999999984              -0.000019426              -0.001398932               0.999999984               0.000153483              -0.001138727               0.999999984               0.000096317              -0.001129273               0.999999984               0.000072561              -0.001124539               0.999999984               0.000063803              -0.001129708               0.999999984               0.000062146              -0.001144043               0.999999984               0.000063722              -0.001165562               0.999999984               0.000066251              -0.001192290               0.999999984               0.000068442              -0.001222709               0.999999984               0.000069206              -0.001255440               0.999999984               0.000068017              -0.001289248               0.999999984               0.000064630              -0.001323437               0.999999984               0.000058459              -0.001357245               0.999999984               0.000048599              -0.001390174               0.999999984               0.000034394              -0.001421661               0.999999984               0.000015210              -0.001451431               0.999999984              -0.000010049              -0.001479408               0.999999984              -0.000042252              -0.001505672               0.999999984               0.000103273              -0.001168958               0.999999984               0.000063367              -0.001175022               0.999999984               0.000045693              -0.001178272               0.999999984               0.000038452              -0.001187400               0.999999984               0.000036431              -0.001203459               0.999999984               0.000036947              -0.001225713               0.999999984               0.000038315              -0.001252940               0.999999984               0.000039563              -0.001283953               0.999999984               0.000040057              -0.001317742               0.999999984               0.000039384              -0.001353182               0.999999984               0.000037048              -0.001389626               0.999999984               0.000032722              -0.001426384               0.999999984               0.000025850              -0.001462910               0.999999984               0.000015698              -0.001498696               0.999999984               0.000001261              -0.001533270               0.999999984              -0.000018355              -0.001566157               0.999999984              -0.000044589              -0.001597124               0.999999984               0.000051948              -0.001187244               0.999999984               0.000031443              -0.001203349               0.999999984               0.000022012              -0.001212301               0.999999984               0.000017904              -0.001224503               0.999999984               0.000016597              -0.001242239               0.999999984               0.000016601              -0.001265411               0.999999984               0.000017090              -0.001293173               0.999999984               0.000017611              -0.001324719               0.999999984               0.000017885              -0.001359207               0.999999984               0.000017556              -0.001395780               0.999999984               0.000016407              -0.001433764               0.999999984               0.000014181              -0.001472455               0.999999984               0.000010663              -0.001511431               0.999999984               0.000005362              -0.001550163               0.999999984              -0.000002366              -0.001588172               0.999999984              -0.000013138              -0.001624796               0.999999984              -0.000028080              -0.001659470               0.999999984              -0.000000000              -0.001193423               0.999999984               0.000000000              -0.001212958               0.999999984              -0.000000000              -0.001223937               0.999999984               0.000000000              -0.001237371               0.999999984              -0.000000000              -0.001255745               0.999999984              -0.000000000              -0.001279274               0.999999984              -0.000000000              -0.001307324               0.999999984               0.000000000              -0.001339051               0.999999984               0.000000000              -0.001373801               0.999999984               0.000000000              -0.001410742               0.999999984              -0.000000000              -0.001449256               0.999999984              -0.000000000              -0.001488694               0.999999984              -0.000000000              -0.001528613               0.999999984               0.000000000              -0.001568442               0.999999984              -0.000000000              -0.001607718               0.999999984              -0.000000000              -0.001645818               0.999999984               0.000000000              -0.001681919               0.999999984               0.000549658              -0.000000000               0.999999984               0.000594823              -0.000000000               0.999999984               0.000614822               0.000000000               0.999999984               0.000626330               0.000000000               0.999999984               0.000635471               0.000000000               0.999999984               0.000644470               0.000000000               0.999999984               0.000654358               0.000000000               0.999999984               0.000665516               0.000000000               0.999999984               0.000677820               0.000000000               0.999999984               0.000691140               0.000000000               0.999999984               0.000705223               0.000000000               0.999999984               0.000719751              -0.000000000               0.999999984               0.000734506              -0.000000000               0.999999984               0.000749274              -0.000000000               0.999999984               0.000763927              -0.000000000               0.999999984               0.000777984               0.000000000               0.999999984               0.000790701               0.000000000               0.999999984               0.000546555               0.000116073               0.999999984               0.000588610               0.000095924               0.999999984               0.000606731               0.000087695               0.999999984               0.000616992               0.000085618               0.999999984               0.000625328               0.000086636               0.999999984               0.000633904               0.000089302               0.999999984               0.000643415               0.000092919               0.999999984               0.000654106               0.000096927               0.999999984               0.000665878               0.000100777               0.999999984               0.000678526               0.000104342               0.999999984               0.000691834               0.000107385               0.999999984               0.000705510               0.000109587               0.999999984               0.000719264               0.000110700               0.999999984               0.000732847               0.000110563               0.999999984               0.000745962               0.000108724               0.999999984               0.000758331               0.000104382               0.999999984               0.000769558               0.000096397               0.999999984               0.000537450               0.000230954               0.999999984               0.000570340               0.000191161               0.999999984               0.000582972               0.000175684               0.999999984               0.000590034               0.000172280               0.999999984               0.000596485               0.000174982               0.999999984               0.000603750               0.000180742               0.999999984               0.000612119               0.000188197               0.999999984               0.000621596               0.000196182               0.999999984               0.000631988               0.000203987               0.999999984               0.000643038               0.000211244               0.999999984               0.000654330               0.000217313               0.999999984               0.000665562               0.000221701               0.999999984               0.000676407               0.000224079               0.999999984               0.000686658               0.000224198               0.999999984               0.000696184               0.000221457               0.999999984               0.000704844               0.000214907               0.999999984               0.000712624               0.000203160               0.999999984               0.000522456               0.000343498               0.999999984               0.000540860               0.000285159               0.999999984               0.000545618               0.000264133               0.999999984               0.000548462               0.000260834               0.999999984               0.000552491               0.000266140               0.999999984               0.000558094               0.000275641               0.999999984               0.000565136               0.000287126               0.999999984               0.000573273               0.000299228               0.999999984               0.000581923               0.000310924               0.999999984               0.000590591               0.000321592               0.999999984               0.000598976               0.000330602               0.999999984               0.000606689               0.000337485               0.999999984               0.000613672               0.000341921               0.999999984               0.000619899               0.000343565               0.999999984               0.000625231               0.000341835               0.999999984               0.000629664               0.000336160               0.999999984               0.000633403               0.000325963               0.999999984               0.000501803               0.000452555               0.999999984               0.000501709               0.000377658               0.999999984               0.000497765               0.000353214               0.999999984               0.000496483               0.000351476               0.999999984               0.000498421               0.000360354               0.999999984               0.000502864               0.000374139               0.999999984               0.000508829               0.000389982               0.999999984               0.000515482               0.000406180               0.999999984               0.000522224               0.000421638               0.999999984               0.000528495               0.000435696               0.999999984               0.000533923               0.000447663               0.999999984               0.000538321               0.000457159               0.999999984               0.000541599               0.000464029               0.999999984               0.000543715               0.000468134               0.999999984               0.000544707               0.000469027               0.999999984               0.000544777               0.000466493               0.999999984               0.000544110               0.000460631               0.999999984               0.000475888               0.000557053               0.999999984               0.000455000               0.000468548               0.999999984               0.000442987               0.000442920               0.999999984               0.000438869               0.000443889               0.999999984               0.000439916               0.000456928               0.999999984               0.000443835               0.000475207               0.999999984               0.000449113               0.000495379               0.999999984               0.000454744               0.000515591               0.999999984               0.000459743               0.000534751               0.999999984               0.000463555               0.000552066               0.999999984               0.000465942               0.000566946               0.999999984               0.000466732               0.000579026               0.999999984               0.000465935               0.000588502               0.999999984               0.000463665               0.000595340               0.999999984               0.000460031               0.000599380               0.999999984               0.000455239               0.000600703               0.999999984               0.000449330               0.000599498               0.999999984               0.000445214               0.000655962               0.999999984               0.000403162               0.000557754               0.999999984               0.000385165               0.000532752               0.999999984               0.000380137               0.000537120               0.999999984               0.000381658               0.000554400               0.999999984               0.000386053               0.000576943               0.999999984               0.000391222               0.000601357               0.999999984               0.000395665               0.000625468               0.999999984               0.000398589               0.000647986               0.999999984               0.000399646               0.000668143               0.999999984               0.000398583               0.000685462               0.999999984               0.000395414               0.000699799               0.999999984               0.000390180               0.000711510               0.999999984               0.000383040               0.000720853               0.999999984               0.000374166               0.000727907               0.999999984               0.000363739               0.000732612               0.999999984               0.000351897               0.000735096               0.999999984               0.000410532               0.000748196               0.999999984               0.000348907               0.000644952               0.999999984               0.000327761               0.000621879               0.999999984               0.000323984               0.000629646               0.999999984               0.000327169               0.000650929               0.999999984               0.000332467               0.000677682               0.999999984               0.000337298               0.000706128               0.999999984               0.000340384               0.000733548               0.999999984               0.000341024               0.000758712               0.999999984               0.000338860               0.000781003               0.999999984               0.000333854               0.000800122               0.999999984               0.000325921               0.000816189               0.999999984               0.000315259               0.000829885               0.999999984               0.000302231               0.000841548               0.999999984               0.000287115               0.000851265               0.999999984               0.000270274               0.000858965               0.999999984               0.000252063               0.000864714               0.999999984               0.000373166               0.000832152               0.999999984               0.000294189               0.000729987               0.999999984               0.000273812               0.000709074               0.999999984               0.000272795               0.000719872               0.999999984               0.000278194               0.000744976               0.999999984               0.000284269               0.000775735               0.999999984               0.000288522               0.000807513               0.999999984               0.000289746               0.000837809               0.999999984               0.000287398               0.000865075               0.999999984               0.000281231               0.000888855               0.999999984               0.000271072               0.000909246               0.999999984               0.000257147               0.000926708               0.999999984               0.000240070               0.000942011               0.999999984               0.000220408               0.000955644               0.999999984               0.000198770               0.000967711               0.999999984               0.000175820               0.000978242               0.999999984               0.000152436               0.000987493               0.999999984               0.000335013               0.000910976               0.999999984               0.000249118               0.000822807               0.999999984               0.000225757               0.000797207               0.999999984               0.000223354               0.000802128               0.999999984               0.000228249               0.000822433               0.999999984               0.000234485               0.000850059               0.999999984               0.000239251               0.000880455               0.999999984               0.000241579               0.000910777               0.999999984               0.000240632               0.000939355               0.999999984               0.000235871               0.000965365               0.999999984               0.000227120               0.000988403               0.999999984               0.000214318               0.001008701               0.999999984               0.000197882               0.001026618               0.999999984               0.000178571               0.001042952               0.999999984               0.000156903               0.001057983               0.999999984               0.000133669               0.001071994               0.999999984               0.000110126               0.001084913               0.999999984               0.000293283               0.000982312               0.999999984               0.000206976               0.000911861               0.999999984               0.000180648               0.000886920               0.999999984               0.000176067               0.000888050               0.999999984               0.000179627               0.000904556               0.999999984               0.000185383               0.000929288               0.999999984               0.000190398               0.000958035               0.999999984               0.000193427               0.000988188               0.999999984               0.000193493               0.001017880               0.999999984               0.000190133               0.001046011               0.999999984               0.000182802               0.001071748               0.999999984               0.000171385               0.001094963               0.999999984               0.000155899               0.001115812               0.999999984               0.000136795               0.001134764               0.999999984               0.000114643               0.001152233               0.999999984               0.000090155               0.001168811               0.999999984               0.000064533               0.001184744               0.999999984               0.000248830               0.001044713               0.999999984               0.000167610               0.000994742               0.999999984               0.000139765               0.000974234               0.999999984               0.000132879               0.000974467               0.999999984               0.000134529               0.000988546               0.999999984               0.000139082               0.001011198               0.999999984               0.000143746               0.001038710               0.999999984               0.000147062               0.001068512               0.999999984               0.000147797               0.001099134               0.999999984               0.000145522               0.001129226               0.999999984               0.000139621               0.001157883               0.999999984               0.000129768               0.001184479               0.999999984               0.000115708               0.001208912               0.999999984               0.000097246               0.001231243               0.999999984               0.000074542               0.001251810               0.999999984               0.000048161               0.001271110               0.999999984               0.000018905               0.001289733               0.999999984               0.000202120               0.001097098               0.999999984               0.000130878               0.001068265               0.999999984               0.000103742               0.001054958               0.999999984               0.000095228               0.001056801               0.999999984               0.000094924               0.001070294               0.999999984               0.000097946               0.001091765               0.999999984               0.000101714               0.001118632               0.999999984               0.000104646               0.001148574               0.999999984               0.000105586               0.001180094               0.999999984               0.000104002               0.001212071               0.999999984               0.000099470               0.001243578               0.999999984               0.000091470               0.001273834               0.999999984               0.000079216               0.001302435               0.999999984               0.000062273               0.001329115               0.999999984               0.000040353               0.001353915               0.999999984               0.000013104               0.001377007               0.999999984              -0.000019426               0.001398932               0.999999984               0.000153483               0.001138727               0.999999984               0.000096317               0.001129273               0.999999984               0.000072561               0.001124539               0.999999984               0.000063803               0.001129708               0.999999984               0.000062146               0.001144043               0.999999984               0.000063722               0.001165562               0.999999984               0.000066251               0.001192290               0.999999984               0.000068442               0.001222709               0.999999984               0.000069206               0.001255440               0.999999984               0.000068017               0.001289248               0.999999984               0.000064630               0.001323437               0.999999984               0.000058459               0.001357245               0.999999984               0.000048599               0.001390174               0.999999984               0.000034394               0.001421661               0.999999984               0.000015210               0.001451431               0.999999984              -0.000010049               0.001479408               0.999999984              -0.000042252               0.001505672               0.999999984               0.000103273               0.001168958               0.999999984               0.000063367               0.001175022               0.999999984               0.000045693               0.001178272               0.999999984               0.000038452               0.001187400               0.999999984               0.000036431               0.001203459               0.999999984               0.000036947               0.001225713               0.999999984               0.000038315               0.001252940               0.999999984               0.000039563               0.001283953               0.999999984               0.000040057               0.001317742               0.999999984               0.000039384               0.001353182               0.999999984               0.000037048               0.001389626               0.999999984               0.000032722               0.001426384               0.999999984               0.000025850               0.001462910               0.999999984               0.000015698               0.001498696               0.999999984               0.000001261               0.001533270               0.999999984              -0.000018355               0.001566157               0.999999984              -0.000044589               0.001597124               0.999999984               0.000051948               0.001187244               0.999999984               0.000031443               0.001203349               0.999999984               0.000022012               0.001212301               0.999999984               0.000017904               0.001224503               0.999999984               0.000016597               0.001242239               0.999999984               0.000016601               0.001265411               0.999999984               0.000017090               0.001293173               0.999999984               0.000017611               0.001324719               0.999999984               0.000017885               0.001359207               0.999999984               0.000017556               0.001395780               0.999999984               0.000016407               0.001433764               0.999999984               0.000014181               0.001472455               0.999999984               0.000010663               0.001511431               0.999999984               0.000005362               0.001550163               0.999999984              -0.000002366               0.001588172               0.999999984              -0.000013138               0.001624796               0.999999984              -0.000028080               0.001659470               0.999999984              -0.000000000               0.001193423               0.999999984               0.000000000               0.001212958               0.999999984              -0.000000000               0.001223937               0.999999984              -0.000000000               0.001237371               0.999999984               0.000000000               0.001255745               0.999999984              -0.000000000               0.001279274               0.999999984              -0.000000000               0.001307324               0.999999984              -0.000000000               0.001339051               0.999999984              -0.000000000               0.001373801               0.999999984               0.000000000               0.001410742               0.999999984               0.000000000               0.001449256               0.999999984              -0.000000000               0.001488694               0.999999984              -0.000000000               0.001528613               0.999999984               0.000000000               0.001568442               0.999999984               0.000000000               0.001607718               0.999999984              -0.000000000               0.001645818               0.999999984              -0.000000000               0.001681919               0.999999984 </DataArray>
<DataArray type="Float64"                                    Name="defo"                                                      NumberOfComponents=" 3" format="ascii">
             -0.000549658               0.000000000               0.999999984              -0.000594823               0.000000000               0.999999984              -0.000614822               0.000000000               0.999999984              -0.000626330               0.000000000               0.999999984              -0.000635471               0.000000000               0.999999984              -0.000644470               0.000000000               0.999999984              -0.000654358               0.000000000               0.999999984              -0.000665516               0.000000000               0.999999984              -0.000677820               0.000000000               0.999999984              -0.000691140               0.000000000               0.999999984              -0.000705223               0.000000000               0.999999984              -0.000719751               0.000000000               0.999999984              -0.000734506               0.000000000               0.999999984              -0.000749274               0.000000000               0.999999984              -0.000763927               0.000000000               0.999999984              -0.000777984               0.000000000               0.999999984              -0.000790701              -0.000000000               0.999999984              -0.000546555               0.000116073               0.999999984              -0.000588610               0.000095924               0.999999984              -0.000606731               0.000087695               0.999999984              -0.000616992               0.000085618               0.999999984              -0.000625328               0.000086636               0.999999984              -0.000633904               0.000089302               0.999999984              -0.000643415               0.000092919               0.999999984              -0.000654106               0.000096927               0.999999984              -0.000665878               0.000100777               0.999999984              -0.000678526               0.000104342               0.999999984              -0.000691834               0.000107385               0.999999984              -0.000705510               0.000109587               0.999999984              -0.000719264               0.000110700               0.999999984              -0.000732847               0.000110563               0.999999984              -0.000745962               0.000108724               0.999999984              -0.000758331               0.000104382               0.999999984              -0.000769558               0.000096397               0.999999984              -0.000537450               0.000230954               0.999999984              -0.000570340               0.000191161               0.999999984              -0.000582972               0.000175684               0.999999984              -0.000590034               0.000172280               0.999999984              -0.000596485               0.000174982               0.999999984              -0.000603750               0.000180742               0.999999984              -0.000612119               0.000188197               0.999999984              -0.000621596               0.000196182               0.999999984              -0.000631988               0.000203987               0.999999984              -0.000643038               0.000211244               0.999999984              -0.000654330               0.000217313               0.999999984              -0.000665562               0.000221701               0.999999984              -0.000676407               0.000224079               0.999999984              -0.000686658               0.000224198               0.999999984              -0.000696184               0.000221457               0.999999984              -0.000704844               0.000214907               0.999999984              -0.000712624               0.000203160               0.999999984              -0.000522456               0.000343498               0.999999984              -0.000540860               0.000285159               0.999999984              -0.000545618               0.000264133               0.999999984              -0.000548462               0.000260834               0.999999984              -0.000552491               0.000266140               0.999999984              -0.000558094               0.000275641               0.999999984              -0.000565136               0.000287126               0.999999984              -0.000573273               0.000299228               0.999999984              -0.000581923               0.000310924               0.999999984              -0.000590591               0.000321592               0.999999984              -0.000598976               0.000330602               0.999999984              -0.000606689               0.000337485               0.999999984              -0.000613672               0.000341921               0.999999984              -0.000619899               0.000343565               0.999999984              -0.000625231               0.000341835               0.999999984              -0.000629664               0.000336160               0.999999984              -0.000633403               0.000325963               0.999999984              -0.000501803               0.000452555               0.999999984              -0.000501709               0.000377658               0.999999984              -0.000497765               0.000353214               0.999999984              -0.000496483               0.000351476               0.999999984              -0.000498421               0.000360354               0.999999984              -0.000502864               0.000374139               0.999999984              -0.000508829               0.000389982               0.999999984              -0.000515482               0.000406180               0.999999984              -0.000522224               0.000421638               0.999999984              -0.000528495               0.000435696               0.999999984              -0.000533923               0.000447663               0.999999984              -0.000538321               0.000457159               0.999999984              -0.000541599               0.000464029               0.999999984              -0.000543715               0.000468134               0.999999984              -0.000544707               0.000469027               0.999999984              -0.000544777               0.000466493               0.999999984              -0.000544110               0.000460631               0.999999984              -0.000475888               0.000557053               0.999999984              -0.000455000               0.000468548               0.999999984              -0.000442987               0.000442920               0.999999984              -0.000438869               0.000443889               0.999999984              -0.000439916               0.000456928               0.999999984              -0.000443835               0.000475207               0.999999984              -0.000449113               0.000495379               0.999999984              -0.000454744               0.000515591               0.999999984              -0.000459743               0.000534751               0.999999984              -0.000463555               0.000552066               0.999999984              -0.000465942               0.000566946               0.999999984              -0.000466732               0.000579026               0.999999984              -0.000465935               0.000588502               0.999999984              -0.000463665               0.000595340               0.999999984              -0.000460031               0.000599380               0.999999984              -0.000455239               0.000600703               0.999999984              -0.000449330               0.000599498               0.999999984              -0.000445214               0.000655962               0.999999984              -0.000403162               0.000557754               0.999999984              -0.000385165               0.000532752               0.999999984              -0.000380137               0.000537120               0.999999984              -0.000381658               0.000554400               0.999999984              -0.000386053               0.000576943               0.999999984              -0.000391222               0.000601357               0.999999984              -0.000395665               0.000625468               0.999999984              -0.000398589               0.000647986               0.999999984              -0.000399646               0.000668143               0.999999984              -0.000398583               0.000685462               0.999999984              -0.000395414               0.000699799               0.999999984              -0.000390180               0.000711510               0.999999984              -0.000383040               0.000720853               0.999999984              -0.000374166               0.000727907               0.999999984              -0.000363739               0.000732612               0.999999984              -0.000351897               0.000735096               0.999999984              -0.000410532               0.000748196               0.999999984              -0.000348907               0.000644952               0.999999984              -0.000327761               0.000621879               0.999999984              -0.000323984               0.000629646               0.999999984              -0.000327169               0.000650929               0.999999984              -0.000332467               0.000677682               0.999999984              -0.000337298               0.000706128               0.999999984              -0.000340384               0.000733548               0.999999984              -0.000341024               0.000758712               0.999999984              -0.000338860               0.000781003               0.999999984              -0.000333854               0.000800122               0.999999984              -0.000325921               0.000816189               0.999999984              -0.000315259               0.000829885               0.999999984              -0.000302231               0.000841548               0.999999984              -0.000287115               0.000851265               0.999999984              -0.000270274               0.000858965               0.999999984              -0.000252063               0.000864714               0.999999984              -0.000373166               0.000832152               0.999999984              -0.000294189               0.000729987               0.999999984              -0.000273812               0.000709074               0.999999984              -0.000272795               0.000719872               0.999999984              -0.000278194               0.000744976               0.999999984              -0.000284269               0.000775735               0.999999984              -0.000288522               0.000807513               0.999999984              -0.000289746               0.000837809               0.999999984              -0.000287398               0.000865075               0.999999984              -0.000281231               0.000888855               0.999999984              -0.000271072               0.000909246               0.999999984              -0.000257147               0.000926708               0.999999984              -0.000240070               0.000942011               0.999999984              -0.000220408               0.000955644               0.999999984              -0.000198770               0.000967711               0.999999984              -0.000175820               0.000978242               0.999999984              -0.000152436               0.000987493               0.999999984              -0.000335013               0.000910976               0.999999984              -0.000249118               0.000822807               0.999999984              -0.000225757               0.000797207               0.999999984              -0.000223354               0.000802128               0.999999984              -0.000228249               0.000822433               0.999999984              -0.000234485               0.000850059               0.999999984              -0.000239251               0.000880455               0.999999984              -0.000241579               0.000910777               0.999999984              -0.000240632               0.000939355               0.999999984              -0.000235871               0.000965365               0.999999984              -0.000227120               0.000988403               0.999999984              -0.000214318               0.001008701               0.999999984              -0.000197882               0.001026618               0.999999984              -0.000178571               0.001042952               0.999999984              -0.000156903               0.001057983               0.999999984              -0.000133669               0.001071994               0.999999984              -0.000110126               0.001084913               0.999999984              -0.000293283               0.000982312               0.999999984              -0.000206976               0.000911861               0.999999984              -0.000180648               0.000886920               0.999999984              -0.000176067               0.000888050               0.999999984              -0.000179627               0.000904556               0.999999984              -0.000185383               0.000929288               0.999999984              -0.000190398               0.000958035               0.999999984              -0.000193427               0.000988188               0.999999984              -0.000193493               0.001017880               0.999999984              -0.000190133               0.001046011               0.999999984              -0.000182802               0.001071748               0.999999984              -0.000171385               0.001094963               0.999999984              -0.000155899               0.001115812               0.999999984              -0.000136795               0.001134764               0.999999984              -0.000114643               0.001152233               0.999999984              -0.000090155               0.001168811               0.999999984              -0.000064533               0.001184744               0.999999984              -0.000248830               0.001044713               0.999999984              -0.000167610               0.000994742               0.999999984              -0.000139765               0.000974234               0.999999984              -0.000132879               0.000974467               0.999999984              -0.000134529               0.000988546               0.999999984              -0.000139082               0.001011198               0.999999984              -0.000143746               0.001038710               0.999999984              -0.000147062               0.001068512               0.999999984              -0.000147797               0.001099134               0.999999984              -0.000145522               0.001129226               0.999999984              -0.000139621               0.001157883               0.999999984              -0.000129768               0.001184479               0.999999984              -0.000115708               0.001208912               0.999999984              -0.000097246               0.001231243               0.999999984              -0.000074542               0.001251810               0.999999984              -0.000048161               0.001271110               0.999999984              -0.000018905               0.001289733               0.999999984              -0.000202120               0.001097098               0.999999984              -0.000130878               0.001068265               0.999999984              -0.000103742               0.001054958               0.999999984              -0.000095228               0.001056801               0.999999984              -0.000094924               0.001070294               0.999999984              -0.000097946               0.001091765               0.999999984              -0.000101714               0.001118632               0.999999984              -0.000104646               0.001148574               0.999999984              -0.000105586               0.001180094               0.999999984              -0.000104002               0.001212071               0.999999984              -0.000099470               0.001243578               0.999999984              -0.000091470               0.001273834               0.999999984              -0.000079216               0.001302435               0.999999984              -0.000062273               0.001329115               0.999999984              -0.000040353               0.001353915               0.999999984              -0.000013104               0.001377007               0.999999984               0.000019426               0.001398932               0.999999984              -0.000153483               0.001138727               0.999999984              -0.000096317               0.001129273               0.999999984              -0.000072561               0.001124539               0.999999984              -0.000063803               0.001129708               0.999999984              -0.000062146               0.001144043               0.999999984              -0.000063722               0.001165562               0.999999984              -0.000066251               0.001192290               0.999999984              -0.000068442               0.001222709               0.999999984              -0.000069206               0.001255440               0.999999984              -0.000068017               0.001289248               0.999999984              -0.000064630               0.001323437               0.999999984              -0.000058459               0.001357245               0.999999984              -0.000048599               0.001390174               0.999999984              -0.000034394               0.001421661               0.999999984              -0.000015210               0.001451431               0.999999984               0.000010049               0.001479408               0.999999984               0.000042252               0.001505672               0.999999984              -0.000103273               0.001168958               0.999999984              -0.000063367               0.001175022               0.999999984              -0.000045693               0.001178272               0.999999984              -0.000038452               0.001187400               0.999999984              -0.000036431               0.001203459               0.999999984              -0.000036947               0.001225713               0.999999984              -0.000038315               0.001252940               0.999999984              -0.000039563               0.001283953               0.999999984              -0.000040057               0.001317742               0.999999984              -0.000039384               0.001353182               0.999999984              -0.000037048               0.001389626               0.999999984              -0.000032722               0.001426384               0.999999984              -0.000025850               0.001462910               0.999999984              -0.000015698               0.001498696               0.999999984              -0.000001261               0.001533270               0.999999984               0.000018355               0.001566157               0.999999984               0.000044589               0.001597124               0.999999984              -0.000051948               0.001187244               0.999999984              -0.000031443               0.001203349               0.999999984              -0.000022012               0.001212301               0.999999984              -0.000017904               0.001224503               0.999999984              -0.000016597               0.001242239               0.999999984              -0.000016601               0.001265411               0.999999984              -0.000017090               0.001293173               0.999999984              -0.000017611               0.001324719               0.999999984              -0.000017885               0.001359207               0.999999984              -0.000017556               0.001395780               0.999999984              -0.000016407               0.001433764               0.999999984              -0.000014181               0.001472455               0.999999984              -0.000010663               0.001511431               0.999999984              -0.000005362               0.001550163               0.999999984               0.000002366               0.001588172               0.999999984               0.000013138               0.001624796               0.999999984               0.000028080               0.001659470               0.999999984              -0.000000000               0.001193423               0.999999984               0.000000000               0.001212958               0.999999984              -0.000000000               0.001223937               0.999999984              -0.000000000               0.001237371               0.999999984               0.000000000               0.001255745               0.999999984              -0.000000000               0.001279274               0.999999984              -0.000000000               0.001307324               0.999999984              -0.000000000               0.001339051               0.999999984              -0.000000000               0.001373801               0.999999984               0.000000000               0.001410742               0.999999984               0.000000000               0.001449256               0.999999984              -0.000000000               0.001488694               0.999999984              -0.000000000               0.001528613               0.999999984               0.000000000               0.001568442               0.999999984               0.000000000               0.001607718               0.999999984              -0.000000000               0.001645818               0.999999984              -0.000000000               0.001681919               0.999999984              -0.000549658               0.000000000               0.999999984              -0.000594823               0.000000000               0.999999984              -0.000614822               0.000000000               0.999999984              -0.000626330               0.000000000               0.999999984              -0.000635471               0.000000000               0.999999984              -0.000644470               0.000000000               0.999999984              -0.000654358               0.000000000               0.999999984              -0.000665516               0.000000000               0.999999984              -0.000677820               0.000000000               0.999999984              -0.000691140               0.000000000               0.999999984              -0.000705223               0.000000000               0.999999984              -0.000719751               0.000000000               0.999999984              -0.000734506               0.000000000               0.999999984              -0.000749274               0.000000000               0.999999984              -0.000763927               0.000000000               0.999999984              -0.000777984               0.000000000               0.999999984              -0.000790701              -0.000000000               0.999999984              -0.000546555              -0.000116073               0.999999984              -0.000588610              -0.000095924               0.999999984              -0.000606731              -0.000087695               0.999999984              -0.000616992              -0.000085618               0.999999984              -0.000625328              -0.000086636               0.999999984              -0.000633904              -0.000089302               0.999999984              -0.000643415              -0.000092919               0.999999984              -0.000654106              -0.000096927               0.999999984              -0.000665878              -0.000100777               0.999999984              -0.000678526              -0.000104342               0.999999984              -0.000691834              -0.000107385               0.999999984              -0.000705510              -0.000109587               0.999999984              -0.000719264              -0.000110700               0.999999984              -0.000732847              -0.000110563               0.999999984              -0.000745962              -0.000108724               0.999999984              -0.000758331              -0.000104382               0.999999984              -0.000769558              -0.000096397               0.999999984              -0.000537450              -0.000230954               0.999999984              -0.000570340              -0.000191161               0.999999984              -0.000582972              -0.000175684               0.999999984              -0.000590034              -0.000172280               0.999999984              -0.000596485              -0.000174982               0.999999984              -0.000603750              -0.000180742               0.999999984              -0.000612119              -0.000188197               0.999999984              -0.000621596              -0.000196182               0.999999984              -0.000631988              -0.000203987               0.999999984              -0.000643038              -0.000211244               0.999999984              -0.000654330              -0.000217313               0.999999984              -0.000665562              -0.000221701               0.999999984              -0.000676407              -0.000224079               0.999999984              -0.000686658              -0.000224198               0.999999984              -0.000696184              -0.000221457               0.999999984              -0.000704844              -0.000214907               0.999999984              -0.000712624              -0.000203160               0.999999984              -0.000522456              -0.000343498               0.999999984              -0.000540860              -0.000285159               0.999999984              -0.000545618              -0.000264133               0.999999984              -0.000548462              -0.000260834               0.999999984              -0.000552491              -0.000266140               0.999999984              -0.000558094              -0.000275641               0.999999984              -0.000565136              -0.000287126               0.999999984              -0.000573273              -0.000299228               0.999999984              -0.000581923              -0.000310924               0.999999984              -0.000590591              -0.000321592               0.999999984              -0.000598976              -0.000330602               0.999999984              -0.000606689              -0.000337485               0.999999984              -0.000613672              -0.000341921               0.999999984              -0.000619899              -0.000343565               0.999999984              -0.000625231              -0.000341835               0.999999984              -0.000629664              -0.000336160               0.999999984              -0.000633403              -0.000325963               0.999999984              -0.000501803              -0.000452555               0.999999984              -0.000501709              -0.000377658               0.999999984              -0.000497765              -0.000353214               0.999999984              -0.000496483              -0.000351476               0.999999984              -0.000498421              -0.000360354               0.999999984              -0.000502864              -0.000374139               0.999999984              -0.000508829              -0.000389982               0.999999984              -0.000515482              -0.000406180               0.999999984              -0.000522224              -0.000421638               0.999999984              -0.000528495              -0.000435696               0.999999984              -0.000533923              -0.000447663               0.999999984              -0.000538321              -0.000457159               0.999999984              -0.000541599              -0.000464029               0.999999984              -0.000543715              -0.000468134               0.999999984              -0.000544707              -0.000469027               0.999999984              -0.000544777              -0.000466493               0.999999984              -0.000544110              -0.000460631               0.999999984              -0.000475888              -0.000557053               0.999999984              -0.000455000              -0.000468548               0.999999984              -0.000442987              -0.000442920               0.999999984              -0.000438869              -0.000443889               0.999999984              -0.000439916              -0.000456928               0.999999984              -0.000443835              -0.000475207               0.999999984              -0.000449113              -0.000495379               0.999999984              -0.000454744              -0.000515591               0.999999984              -0.000459743              -0.000534751               0.999999984              -0.000463555              -0.000552066               0.999999984              -0.000465942              -0.000566946               0.999999984              -0.000466732              -0.000579026               0.999999984              -0.000465935              -0.000588502               0.999999984              -0.000463665              -0.000595340               0.999999984              -0.000460031              -0.000599380               0.999999984              -0.000455239              -0.000600703               0.999999984              -0.000449330              -0.000599498               0.999999984              -0.000445214              -0.000655962               0.999999984              -0.000403162              -0.000557754               0.999999984              -0.000385165              -0.000532752               0.999999984              -0.000380137              -0.000537120               0.999999984              -0.000381658              -0.000554400               0.999999984              -0.000386053              -0.000576943               0.999999984              -0.000391222              -0.000601357               0.999999984              -0.000395665              -0.000625468               0.999999984              -0.000398589              -0.000647986               0.999999984              -0.000399646              -0.000668143               0.999999984              -0.000398583              -0.000685462               0.999999984              -0.000395414              -0.000699799               0.999999984              -0.000390180              -0.000711510               0.999999984              -0.000383040              -0.000720853               0.999999984              -0.000374166              -0.000727907               0.999999984              -0.000363739              -0.000732612               0.999999984              -0.000351897              -0.000735096               0.999999984              -0.000410532              -0.000748196               0.999999984              -0.000348907              -0.000644952               0.999999984              -0.000327761              -0.000621879               0.999999984              -0.000323984              -0.000629646               0.999999984              -0.000327169              -0.000650929               0.999999984              -0.000332467              -0.000677682               0.999999984              -0.000337298              -0.000706128               0.999999984              -0.000340384              -0.000733548               0.999999984              -0.000341024              -0.000758712               0.999999984              -0.000338860              -0.000781003               0.999999984              -0.000333854              -0.000800122               0.999999984              -0.000325921              -0.000816189               0.999999984              -0.000315259              -0.000829885               0.999999984              -0.000302231              -0.000841548               0.999999984              -0.000287115              -0.000851265               0.999999984              -0.000270274              -0.000858965               0.999999984              -0.000252063              -0.000864714               0.999999984              -0.000373166              -0.000832152               0.999999984              -0.000294189              -0.000729987               0.999999984              -0.000273812              -0.000709074               0.999999984              -0.000272795              -0.000719872               0.999999984              -0.000278194              -0.000744976               0.999999984              -0.000284269              -0.000775735               0.999999984              -0.000288522              -0.000807513               0.999999984              -0.000289746              -0.000837809               0.999999984              -0.000287398              -0.000865075               0.999999984              -0.000281231              -0.000888855               0.999999984              -0.000271072              -0.000909246               0.999999984              -0.000257147              -0.000926708               0.999999984              -0.000240070              -0.000942011               0.999999984              -0.000220408              -0.000955644               0.999999984              -0.000198770              -0.000967711               0.999999984              -0.000175820              -0.000978242               0.999999984              -0.000152436              -0.000987493               0.999999984              -0.000335013              -0.000910976               0.999999984              -0.000249118              -0.000822807               0.999999984              -0.000225757              -0.000797207               0.999999984              -0.000223354              -0.000802128               0.999999984              -0.000228249              -0.000822433               0.999999984              -0.000234485              -0.000850059               0.999999984              -0.000239251              -0.000880455               0.999999984              -0.000241579              -0.000910777               0.999999984              -0.000240632              -0.000939355               0.999999984              -0.000235871              -0.000965365               0.999999984              -0.000227120              -0.000988403               0.999999984              -0.000214318              -0.001008701               0.999999984              -0.000197882              -0.001026618               0.999999984              -0.000178571              -0.001042952               0.999999984              -0.000156903              -0.001057983               0.999999984              -0.000133669              -0.001071994               0.999999984              -0.000110126              -0.001084913               0.999999984              -0.000293283              -0.000982312               0.999999984              -0.000206976              -0.000911861               0.999999984              -0.000180648              -0.000886920               0.999999984              -0.000176067              -0.000888050               0.999999984              -0.000179627              -0.000904556               0.999999984              -0.000185383              -0.000929288               0.999999984              -0.000190398              -0.000958035               0.999999984              -0.000193427              -0.000988188               0.999999984              -0.000193493              -0.001017880               0.999999984              -0.000190133              -0.001046011               0.999999984              -0.000182802              -0.001071748               0.999999984              -0.000171385              -0.001094963               0.999999984              -0.000155899              -0.001115812               0.999999984              -0.000136795              -0.001134764               0.999999984              -0.000114643              -0.001152233               0.999999984              -0.000090155              -0.001168811               0.999999984              -0.000064533              -0.001184744               0.999999984              -0.000248830              -0.001044713               0.999999984              -0.000167610              -0.000994742               0.999999984              -0.000139765              -0.000974234               0.999999984              -0.000132879              -0.000974467               0.999999984              -0.000134529              -0.000988546               0.999999984              -0.000139082              -0.001011198               0.999999984              -0.000143746              -0.001038710               0.999999984              -0.000147062              -0.001068512               0.999999984              -0.000147797              -0.001099134               0.999999984              -0.000145522              -0.001129226               0.999999984              -0.000139621              -0.001157883               0.999999984              -0.000129768              -0.001184479               0.999999984              -0.000115708              -0.001208912               0.999999984              -0.000097246              -0.001231243               0.999999984              -0.000074542              -0.001251810               0.999999984              -0.000048161              -0.001271110               0.999999984              -0.000018905              -0.001289733               0.999999984              -0.000202120              -0.001097098               0.999999984              -0.000130878              -0.001068265               0.999999984              -0.000103742              -0.001054958               0.999999984              -0.000095228              -0.001056801               0.999999984              -0.000094924              -0.001070294               0.999999984              -0.000097946              -0.001091765               0.999999984              -0.000101714              -0.001118632               0.999999984              -0.000104646              -0.001148574               0.999999984              -0.000105586              -0.001180094               0.999999984              -0.000104002              -0.001212071               0.999999984              -0.000099470              -0.001243578               0.999999984              -0.000091470              -0.001273834               0.999999984              -0.000079216              -0.001302435               0.999999984              -0.000062273              -0.001329115               0.999999984              -0.000040353              -0.001353915               0.999999984              -0.000013104              -0.001377007               0.999999984               0.000019426              -0.001398932               0.999999984              -0.000153483              -0.001138727               0.999999984              -0.000096317              -0.001129273               0.999999984              -0.000072561              -0.001124539               0.999999984              -0.000063803              -0.001129708               0.999999984              -0.000062146              -0.001144043               0.999999984              -0.000063722              -0.001165562               0.999999984              -0.000066251              -0.001192290               0.999999984              -0.000068442              -0.001222709               0.999999984              -0.000069206              -0.001255440               0.999999984              -0.000068017              -0.001289248               0.999999984              -0.000064630              -0.001323437               0.999999984              -0.000058459              -0.001357245               0.999999984              -0.000048599              -0.001390174               0.999999984              -0.000034394              -0.001421661               0.999999984              -0.000015210              -0.001451431               0.999999984               0.000010049              -0.001479408               0.999999984               0.000042252              -0.001505672               0.999999984              -0.000103273              -0.001168958               0.999999984              -0.000063367              -0.001175022               0.999999984              -0.000045693              -0.001178272               0.999999984              -0.000038452              -0.001187400               0.999999984              -0.000036431              -0.001203459               0.999999984              -0.000036947              -0.001225713               0.999999984              -0.000038315              -0.001252940               0.999999984              -0.000039563              -0.001283953               0.999999984              -0.000040057              -0.001317742               0.999999984              -0.000039384              -0.001353182               0.999999984              -0.000037048              -0.001389626               0.999999984              -0.000032722              -0.001426384               0.999999984              -0.000025850              -0.001462910               0.999999984              -0.000015698              -0.001498696               0.999999984              -0.000001261              -0.001533270               0.999999984               0.000018355              -0.001566157               0.999999984               0.000044589              -0.001597124               0.999999984              -0.000051948              -0.001187244               0.999999984              -0.000031443              -0.001203349               0.999999984              -0.000022012              -0.001212301               0.999999984              -0.000017904              -0.001224503               0.999999984              -0.000016597              -0.001242239               0.999999984              -0.000016601              -0.001265411               0.999999984              -0.000017090              -0.001293173               0.999999984              -0.000017611              -0.001324719               0.999999984              -0.000017885              -0.001359207               0.999999984              -0.000017556              -0.001395780               0.999999984              -0.000016407              -0.001433764               0.999999984              -0.000014181              -0.001472455               0.999999984              -0.000010663              -0.001511431               0.999999984              -0.000005362              -0.001550163               0.999999984               0.000002366              -0.001588172               0.999999984               0.000013138              -0.001624796               0.999999984               0.000028080              -0.001659470               0.999999984              -0.000000000              -0.001193423               0.999999984               0.000000000              -0.001212958               0.999999984              -0.000000000              -0.001223937               0.999999984               0.000000000              -0.001237371               0.999999984              -0.000000000              -0.001255745               0.999999984              -0.000000000              -0.001279274               0.999999984              -0.000000000              -0.001307324               0.999999984               0.000000000              -0.001339051               0.999999984               0.000000000              -0.001373801               0.999999984               0.000000000              -0.001410742               0.999999984              -0.000000000              -0.001449256               0.999999984              -0.000000000              -0.001488694               0.999999984              -0.000000000              -0.001528613               0.999999984               0.000000000              -0.001568442               0.999999984              -0.000000000              -0.001607718               0.999999984              -0.000000000              -0.001645818               0.999999984               0.000000000              -0.001681919               0.999999984               0.000549658              -0.000000000               0.999999984               0.000594823              -0.000000000               0.999999984               0.000614822               0.000000000               0.999999984               0.000626330               0.000000000               0.999999984               0.000635471               0.000000000               0.999999984               0.000644470               0.000000000               0.999999984               0.000654358               0.000000000               0.999999984               0.000665516               0.000000000               0.999999984               0.000677820               0.000000000               0.999999984               0.000691140               0.000000000               0.999999984               0.000705223               0.000000000               0.999999984               0.000719751              -0.000000000               0.999999984               0.000734506              -0.000000000               0.999999984               0.000749274              -0.000000000               0.999999984               0.000763927              -0.000000000               0.999999984               0.000777984               0.000000000               0.999999984               0.000790701               0.000000000               0.999999984               0.000546555              -0.000116073               0.999999984               0.000588610              -0.000095924               0.999999984               0.000606731              -0.000087695               0.999999984               0.000616992              -0.000085618               0.999999984               0.000625328              -0.000086636               0.999999984               0.000633904              -0.000089302               0.999999984               0.000643415              -0.000092919               0.999999984               0.000654106              -0.000096927               0.999999984               0.000665878              -0.000100777               0.999999984               0.000678526              -0.000104342               0.999999984               0.000691834              -0.000107385               0.999999984               0.000705510              -0.000109587               0.999999984               0.000719264              -0.000110700               0.999999984               0.000732847              -0.000110563               0.999999984               0.000745962              -0.000108724               0.999999984               0.000758331              -0.000104382               0.999999984               0.000769558              -0.000096397               0.999999984               0.000537450              -0.000230954               0.999999984               0.000570340              -0.000191161               0.999999984               0.000582972              -0.000175684               0.999999984               0.000590034              -0.000172280               0.999999984               0.000596485              -0.000174982               0.999999984               0.000603750              -0.000180742               0.999999984               0.000612119              -0.000188197               0.999999984               0.000621596              -0.000196182               0.999999984               0.000631988              -0.000203987               0.999999984               0.000643038              -0.000211244               0.999999984               0.000654330              -0.000217313               0.999999984               0.000665562              -0.000221701               0.999999984               0.000676407              -0.000224079               0.999999984               0.000686658              -0.000224198               0.999999984               0.000696184              -0.000221457               0.999999984               0.000704844              -0.000214907               0.999999984               0.000712624              -0.000203160               0.999999984               0.000522456              -0.000343498               0.999999984               0.000540860              -0.000285159               0.999999984               0.000545618              -0.000264133               0.999999984               0.000548462              -0.000260834               0.999999984               0.000552491              -0.000266140               0.999999984               0.000558094              -0.000275641               0.999999984               0.000565136              -0.000287126               0.999999984               0.000573273              -0.000299228               0.999999984               0.000581923              -0.000310924               0.999999984               0.000590591              -0.000321592               0.999999984               0.000598976              -0.000330602               0.999999984               0.000606689              -0.000337485               0.999999984               0.000613672              -0.000341921               0.999999984               0.000619899              -0.000343565               0.999999984               0.000625231              -0.000341835               0.999999984               0.000629664              -0.000336160               0.999999984               0.000633403              -0.000325963               0.999999984               0.000501803              -0.000452555               0.999999984               0.000501709              -0.000377658               0.999999984               0.000497765              -0.000353214               0.999999984               0.000496483              -0.000351476               0.999999984               0.000498421              -0.000360354               0.999999984               0.000502864              -0.000374139               0.999999984               0.000508829              -0.000389982               0.999999984               0.000515482              -0.000406180               0.999999984               0.000522224              -0.000421638               0.999999984               0.000528495              -0.000435696               0.999999984               0.000533923              -0.000447663               0.999999984               0.000538321              -0.000457159               0.999999984               0.000541599              -0.000464029               0.999999984               0.000543715              -0.000468134               0.999999984               0.000544707              -0.000469027               0.999999984               0.000544777              -0.000466493               0.999999984               0.000544110              -0.000460631               0.999999984               0.000475888              -0.000557053               0.999999984               0.000455000              -0.000468548               0.999999984               0.000442987              -0.000442920               0.999999984               0.000438869              -0.000443889               0.999999984               0.000439916              -0.000456928               0.999999984               0.000443835              -0.000475207               0.999999984               0.000449113              -0.000495379               0.999999984               0.000454744              -0.000515591               0.999999984               0.000459743              -0.000534751               0.999999984               0.000463555              -0.000552066               0.999999984               0.000465942              -0.000566946               0.999999984               0.000466732              -0.000579026               0.999999984               0.000465935              -0.000588502               0.999999984               0.000463665              -0.000595340               0.999999984               0.000460031              -0.000599380               0.999999984               0.000455239              -0.000600703               0.999999984               0.000449330              -0.000599498               0.999999984               0.000445214              -0.000655962               0.999999984               0.000403162              -0.000557754               0.999999984               0.000385165              -0.000532752               0.999999984               0.000380137              -0.000537120               0.999999984               0.000381658              -0.000554400               0.999999984               0.000386053              -0.000576943               0.999999984               0.000391222              -0.000601357               0.999999984               0.000395665              -0.000625468               0.999999984               0.000398589              -0.000647986               0.999999984               0.000399646              -0.000668143               0.999999984               0.000398583              -0.000685462               0.999999984               0.000395414              -0.000699799               0.999999984               0.000390180              -0.000711510               0.999999984               0.000383040              -0.000720853               0.999999984               0.000374166              -0.000727907               0.999999984               0.000363739              -0.000732612               0.999999984               0.000351897              -0.000735096               0.999999984               0.000410532              -0.000748196               0.999999984               0.000348907              -0.000644952               0.999999984               0.000327761              -0.000621879               0.999999984               0.000323984              -0.000629646               0.999999984               0.000327169              -0.000650929               0.999999984               0.000332467              -0.000677682               0.999999984               0.000337298              -0.000706128               0.999999984               0.000340384              -0.000733548               0.999999984               0.000341024              -0.000758712               0.999999984               0.000338860              -0.000781003               0.999999984               0.000333854              -0.000800122               0.999999984               0.000325921              -0.000816189               0.999999984               0.000315259              -0.000829885               0.999999984               0.000302231              -0.000841548               0.999999984               0.000287115              -0.000851265               0.999999984               0.000270274              -0.000858965               0.999999984               0.000252063              -0.000864714               0.999999984               0.000373166              -0.000832152               0.999999984               0.000294189              -0.000729987               0.999999984               0.000273812              -0.000709074               0.999999984               0.000272795              -0.000719872               0.999999984               0.000278194              -0.000744976               0.999999984               0.000284269              -0.000775735               0.999999984               0.000288522              -0.000807513               0.999999984               0.000289746              -0.000837809               0.999999984               0.000287398              -0.000865075               0.999999984               0.000281231              -0.000888855               0.999999984               0.000271072              -0.000909246               0.999999984               0.000257147              -0.000926708               0.999999984               0.000240070              -0.000942011               0.999999984               0.000220408              -0.000955644               0.999999984               0.000198770              -0.000967711               0.999999984               0.000175820              -0.000978242               0.999999984               0.000152436              -0.000987493               0.999999984               0.000335013              -0.000910976               0.999999984               0.000249118              -0.000822807               0.999999984               0.000225757              -0.000797207               0.999999984               0.000223354              -0.000802128               0.999999984               0.000228249              -0.000822433               0.999999984               0.000234485              -0.000850059               0.999999984               0.000239251              -0.000880455               0.999999984               0.000241579              -0.000910777               0.999999984               0.000240632              -0.000939355               0.999999984               0.000235871              -0.000965365               0.999999984               0.000227120              -0.000988403               0.999999984               0.000214318              -0.001008701               0.999999984               0.000197882              -0.001026618               0.999999984               0.000178571              -0.001042952               0.999999984               0.000156903              -0.001057983               0.999999984               0.000133669              -0.001071994               0.999999984               0.000110126              -0.001084913               0.999999984               0.000293283              -0.000982312               0.999999984               0.000206976              -0.000911861               0.999999984               0.000180648              -0.000886920               0.999999984               0.000176067              -0.000888050               0.999999984               0.000179627              -0.000904556               0.999999984               0.000185383              -0.000929288               0.999999984               0.000190398              -0.000958035               0.999999984               0.000193427              -0.000988188               0.999999984               0.000193493              -0.001017880               0.999999984               0.000190133              -0.001046011               0.999999984               0.000182802              -0.001071748               0.999999984               0.000171385              -0.001094963               0.999999984               0.000155899              -0.001115812               0.999999984               0.000136795              -0.001134764               0.999999984               0.000114643              -0.001152233               0.999999984               0.000090155              -0.001168811               0.999999984               0.000064533              -0.001184744               0.999999984               0.000248830              -0.001044713               0.999999984               0.000167610              -0.000994742               0.999999984               0.000139765              -0.000974234               0.999999984               0.000132879              -0.000974467               0.999999984               0.000134529              -0.000988546               0.999999984               0.000139082              -0.001011198               0.999999984               0.000143746              -0.001038710               0.999999984               0.000147062              -0.001068512               0.999999984               0.000147797              -0.001099134               0.999999984               0.000145522              -0.001129226               0.999999984               0.000139621              -0.001157883               0.999999984               0.000129768              -0.001184479               0.999999984               0.000115708              -0.001208912               0.999999984               0.000097246              -0.001231243               0.999999984               0.000074542              -0.001251810               0.999999984               0.000048161              -0.001271110               0.999999984               0.000018905              -0.001289733               0.999999984               0.000202120              -0.001097098               0.999999984               0.000130878              -0.001068265               0.999999984               0.000103742              -0.001054958               0.999999984               0.000095228              -0.001056801               0.999999984               0.000094924              -0.001070294               0.999999984               0.000097946              -0.001091765               0.999999984               0.000101714              -0.001118632               0.999999984               0.000104646              -0.001148574               0.999999984               0.000105586              -0.001180094               0.999999984               0.000104002              -0.001212071               0.999999984               0.000099470              -0.001243578               0.999999984               0.000091470              -0.001273834               0.999999984               0.000079216              -0.001302435               0.999999984               0.000062273              -0.001329115               0.999999984               0.000040353              -0.001353915               0.999999984               0.000013104              -0.001377007               0.999999984              -0.000019426              -0.001398932               0.999999984               0.000153483              -0.001138727               0.999999984               0.000096317              -0.001129273               0.999999984               0.000072561              -0.001124539               0.999999984               0.000063803              -0.001129708               0.999999984               0.000062146              -0.001144043               0.999999984               0.000063722              -0.001165562               0.999999984               0.000066251              -0.001192290               0.999999984               0.000068442              -0.001222709               0.999999984               0.000069206              -0.001255440               0.999999984               0.000068017              -0.001289248               0.999999984               0.000064630              -0.001323437               0.999999984               0.000058459              -0.001357245               0.999999984               0.000048599              -0.001390174               0.999999984               0.000034394              -0.001421661               0.999999984               0.000015210              -0.001451431               0.999999984              -0.000010049              -0.001479408               0.999999984              -0.000042252              -0.001505672               0.999999984               0.000103273              -0.001168958               0.999999984               0.000063367              -0.001175022               0.999999984               0.000045693              -0.001178272               0.999999984               0.000038452              -0.001187400               0.999999984               0.000036431              -0.001203459               0.999999984               0.000036947              -0.001225713               0.999999984               0.000038315              -0.001252940               0.999999984               0.000039563              -0.001283953               0.999999984               0.000040057              -0.001317742               0.999999984               0.000039384              -0.001353182               0.999999984               0.000037048              -0.001389626               0.999999984               0.000032722              -0.001426384               0.999999984               0.000025850              -0.001462910               0.999999984               0.000015698              -0.001498696               0.999999984               0.000001261              -0.001533270               0.999999984              -0.000018355              -0.001566157               0.999999984              -0.000044589              -0.001597124               0.999999984               0.000051948              -0.001187244               0.999999984               0.000031443              -0.001203349               0.999999984               0.000022012              -0.001212301               0.999999984               0.000017904              -0.001224503               0.999999984               0.000016597              -0.001242239               0.999999984               0.000016601              -0.001265411               0.999999984               0.000017090              -0.001293173               0.999999984               0.000017611              -0.001324719               0.999999984               0.000017885              -0.001359207               0.999999984               0.000017556              -0.001395780               0.999999984               0.000016407              -0.001433764               0.999999984               0.000014181              -0.001472455               0.999999984               0.000010663              -0.001511431               0.999999984               0.000005362              -0.001550163               0.999999984              -0.000002366              -0.001588172               0.999999984              -0.000013138              -0.001624796               0.999999984              -0.000028080              -0.001659470               0.999999984              -0.000000000              -0.001193423               0.999999984               0.000000000              -0.001212958               0.999999984              -0.000000000              -0.001223937               0.999999984               0.000000000              -0.001237371               0.999999984              -0.000000000              -0.001255745               0.999999984              -0.000000000              -0.001279274               0.999999984              -0.000000000              -0.001307324               0.999999984               0.000000000              -0.001339051               0.999999984               0.000000000              -0.001373801               0.999999984               0.000000000              -0.001410742               0.999999984              -0.000000000              -0.001449256               0.999999984              -0.000000000              -0.001488694               0.999999984              -0.000000000              -0.001528613               0.999999984               0.000000000              -0.001568442               0.999999984              -0.000000000              -0.001607718               0.999999984              -0.000000000              -0.001645818               0.999999984               0.000000000              -0.001681919               0.999999984               0.000549658              -0.000000000               0.999999984               0.000594823              -0.000000000               0.999999984               0.000614822               0.000000000               0.999999984               0.000626330               0.000000000               0.999999984               0.000635471               0.000000000               0.999999984               0.000644470               0.000000000               0.999999984               0.000654358               0.000000000               0.999999984               0.000665516               0.000000000               0.999999984               0.000677820               0.000000000               0.999999984               0.000691140               0.000000000               0.999999984               0.000705223               0.000000000               0.999999984               0.000719751              -0.000000000               0.999999984               0.000734506              -0.000000000               0.999999984               0.000749274              -0.000000000               0.999999984               0.000763927              -0.000000000               0.999999984               0.000777984               0.000000000               0.999999984               0.000790701               0.000000000               0.999999984               0.000546555               0.000116073               0.999999984               0.000588610               0.000095924               0.999999984               0.000606731               0.000087695               0.999999984               0.000616992               0.000085618               0.999999984               0.000625328               0.000086636               0.999999984               0.000633904               0.000089302               0.999999984               0.000643415               0.000092919               0.999999984               0.000654106               0.000096927               0.999999984               0.000665878               0.000100777               0.999999984               0.000678526               0.000104342               0.999999984               0.000691834               0.000107385               0.999999984               0.000705510               0.000109587               0.999999984               0.000719264               0.000110700               0.999999984               0.000732847               0.000110563               0.999999984               0.000745962               0.000108724               0.999999984               0.000758331               0.000104382               0.999999984               0.000769558               0.000096397               0.999999984               0.000537450               0.000230954               0.999999984               0.000570340               0.000191161               0.999999984               0.000582972               0.000175684               0.999999984               0.000590034               0.000172280               0.999999984               0.000596485               0.000174982               0.999999984               0.000603750               0.000180742               0.999999984               0.000612119               0.000188197               0.999999984               0.000621596               0.000196182               0.999999984               0.000631988               0.000203987               0.999999984               0.000643038               0.000211244               0.999999984               0.000654330               0.000217313               0.999999984               0.000665562               0.000221701               0.999999984               0.000676407               0.000224079               0.999999984               0.000686658               0.000224198               0.999999984               0.000696184               0.000221457               0.999999984               0.000704844               0.000214907               0.999999984               0.000712624               0.000203160               0.999999984               0.000522456               0.000343498               0.999999984               0.000540860               0.000285159               0.999999984               0.000545618               0.000264133               0.999999984               0.000548462               0.000260834               0.999999984               0.000552491               0.000266140               0.999999984               0.000558094               0.000275641               0.999999984               0.000565136               0.000287126               0.999999984               0.000573273               0.000299228               0.999999984               0.000581923               0.000310924               0.999999984               0.000590591               0.000321592               0.999999984               0.000598976               0.000330602               0.999999984               0.000606689               0.000337485               0.999999984               0.000613672               0.000341921               0.999999984               0.000619899               0.000343565               0.999999984               0.000625231               0.000341835               0.999999984               0.000629664               0.000336160               0.999999984               0.000633403               0.000325963               0.999999984               0.000501803               0.000452555               0.999999984               0.000501709               0.000377658               0.999999984               0.000497765               0.000353214               0.999999984               0.000496483               0.000351476               0.999999984               0.000498421               0.000360354               0.999999984               0.000502864               0.000374139               0.999999984               0.000508829               0.000389982               0.999999984               0.000515482               0.000406180               0.999999984               0.000522224               0.000421638               0.999999984               0.000528495               0.000435696               0.999999984               0.000533923               0.000447663               0.999999984               0.000538321               0.000457159               0.999999984               0.000541599               0.000464029               0.999999984               0.000543715               0.000468134               0.999999984               0.000544707               0.000469027               0.999999984               0.000544777               0.000466493               0.999999984               0.000544110               0.000460631               0.999999984               0.000475888               0.000557053               0.999999984               0.000455000               0.000468548               0.999999984               0.000442987               0.000442920               0.999999984               0.000438869               0.000443889               0.999999984               0.000439916               0.000456928               0.999999984               0.000443835               0.000475207               0.999999984               0.000449113               0.000495379               0.999999984               0.000454744               0.000515591               0.999999984               0.000459743               0.000534751               0.999999984               0.000463555               0.000552066               0.999999984               0.000465942               0.000566946               0.999999984               0.000466732               0.000579026               0.999999984               0.000465935               0.000588502               0.999999984               0.000463665               0.000595340               0.999999984               0.000460031               0.000599380               0.999999984               0.000455239               0.000600703               0.999999984               0.000449330               0.000599498               0.999999984               0.000445214               0.000655962               0.999999984               0.000403162               0.000557754               0.999999984               0.000385165               0.000532752               0.999999984               0.000380137               0.000537120               0.999999984               0.000381658               0.000554400               0.999999984               0.000386053               0.000576943               0.999999984               0.000391222               0.000601357               0.999999984               0.000395665               0.000625468               0.999999984               0.000398589               0.000647986               0.999999984               0.000399646               0.000668143               0.999999984               0.000398583               0.000685462               0.999999984               0.000395414               0.000699799               0.999999984               0.000390180               0.000711510               0.999999984               0.000383040               0.000720853               0.999999984               0.000374166               0.000727907               0.999999984               0.000363739               0.000732612               0.999999984               0.000351897               0.000735096               0.999999984               0.000410532               0.000748196               0.999999984               0.000348907               0.000644952               0.999999984               0.000327761               0.000621879               0.999999984               0.000323984               0.000629646               0.999999984               0.000327169               0.000650929               0.999999984               0.000332467               0.000677682               0.999999984               0.000337298               0.000706128               0.999999984               0.000340384               0.000733548               0.999999984               0.000341024               0.000758712               0.999999984               0.000338860               0.000781003               0.999999984               0.000333854               0.000800122               0.999999984               0.000325921               0.000816189               0.999999984               0.000315259               0.000829885               0.999999984               0.000302231               0.000841548               0.999999984               0.000287115               0.000851265               0.999999984               0.000270274               0.000858965               0.999999984               0.000252063               0.000864714               0.999999984               0.000373166               0.000832152               0.999999984               0.000294189               0.000729987               0.999999984               0.000273812               0.000709074               0.999999984               0.000272795               0.000719872               0.999999984               0.000278194               0.000744976               0.999999984               0.000284269               0.000775735               0.999999984               0.000288522               0.000807513               0.999999984               0.000289746               0.000837809               0.999999984               0.000287398               0.000865075               0.999999984               0.000281231               0.000888855               0.999999984               0.000271072               0.000909246               0.999999984               0.000257147               0.000926708               0.999999984               0.000240070               0.000942011               0.999999984               0.000220408               0.000955644               0.999999984               0.000198770               0.000967711               0.999999984               0.000175820               0.000978242               0.999999984               0.000152436               0.000987493               0.999999984               0.000335013               0.000910976               0.999999984               0.000249118               0.000822807               0.999999984               0.000225757               0.000797207               0.999999984               0.000223354               0.000802128               0.999999984               0.000228249               0.000822433               0.999999984               0.000234485               0.000850059               0.999999984               0.000239251               0.000880455               0.999999984               0.000241579               0.000910777               0.999999984               0.000240632               0.000939355               0.999999984               0.000235871               0.000965365               0.999999984               0.000227120               0.000988403               0.999999984               0.000214318               0.001008701               0.999999984               0.000197882               0.001026618               0.999999984               0.000178571               0.001042952               0.999999984               0.000156903               0.001057983               0.999999984               0.000133669               0.001071994               0.999999984               0.000110126               0.001084913               0.999999984               0.000293283               0.000982312               0.999999984               0.000206976               0.000911861               0.999999984               0.000180648               0.000886920               0.999999984               0.000176067               0.000888050               0.999999984               0.000179627               0.000904556               0.999999984               0.000185383               0.000929288               0.999999984               0.000190398               0.000958035               0.999999984               0.000193427               0.000988188               0.999999984               0.000193493               0.001017880               0.999999984               0.000190133               0.001046011               0.999999984               0.000182802               0.001071748               0.999999984               0.000171385               0.001094963               0.999999984               0.000155899               0.001115812               0.999999984               0.000136795               0.001134764               0.999999984               0.000114643               0.001152233               0.999999984               0.000090155               0.001168811               0.999999984               0.000064533               0.001184744               0.999999984               0.000248830               0.001044713               0.999999984               0.000167610               0.000994742               0.999999984               0.000139765               0.000974234               0.999999984               0.000132879               0.000974467               0.999999984               0.000134529               0.000988546               0.999999984               0.000139082               0.001011198               0.999999984               0.000143746               0.001038710               0.999999984               0.000147062               0.001068512               0.999999984               0.000147797               0.001099134               0.999999984               0.000145522               0.001129226               0.999999984               0.000139621               0.001157883               0.999999984               0.000129768               0.001184479               0.999999984               0.000115708               0.001208912               0.999999984               0.000097246               0.001231243               0.999999984               0.000074542               0.001251810               0.999999984               0.000048161               0.001271110               0.999999984               0.000018905               0.001289733               0.999999984               0.000202120               0.001097098               0.999999984               0.000130878               0.001068265               0.999999984               0.000103742               0.001054958               0.999999984               0.000095228               0.001056801               0.999999984               0.000094924               0.001070294               0.999999984               0.000097946               0.001091765               0.999999984               0.000101714               0.001118632               0.999999984               0.000104646               0.001148574               0.999999984               0.000105586               0.001180094               0.999999984               0.000104002               0.001212071               0.999999984               0.000099470               0.001243578               0.999999984               0.000091470               0.001273834               0.999999984               0.000079216               0.001302435               0.999999984               0.000062273               0.001329115               0.999999984               0.000040353               0.001353915               0.999999984               0.000013104               0.001377007               0.999999984              -0.000019426               0.001398932               0.999999984               0.000153483               0.001138727               0.999999984               0.000096317               0.001129273               0.999999984               0.000072561               0.001124539               0.999999984               0.000063803               0.001129708               0.999999984               0.000062146               0.001144043               0.999999984               0.000063722               0.001165562               0.999999984               0.000066251               0.001192290               0.999999984               0.000068442               0.001222709               0.999999984               0.000069206               0.001255440               0.999999984               0.000068017               0.001289248               0.999999984               0.000064630               0.001323437               0.999999984               0.000058459               0.001357245               0.999999984               0.000048599               0.001390174               0.999999984               0.000034394               0.001421661               0.999999984               0.000015210               0.001451431               0.999999984              -0.000010049               0.001479408               0.999999984              -0.000042252               0.001505672               0.999999984               0.000103273               0.001168958               0.999999984               0.000063367               0.001175022               0.999999984               0.000045693               0.001178272               0.999999984               0.000038452               0.001187400               0.999999984               0.000036431               0.001203459               0.999999984               0.000036947               0.001225713               0.999999984               0.000038315               0.001252940               0.999999984               0.000039563               0.001283953               0.999999984               0.000040057               0.001317742               0.999999984               0.000039384               0.001353182               0.999999984               0.000037048               0.001389626               0.999999984               0.000032722               0.001426384               0.999999984               0.000025850               0.001462910               0.999999984               0.000015698               0.001498696               0.999999984               0.000001261               0.001533270               0.999999984              -0.000018355               0.001566157               0.999999984              -0.000044589               0.001597124               0.999999984               0.000051948               0.001187244               0.999999984               0.000031443               0.001203349               0.999999984               0.000022012               0.001212301               0.999999984               0.000017904               0.001224503               0.999999984               0.000016597               0.001242239               0.999999984               0.000016601               0.001265411               0.999999984               0.000017090               0.001293173               0.999999984               0.000017611               0.001324719               0.999999984               0.000017885               0.001359207               0.999999984               0.000017556               0.001395780               0.999999984               0.000016407               0.001433764               0.999999984               0.000014181               0.001472455               0.999999984               0.000010663               0.001511431               0.999999984               0.000005362               0.001550163               0.999999984              -0.000002366               0.001588172               0.999999984              -0.000013138               0.001624796               0.999999984              -0.000028080               0.001659470               0.999999984              -0.000000000               0.001193423               0.999999984               0.000000000               0.001212958               0.999999984              -0.000000000               0.001223937               0.999999984              -0.000000000               0.001237371               0.999999984               0.000000000               0.001255745               0.999999984              -0.000000000               0.001279274               0.999999984              -0.000000000               0.001307324               0.999999984              -0.000000000               0.001339051               0.999999984              -0.000000000               0.001373801               0.999999984               0.000000000               0.001410742               0.999999984               0.000000000               0.001449256               0.999999984              -0.000000000               0.001488694               0.999999984              -0.000000000               0.001528613               0.999999984               0.000000000               0.001568442               0.999999984               0.000000000               0.001607718               0.999999984              -0.000000000               0.001645818               0.999999984              -0.000000000               0.001681919               0.999999984 </DataArray>
<DataArray type="Float64"                                    Name="stress"                                                      NumberOfComponents="10" format="ascii">
              0.001949342               0.021304781              -0.000000000              -0.001932090               0.007745553               0.005813463               0.000000000               0.000000000               0.000000000               0.000000000               0.001962941               0.016796023              -0.000000000              -0.001363397               0.006053084               0.004689687               0.000000000               0.000000000               0.000000000               0.000000000               0.002592616               0.013152280              -0.000000000              -0.000671802               0.004607983               0.003936181               0.000000000               0.000000000               0.000000000               0.000000000               0.002503750               0.011118460              -0.000000000              -0.000450900               0.003856416               0.003405516               0.000000000               0.000000000               0.000000000               0.000000000               0.002207774               0.009853307              -0.000000000              -0.000403747               0.003418985               0.003015238               0.000000000               0.000000000               0.000000000               0.000000000               0.001870072               0.008991920              -0.000000000              -0.000422712               0.003138181               0.002715469               0.000000000               0.000000000               0.000000000               0.000000000               0.001537300               0.008360356               0.000000000              -0.000468556               0.002942943               0.002474387               0.000000000               0.000000000               0.000000000               0.000000000               0.001236269               0.007862023              -0.000000000              -0.000519151               0.002793698               0.002274548               0.000000000               0.000000000               0.000000000               0.000000000               0.000974248               0.007435454              -0.000000000              -0.000564087               0.002666489               0.002102402               0.000000000               0.000000000               0.000000000               0.000000000               0.000749370               0.007052759               0.000000000              -0.000600580               0.002551090               0.001950510               0.000000000               0.000000000               0.000000000               0.000000000               0.000564016               0.006693940               0.000000000              -0.000625235               0.002439703               0.001814468               0.000000000               0.000000000               0.000000000               0.000000000               0.000411107               0.006337982              -0.000000000              -0.000638081               0.002325333               0.001687252               0.000000000               0.000000000               0.000000000               0.000000000               0.000281044               0.005970111              -0.000000000              -0.000640871               0.002203641               0.001562770               0.000000000               0.000000000               0.000000000               0.000000000               0.000166948               0.005580210              -0.000000000              -0.000634919               0.002071691               0.001436772               0.000000000               0.000000000               0.000000000               0.000000000               0.000074698               0.005152880              -0.000000000              -0.000616097               0.001922975               0.001306878               0.000000000               0.000000000               0.000000000               0.000000000               0.000023043               0.004665555              -0.000000000              -0.000574552               0.001746687               0.001172135               0.000000000               0.000000000               0.000000000               0.000000000              -0.000031125               0.004286901              -0.000000000              -0.000547533               0.001611464               0.001063931               0.000000000               0.000000000               0.000000000               0.000000000               0.002021959               0.020873353              -0.001468004              -0.001850930               0.007574692               0.005723761               0.000000000               0.000000000               0.000000000               0.000000000               0.001928988               0.016512727              -0.000758051              -0.001340717               0.005951093               0.004610376               0.000000000               0.000000000               0.000000000               0.000000000               0.002449589               0.013028113              -0.000049097              -0.000709917               0.004579300               0.003869383               0.000000000               0.000000000               0.000000000               0.000000000               0.002320325               0.011075938               0.000250073              -0.000514369               0.003863399               0.003349030               0.000000000               0.000000000               0.000000000               0.000000000               0.002011137               0.009854500               0.000369008              -0.000477635               0.003444012               0.002966377               0.000000000               0.000000000               0.000000000               0.000000000               0.001679105               0.009015998               0.000411663              -0.000497334               0.003171081               0.002673746               0.000000000               0.000000000               0.000000000               0.000000000               0.001365934               0.008395216               0.000421396              -0.000537176               0.002977436               0.002440260               0.000000000               0.000000000               0.000000000               0.000000000               0.001084450               0.007898005               0.000412260              -0.000580581               0.002826169               0.002245588               0.000000000               0.000000000               0.000000000               0.000000000               0.000842475               0.007474603               0.000395618              -0.000618396               0.002697641               0.002079246               0.000000000               0.000000000               0.000000000               0.000000000               0.000638445               0.007095868               0.000376847              -0.000647565               0.002581121               0.001933556               0.000000000               0.000000000               0.000000000               0.000000000               0.000469647               0.006736942               0.000353666              -0.000665999               0.002467624               0.001801626               0.000000000               0.000000000               0.000000000               0.000000000               0.000332636               0.006381450               0.000326540              -0.000672941               0.002351443               0.001678501               0.000000000               0.000000000               0.000000000               0.000000000               0.000221070               0.006019706               0.000298274              -0.000669560               0.002229735               0.001560175               0.000000000               0.000000000               0.000000000               0.000000000               0.000130764               0.005644909               0.000264007              -0.000656575               0.002100476               0.001443901               0.000000000               0.000000000               0.000000000               0.000000000               0.000061987               0.005246308               0.000211009              -0.000632542               0.001959599               0.001327057               0.000000000               0.000000000               0.000000000               0.000000000               0.000019796               0.004809038               0.000123534              -0.000593705               0.001800898               0.001207193               0.000000000               0.000000000               0.000000000               0.000000000              -0.000027499               0.004482147               0.000075289              -0.000570579               0.001684227               0.001113648               0.000000000               0.000000000               0.000000000               0.000000000               0.002208085               0.019640673              -0.002736546              -0.001627049               0.007089175               0.005462126               0.000000000               0.000000000               0.000000000               0.000000000               0.001823322               0.015709176              -0.001411379              -0.001279898               0.005662972               0.004383074               0.000000000               0.000000000               0.000000000               0.000000000               0.002035519               0.012673750              -0.000101473              -0.000820897               0.004498174               0.003677276               0.000000000               0.000000000               0.000000000               0.000000000               0.001796104               0.010950331               0.000431805              -0.000695251               0.003881824               0.003186573               0.000000000               0.000000000               0.000000000               0.000000000               0.001470803               0.009847528               0.000638114              -0.000679388               0.003508939               0.002829551               0.000000000               0.000000000               0.000000000               0.000000000               0.001167990               0.009070495               0.000709837              -0.000695814               0.003255406               0.002559592               0.000000000               0.000000000               0.000000000               0.000000000               0.000902879               0.008473853               0.000721473              -0.000720650               0.003064806               0.002344156               0.000000000               0.000000000               0.000000000               0.000000000               0.000676346               0.007984272               0.000701026              -0.000744403               0.002909532               0.002165129               0.000000000               0.000000000               0.000000000               0.000000000               0.000489074               0.007563307               0.000670311              -0.000762009               0.002775080               0.002013071               0.000000000               0.000000000               0.000000000               0.000000000               0.000339526               0.007183673               0.000634347              -0.000770635               0.002651412               0.001880777               0.000000000               0.000000000               0.000000000               0.000000000               0.000225528               0.006828021               0.000590352              -0.000768928               0.002532294               0.001763366               0.000000000               0.000000000               0.000000000               0.000000000               0.000141393               0.006487942               0.000541686              -0.000757969               0.002415282               0.001657313               0.000000000               0.000000000               0.000000000               0.000000000               0.000081109               0.006158262               0.000488889              -0.000739365               0.002299188               0.001559823               0.000000000               0.000000000               0.000000000               0.000000000               0.000038704               0.005832849               0.000423044              -0.000714591               0.002182460               0.001467870               0.000000000               0.000000000               0.000000000               0.000000000               0.000012872               0.005509917               0.000328549              -0.000683911               0.002064591               0.001380680               0.000000000               0.000000000               0.000000000               0.000000000               0.000000387               0.005194489               0.000187738              -0.000649164               0.001947867               0.001298703               0.000000000               0.000000000               0.000000000               0.000000000              -0.000022087               0.004987042               0.000110112              -0.000631661               0.001872884               0.001241223               0.000000000               0.000000000               0.000000000               0.000000000               0.002407930               0.017767099              -0.003647369              -0.001317913               0.006361611               0.005043698               0.000000000               0.000000000               0.000000000               0.000000000               0.001615286               0.014507657              -0.001889782              -0.001207723               0.005238411               0.004030689               0.000000000               0.000000000               0.000000000               0.000000000               0.001397908               0.012145849              -0.000174598              -0.000994013               0.004379914               0.003385900               0.000000000               0.000000000               0.000000000               0.000000000               0.001034687               0.010748264               0.000492387              -0.000955523               0.003901227               0.002945703               0.000000000               0.000000000               0.000000000               0.000000000               0.000715350               0.009807179               0.000739814              -0.000957639               0.003588240               0.002630601               0.000000000               0.000000000               0.000000000               0.000000000               0.000469356               0.009111067               0.000815523              -0.000962873               0.003357950               0.002395077               0.000000000               0.000000000               0.000000000               0.000000000               0.000277307               0.008549599               0.000819962              -0.000964707               0.003171407               0.002206700               0.000000000               0.000000000               0.000000000               0.000000000               0.000134089               0.008074020               0.000791681              -0.000958967               0.003010969               0.002052002               0.000000000               0.000000000               0.000000000               0.000000000               0.000037883               0.007658261               0.000750573              -0.000943074               0.002867086               0.001924012               0.000000000               0.000000000               0.000000000               0.000000000              -0.000025236               0.007281810               0.000702572              -0.000919688               0.002733808               0.001814121               0.000000000               0.000000000               0.000000000               0.000000000              -0.000059198               0.006936967               0.000646285              -0.000889318               0.002608738               0.001719420               0.000000000               0.000000000               0.000000000               0.000000000              -0.000072319               0.006620914               0.000583947              -0.000854732               0.002491860               0.001637128               0.000000000               0.000000000               0.000000000               0.000000000              -0.000076774               0.006330507               0.000514080              -0.000820102               0.002383515               0.001563413               0.000000000               0.000000000               0.000000000               0.000000000              -0.000068881               0.006066563               0.000427639              -0.000784149               0.002283550               0.001499402               0.000000000               0.000000000               0.000000000               0.000000000              -0.000048737               0.005831696               0.000315643              -0.000747236               0.002192958               0.001445721               0.000000000               0.000000000               0.000000000               0.000000000              -0.000025215               0.005636959               0.000172269              -0.000714074               0.002116992               0.001402919               0.000000000               0.000000000               0.000000000               0.000000000              -0.000021094               0.005532822               0.000096252              -0.000699511               0.002077426               0.001377915               0.000000000               0.000000000               0.000000000               0.000000000               0.002493980               0.015475067              -0.004127331              -0.000999142               0.005491350               0.004492209               0.000000000               0.000000000               0.000000000               0.000000000               0.001280194               0.013070559              -0.002174731              -0.001153746               0.004741391               0.003587645               0.000000000               0.000000000               0.000000000               0.000000000               0.000617624               0.011517770              -0.000292030              -0.001208109               0.004241921               0.003033812               0.000000000               0.000000000               0.000000000               0.000000000               0.000174222               0.010476543               0.000402139              -0.001244232               0.003906890               0.002662658               0.000000000               0.000000000               0.000000000               0.000000000              -0.000098318               0.009703632               0.000646546              -0.001249820               0.003651119               0.002401298               0.000000000               0.000000000               0.000000000               0.000000000              -0.000256502               0.009087804               0.000714571              -0.001232161               0.003439958               0.002207797               0.000000000               0.000000000               0.000000000               0.000000000              -0.000342033               0.008567870               0.000713168              -0.001199243               0.003255676               0.002056433               0.000000000               0.000000000               0.000000000               0.000000000              -0.000378496               0.008112973               0.000682152              -0.001156055               0.003089649               0.001933594               0.000000000               0.000000000               0.000000000               0.000000000              -0.000376521               0.007710392               0.000639405              -0.001104992               0.002938435               0.001833444               0.000000000               0.000000000               0.000000000               0.000000000              -0.000348899               0.007347091               0.000588338              -0.001049221               0.002798746               0.001749525               0.000000000               0.000000000               0.000000000               0.000000000              -0.000306877               0.007015836               0.000528991              -0.000992056               0.002669274               0.001677218               0.000000000               0.000000000               0.000000000               0.000000000              -0.000257744               0.006715814               0.000466680              -0.000936129               0.002550625               0.001614497               0.000000000               0.000000000               0.000000000               0.000000000              -0.000205986               0.006452228               0.000401206              -0.000883771               0.002445311               0.001561540               0.000000000               0.000000000               0.000000000               0.000000000              -0.000150918               0.006228381               0.000322507              -0.000835140               0.002354486               0.001519346               0.000000000               0.000000000               0.000000000               0.000000000              -0.000097687               0.006047297               0.000225253              -0.000792543               0.002279926               0.001487384               0.000000000               0.000000000               0.000000000               0.000000000              -0.000049456               0.005916238               0.000114981              -0.000758074               0.002224751               0.001466677               0.000000000               0.000000000               0.000000000               0.000000000              -0.000032550               0.005853422               0.000061950              -0.000743882               0.002199082               0.001455200               0.000000000               0.000000000               0.000000000               0.000000000               0.002358233               0.013001443              -0.004184152              -0.000740845               0.004580719               0.003839873               0.000000000               0.000000000               0.000000000               0.000000000               0.000817560               0.011550889              -0.002288550              -0.001137275               0.004229349               0.003092074               0.000000000               0.000000000               0.000000000               0.000000000              -0.000208914               0.010837545              -0.000475823              -0.001433032               0.004090156               0.002657124               0.000000000               0.000000000               0.000000000               0.000000000              -0.000656510               0.010133411               0.000161581              -0.001512864               0.003882058               0.002369194               0.000000000               0.000000000               0.000000000               0.000000000              -0.000824779               0.009510477               0.000382591              -0.001498098               0.003669493               0.002171395               0.000000000               0.000000000               0.000000000               0.000000000              -0.000859409               0.008964361               0.000446454              -0.001442820               0.003469030               0.002026210               0.000000000               0.000000000               0.000000000               0.000000000              -0.000828376               0.008484943               0.000449276              -0.001371255               0.003285371               0.001914116               0.000000000               0.000000000               0.000000000               0.000000000              -0.000757856               0.008057214               0.000429109              -0.001291345               0.003116160               0.001824815               0.000000000               0.000000000               0.000000000               0.000000000              -0.000662786               0.007669704               0.000400138              -0.001207255               0.002958961               0.001751706               0.000000000               0.000000000               0.000000000               0.000000000              -0.000561277               0.007312302               0.000363093              -0.001124514               0.002812248               0.001687734               0.000000000               0.000000000               0.000000000               0.000000000              -0.000460614               0.006985187               0.000318659              -0.001045876               0.002676998               0.001631122               0.000000000               0.000000000               0.000000000               0.000000000              -0.000363750               0.006692389               0.000275617              -0.000972953               0.002555092               0.001582139               0.000000000               0.000000000               0.000000000               0.000000000              -0.000275384               0.006438733               0.000234854              -0.000908109               0.002448926               0.001540817               0.000000000               0.000000000               0.000000000               0.000000000              -0.000194801               0.006227838               0.000185417              -0.000851528               0.002359768               0.001508240               0.000000000               0.000000000               0.000000000               0.000000000              -0.000123612               0.006062671               0.000124924              -0.000804186               0.002288932               0.001484746               0.000000000               0.000000000               0.000000000               0.000000000              -0.000059883               0.005941286               0.000060532              -0.000765115               0.002235447               0.001470332               0.000000000               0.000000000               0.000000000               0.000000000              -0.000040143               0.005874144               0.000035451              -0.000749320               0.002207802               0.001458482               0.000000000               0.000000000               0.000000000               0.000000000               0.001948814               0.010549739              -0.003888251              -0.000587915               0.003712515               0.003124600               0.000000000               0.000000000               0.000000000               0.000000000               0.000252687               0.010061080              -0.002279947              -0.001162876               0.003741285               0.002578408               0.000000000               0.000000000               0.000000000               0.000000000              -0.000986780               0.010126117              -0.000733278              -0.001635803               0.003920606               0.002284803               0.000000000               0.000000000               0.000000000               0.000000000              -0.001348236               0.009709204              -0.000193444              -0.001719235               0.003809447               0.002090213               0.000000000               0.000000000               0.000000000               0.000000000              -0.001373983               0.009215161               0.000008854              -0.001667135               0.003627401               0.001960266               0.000000000               0.000000000               0.000000000               0.000000000              -0.001271004               0.008742230               0.000085026              -0.001569401               0.003437181               0.001867780               0.000000000               0.000000000               0.000000000               0.000000000              -0.001119299               0.008308760               0.000112902              -0.001458329               0.003255669               0.001797340               0.000000000               0.000000000               0.000000000               0.000000000              -0.000953945               0.007898129               0.000120030              -0.001344992               0.003081014               0.001736022               0.000000000               0.000000000               0.000000000               0.000000000              -0.000793702               0.007507167               0.000117421              -0.001236031               0.002914374               0.001678343               0.000000000               0.000000000               0.000000000               0.000000000              -0.000645024               0.007140639               0.000107085              -0.001134461               0.002758343               0.001623882               0.000000000               0.000000000               0.000000000               0.000000000              -0.000508754               0.006805846               0.000091709              -0.001041511               0.002615763               0.001574252               0.000000000               0.000000000               0.000000000               0.000000000              -0.000387355               0.006511173               0.000081277              -0.000959152               0.002490087               0.001530934               0.000000000               0.000000000               0.000000000               0.000000000              -0.000282841               0.006260942               0.000077269              -0.000888681               0.002383187               0.001494506               0.000000000               0.000000000               0.000000000               0.000000000              -0.000194171               0.006055311               0.000069374              -0.000829726               0.002294992               0.001465266               0.000000000               0.000000000               0.000000000               0.000000000              -0.000119311               0.005891443               0.000051144              -0.000781170               0.002224185               0.001443015               0.000000000               0.000000000               0.000000000               0.000000000              -0.000055743               0.005761664               0.000025083              -0.000741110               0.002167572               0.001426462               0.000000000               0.000000000               0.000000000               0.000000000              -0.000041719               0.005681945               0.000020284              -0.000725886               0.002135925               0.001410039               0.000000000               0.000000000               0.000000000               0.000000000               0.001294305               0.008273001              -0.003332926              -0.000548763               0.002940559               0.002391796               0.000000000               0.000000000               0.000000000               0.000000000              -0.000375764               0.008684899              -0.002193492              -0.001226522               0.003303778               0.002077255               0.000000000               0.000000000               0.000000000               0.000000000              -0.001639377               0.009392923              -0.001052273              -0.001788878               0.003727236               0.001938358               0.000000000               0.000000000               0.000000000               0.000000000              -0.001838438               0.009208640              -0.000605869              -0.001840490               0.003683013               0.001842523               0.000000000               0.000000000               0.000000000               0.000000000              -0.001702983               0.008841330              -0.000395863              -0.001743780               0.003528341               0.001784560               0.000000000               0.000000000               0.000000000               0.000000000              -0.001471211               0.008444125              -0.000284276              -0.001607216               0.003350419               0.001743203               0.000000000               0.000000000               0.000000000               0.000000000              -0.001229911               0.008036694              -0.000217468              -0.001465800               0.003167471               0.001701671               0.000000000               0.000000000               0.000000000               0.000000000              -0.001004293               0.007628695              -0.000178472              -0.001330194               0.002986271               0.001656077               0.000000000               0.000000000               0.000000000               0.000000000              -0.000801060               0.007230331              -0.000149361              -0.001204186               0.002811482               0.001607296               0.000000000               0.000000000               0.000000000               0.000000000              -0.000624526               0.006853401              -0.000123895              -0.001090870               0.002648067               0.001557198               0.000000000               0.000000000               0.000000000               0.000000000              -0.000471571               0.006513352              -0.000098252              -0.000991006               0.002501431               0.001510425               0.000000000               0.000000000               0.000000000               0.000000000              -0.000342312               0.006220735              -0.000063824              -0.000905957               0.002375543               0.001469586               0.000000000               0.000000000               0.000000000               0.000000000              -0.000240646               0.005975220              -0.000023661              -0.000837143               0.002270768               0.001433625               0.000000000               0.000000000               0.000000000               0.000000000              -0.000160858               0.005773158               0.000008464              -0.000781964               0.002185022               0.001403057               0.000000000               0.000000000               0.000000000               0.000000000              -0.000097414               0.005609412               0.000023283              -0.000737705               0.002115687               0.001377982               0.000000000               0.000000000               0.000000000               0.000000000              -0.000047846               0.005480452               0.000019219              -0.000702997               0.002061131               0.001358134               0.000000000               0.000000000               0.000000000               0.000000000              -0.000035335               0.005406699               0.000019602              -0.000689086               0.002031910               0.001342824               0.000000000               0.000000000               0.000000000               0.000000000               0.000499150               0.006338099              -0.002624931              -0.000605082               0.002314371               0.001709290               0.000000000               0.000000000               0.000000000               0.000000000              -0.000979224               0.007450859              -0.002076227              -0.001298564               0.002916449               0.001617885               0.000000000               0.000000000               0.000000000               0.000000000              -0.002126001               0.008668690              -0.001422089              -0.001880832               0.003516478               0.001635646               0.000000000               0.000000000               0.000000000               0.000000000              -0.002153324               0.008732107              -0.001036362              -0.001899005               0.003543675               0.001644669               0.000000000               0.000000000               0.000000000               0.000000000              -0.001888572               0.008508733              -0.000795288              -0.001771802               0.003426816               0.001655015               0.000000000               0.000000000               0.000000000               0.000000000              -0.001564655               0.008181009              -0.000637461              -0.001609368               0.003263432               0.001654064               0.000000000               0.000000000               0.000000000               0.000000000              -0.001260193               0.007803459              -0.000529123              -0.001448001               0.003083794               0.001635793               0.000000000               0.000000000               0.000000000               0.000000000              -0.000987885               0.007408376              -0.000454547              -0.001296501               0.002901601               0.001605100               0.000000000               0.000000000               0.000000000               0.000000000              -0.000752631               0.007015472              -0.000393705              -0.001159168               0.002724857               0.001565689               0.000000000               0.000000000               0.000000000               0.000000000              -0.000554004               0.006643948              -0.000331742              -0.001038242               0.002560708               0.001522466               0.000000000               0.000000000               0.000000000               0.000000000              -0.000391856               0.006307856              -0.000262644              -0.000935426               0.002414406               0.001478980               0.000000000               0.000000000               0.000000000               0.000000000              -0.000269930               0.006018214              -0.000186801              -0.000853498               0.002290551               0.001437052               0.000000000               0.000000000               0.000000000               0.000000000              -0.000187289               0.005772363              -0.000109601              -0.000791777               0.002188027               0.001396251               0.000000000               0.000000000               0.000000000               0.000000000              -0.000134013               0.005563911              -0.000043646              -0.000745742               0.002103199               0.001357457               0.000000000               0.000000000               0.000000000               0.000000000              -0.000105642               0.005384054               0.000001533              -0.000712621               0.002032207               0.001319586               0.000000000               0.000000000               0.000000000               0.000000000              -0.000095145               0.005236155               0.000017890              -0.000690197               0.001975433               0.001285236               0.000000000               0.000000000               0.000000000               0.000000000              -0.000089223               0.005164833               0.000018743              -0.000679061               0.001947948               0.001268886               0.000000000               0.000000000               0.000000000               0.000000000              -0.000450780               0.004533511              -0.001866013              -0.000735731               0.001756398               0.001020667               0.000000000               0.000000000               0.000000000               0.000000000              -0.001468077               0.006026288              -0.001939542              -0.001303813               0.002443346               0.001139534               0.000000000               0.000000000               0.000000000               0.000000000              -0.002380286               0.007612068              -0.001813064              -0.001844112               0.003152034               0.001307922               0.000000000               0.000000000               0.000000000               0.000000000              -0.002322386               0.008019242              -0.001499857              -0.001873296               0.003297486               0.001424190               0.000000000               0.000000000               0.000000000               0.000000000              -0.002017255               0.008024543              -0.001231596              -0.001759535               0.003261332               0.001501798               0.000000000               0.000000000               0.000000000               0.000000000              -0.001664450               0.007846877              -0.001022124              -0.001605025               0.003150608               0.001545583               0.000000000               0.000000000               0.000000000               0.000000000              -0.001333750               0.007578209              -0.000866289              -0.001447429               0.003008520               0.001561092               0.000000000               0.000000000               0.000000000               0.000000000              -0.001041316               0.007260368              -0.000749902              -0.001298037               0.002852777               0.001554741               0.000000000               0.000000000               0.000000000               0.000000000              -0.000789824               0.006925853              -0.000650454              -0.001161913               0.002695899               0.001533986               0.000000000               0.000000000               0.000000000               0.000000000              -0.000581184               0.006589506              -0.000554793              -0.001041630               0.002543690               0.001502060               0.000000000               0.000000000               0.000000000               0.000000000              -0.000415917               0.006265073              -0.000453238              -0.000939101               0.002401370               0.001462270               0.000000000               0.000000000               0.000000000               0.000000000              -0.000292699               0.005970316              -0.000346454              -0.000856050               0.002275435               0.001419386               0.000000000               0.000000000               0.000000000               0.000000000              -0.000212234               0.005717244              -0.000241169              -0.000794241               0.002170476               0.001376235               0.000000000               0.000000000               0.000000000               0.000000000              -0.000170375               0.005501036              -0.000142704              -0.000751518               0.002084167               0.001332648               0.000000000               0.000000000               0.000000000               0.000000000              -0.000162400               0.005310571              -0.000059044              -0.000724720               0.002011746               0.001287026               0.000000000               0.000000000               0.000000000               0.000000000              -0.000179611               0.005143842              -0.000009863              -0.000710333               0.001951374               0.001241042               0.000000000               0.000000000               0.000000000               0.000000000              -0.000193359               0.005060346               0.000004481              -0.000705051               0.001921782               0.001216731               0.000000000               0.000000000               0.000000000               0.000000000              -0.001700777               0.002899292              -0.001108501              -0.001000201               0.001299821               0.000299620               0.000000000               0.000000000               0.000000000               0.000000000              -0.002022089               0.004605674              -0.001735110              -0.001333990               0.001979872               0.000645882               0.000000000               0.000000000               0.000000000               0.000000000              -0.002543803               0.006399340              -0.002114577              -0.001753840               0.002717705               0.000963865               0.000000000               0.000000000               0.000000000               0.000000000              -0.002407459               0.007123028              -0.001935190              -0.001793172               0.002972042               0.001178871               0.000000000               0.000000000               0.000000000               0.000000000              -0.002093097               0.007379705              -0.001673168              -0.001707371               0.003029000               0.001321629               0.000000000               0.000000000               0.000000000               0.000000000              -0.001743600               0.007389026              -0.001433973              -0.001577475               0.002988809               0.001411334               0.000000000               0.000000000               0.000000000               0.000000000              -0.001404258               0.007269559              -0.001238816              -0.001435289               0.002901592               0.001466303               0.000000000               0.000000000               0.000000000               0.000000000              -0.001099880               0.007073583              -0.001079485              -0.001296650               0.002790054               0.001493404               0.000000000               0.000000000               0.000000000               0.000000000              -0.000836343               0.006834174              -0.000943528              -0.001167898               0.002667334               0.001499436               0.000000000               0.000000000               0.000000000               0.000000000              -0.000611127               0.006563090              -0.000819903              -0.001049557               0.002537527               0.001487970               0.000000000               0.000000000               0.000000000               0.000000000              -0.000424981               0.006278412              -0.000697327              -0.000944167               0.002407505               0.001463338               0.000000000               0.000000000               0.000000000               0.000000000              -0.000276480               0.006003059              -0.000571483              -0.000854060               0.002285686               0.001431626               0.000000000               0.000000000               0.000000000               0.000000000              -0.000171911               0.005751999              -0.000442310              -0.000783465               0.002178469               0.001395004               0.000000000               0.000000000               0.000000000               0.000000000              -0.000123955               0.005522183              -0.000310337              -0.000736754               0.002086294               0.001349540               0.000000000               0.000000000               0.000000000               0.000000000              -0.000130186               0.005319493              -0.000182498              -0.000713754               0.002011065               0.001297310               0.000000000               0.000000000               0.000000000               0.000000000              -0.000186478               0.005144136              -0.000076436              -0.000712945               0.001952343               0.001239398               0.000000000               0.000000000               0.000000000               0.000000000              -0.000245563               0.005048053              -0.000024648              -0.000723091               0.001923698               0.001200607               0.000000000               0.000000000               0.000000000               0.000000000              -0.003165385               0.001548758              -0.000411153              -0.001380612               0.000976450              -0.000404162               0.000000000               0.000000000               0.000000000               0.000000000              -0.002696403               0.003270993              -0.001444033              -0.001420023               0.001563660               0.000143637               0.000000000               0.000000000               0.000000000               0.000000000              -0.002657356               0.005047377              -0.002227786              -0.001627427               0.002224917               0.000597490               0.000000000               0.000000000               0.000000000               0.000000000              -0.002373616               0.005988902              -0.002217367              -0.001638716               0.002542519               0.000903803               0.000000000               0.000000000               0.000000000               0.000000000              -0.002033030               0.006474465              -0.002007643              -0.001571691               0.002682030               0.001110339               0.000000000               0.000000000               0.000000000               0.000000000              -0.001692012               0.006685890              -0.001772480              -0.001470238               0.002718687               0.001248449               0.000000000               0.000000000               0.000000000               0.000000000              -0.001367078               0.006733247              -0.001562660              -0.001354307               0.002695829               0.001341521               0.000000000               0.000000000               0.000000000               0.000000000              -0.001069836               0.006680791              -0.001376445              -0.001236285               0.002639003               0.001402718               0.000000000               0.000000000               0.000000000               0.000000000              -0.000804583               0.006564256              -0.001212378              -0.001122248               0.002562146               0.001439898               0.000000000               0.000000000               0.000000000               0.000000000              -0.000572293               0.006393692              -0.001067171              -0.001013819               0.002469149               0.001455330               0.000000000               0.000000000               0.000000000               0.000000000              -0.000365331               0.006188477              -0.000931413              -0.000910557               0.002366324               0.001455767               0.000000000               0.000000000               0.000000000               0.000000000              -0.000187092               0.005968580              -0.000795362              -0.000816230               0.002261583               0.001445353               0.000000000               0.000000000               0.000000000               0.000000000              -0.000049454               0.005748277              -0.000649214              -0.000737078               0.002161766               0.001424688               0.000000000               0.000000000               0.000000000               0.000000000               0.000033220               0.005532361              -0.000490847              -0.000679086               0.002070464               0.001391378               0.000000000               0.000000000               0.000000000               0.000000000               0.000052149               0.005332497              -0.000324985              -0.000647005               0.001993149               0.001346145               0.000000000               0.000000000               0.000000000               0.000000000              -0.000003316               0.005154732              -0.000159285              -0.000645583               0.001933421               0.001287838               0.000000000               0.000000000               0.000000000               0.000000000              -0.000078746               0.005055150              -0.000068639              -0.000661422               0.001905507               0.001244085               0.000000000               0.000000000               0.000000000               0.000000000              -0.004734313               0.000549893               0.000139722              -0.001844102               0.000797993              -0.001046109               0.000000000               0.000000000               0.000000000               0.000000000              -0.003451831               0.002089217              -0.001101640              -0.001555586               0.001214926              -0.000340660               0.000000000               0.000000000               0.000000000               0.000000000              -0.002753955               0.003665100              -0.002130800              -0.001490868               0.001718642               0.000227775               0.000000000               0.000000000               0.000000000               0.000000000              -0.002253292               0.004711238              -0.002273360              -0.001433887               0.002048358               0.000614471               0.000000000               0.000000000               0.000000000               0.000000000              -0.001852400               0.005370648              -0.002144902              -0.001365979               0.002245524               0.000879545               0.000000000               0.000000000               0.000000000               0.000000000              -0.001506811               0.005768952              -0.001946173              -0.001286171               0.002351688               0.001065517               0.000000000               0.000000000               0.000000000               0.000000000              -0.001200289               0.005991060              -0.001744199              -0.001198989               0.002396662               0.001197674               0.000000000               0.000000000               0.000000000               0.000000000              -0.000923660               0.006092120              -0.001555775              -0.001107885               0.002399981               0.001292096               0.000000000               0.000000000               0.000000000               0.000000000              -0.000670355               0.006109816              -0.001385059              -0.001015108               0.002374954               0.001359846               0.000000000               0.000000000               0.000000000               0.000000000              -0.000439256               0.006061515              -0.001234661              -0.000922409               0.002327954               0.001405545               0.000000000               0.000000000               0.000000000               0.000000000              -0.000220726               0.005962720              -0.001097818              -0.000828111               0.002263590               0.001435480               0.000000000               0.000000000               0.000000000               0.000000000              -0.000016782               0.005829921              -0.000958305              -0.000735032               0.002188298               0.001453266               0.000000000               0.000000000               0.000000000               0.000000000               0.000160818               0.005673965              -0.000805771              -0.000648938               0.002107615               0.001458678               0.000000000               0.000000000               0.000000000               0.000000000               0.000302716               0.005503098              -0.000638879              -0.000574367               0.002025803               0.001451436               0.000000000               0.000000000               0.000000000               0.000000000               0.000396034               0.005328784              -0.000449886              -0.000517584               0.001948771               0.001431187               0.000000000               0.000000000               0.000000000               0.000000000               0.000416648               0.005160926              -0.000234912              -0.000488871               0.001883249               0.001394377               0.000000000               0.000000000               0.000000000               0.000000000               0.000390724               0.005071566              -0.000117153              -0.000487423               0.001852980               0.001365556               0.000000000               0.000000000               0.000000000               0.000000000              -0.006259552              -0.000107906               0.000460864              -0.002333842               0.000741974              -0.001591868               0.000000000               0.000000000               0.000000000               0.000000000              -0.004217171               0.001127715              -0.000756802              -0.001722401               0.000950032              -0.000772369               0.000000000               0.000000000               0.000000000               0.000000000              -0.002846876               0.002383478              -0.001821215              -0.001365511               0.001249654              -0.000115857               0.000000000               0.000000000               0.000000000               0.000000000              -0.002086213               0.003429337              -0.002059324              -0.001210995               0.001546765               0.000335770               0.000000000               0.000000000               0.000000000               0.000000000              -0.001592968               0.004200548              -0.002011164              -0.001122430               0.001774311               0.000651881               0.000000000               0.000000000               0.000000000               0.000000000              -0.001229008               0.004745585              -0.001867408              -0.001054075               0.001933203               0.000879129               0.000000000               0.000000000               0.000000000               0.000000000              -0.000934804               0.005121415              -0.001698090              -0.000990727               0.002037363               0.001046636               0.000000000               0.000000000               0.000000000               0.000000000              -0.000675763               0.005373697              -0.001530820              -0.000925122               0.002099588               0.001174466               0.000000000               0.000000000               0.000000000               0.000000000              -0.000434953               0.005522610              -0.001376777              -0.000853432               0.002125329               0.001271897               0.000000000               0.000000000               0.000000000               0.000000000              -0.000205148               0.005595311              -0.001241091              -0.000776343               0.002123866               0.001347523               0.000000000               0.000000000               0.000000000               0.000000000               0.000016575               0.005611193              -0.001116984              -0.000695182               0.002102106               0.001406924               0.000000000               0.000000000               0.000000000               0.000000000               0.000235886               0.005580522              -0.000988550              -0.000609107               0.002063191               0.001454084               0.000000000               0.000000000               0.000000000               0.000000000               0.000455807               0.005511690              -0.000847906              -0.000518033               0.002009889               0.001491857               0.000000000               0.000000000               0.000000000               0.000000000               0.000667159               0.005408860              -0.000691602              -0.000425922               0.001944909               0.001518987               0.000000000               0.000000000               0.000000000               0.000000000               0.000858084               0.005284038              -0.000504090              -0.000338723               0.001874236               0.001535513               0.000000000               0.000000000               0.000000000               0.000000000               0.001016550               0.005147133              -0.000272997              -0.000262185               0.001803089               0.001540904               0.000000000               0.000000000               0.000000000               0.000000000               0.001106968               0.005084578              -0.000150176              -0.000220459               0.001768329               0.001547870               0.000000000               0.000000000               0.000000000               0.000000000              -0.007553189              -0.000486941               0.000515755              -0.002771576               0.000761540              -0.002010037               0.000000000               0.000000000               0.000000000               0.000000000              -0.004887736               0.000426222              -0.000452269              -0.001886177               0.000770794              -0.001115383               0.000000000               0.000000000               0.000000000               0.000000000              -0.002932137               0.001341797              -0.001326353              -0.001267274               0.000869684              -0.000397590               0.000000000               0.000000000               0.000000000               0.000000000              -0.001917563               0.002324988              -0.001568392              -0.001009708               0.001111557               0.000101849               0.000000000               0.000000000               0.000000000               0.000000000              -0.001321891               0.003146679              -0.001573635              -0.000889043               0.001345229               0.000456187               0.000000000               0.000000000               0.000000000               0.000000000              -0.000929777               0.003788582              -0.001486395              -0.000822238               0.001536927               0.000714689               0.000000000               0.000000000               0.000000000               0.000000000              -0.000637086               0.004277429              -0.001367321              -0.000773585               0.001683656               0.000910072               0.000000000               0.000000000               0.000000000               0.000000000              -0.000388703               0.004646803              -0.001244091              -0.000726613               0.001791123               0.001064510               0.000000000               0.000000000               0.000000000               0.000000000              -0.000156774               0.004909303              -0.001129197              -0.000672452               0.001860568               0.001188117               0.000000000               0.000000000               0.000000000               0.000000000               0.000069382               0.005088721              -0.001024835              -0.000610071               0.001899580               0.001289509               0.000000000               0.000000000               0.000000000               0.000000000               0.000294192               0.005204716              -0.000926975              -0.000540267               0.001914977               0.001374710               0.000000000               0.000000000               0.000000000               0.000000000               0.000525928               0.005265757              -0.000828918              -0.000460996               0.001908900               0.001447904               0.000000000               0.000000000               0.000000000               0.000000000               0.000778275               0.005284473              -0.000721895              -0.000368705               0.001884375               0.001515670               0.000000000               0.000000000               0.000000000               0.000000000               0.001051155               0.005263360              -0.000595951              -0.000263736               0.001842348               0.001578612               0.000000000               0.000000000               0.000000000               0.000000000               0.001340728               0.005202502              -0.000442104              -0.000147540               0.001783330               0.001635790               0.000000000               0.000000000               0.000000000               0.000000000               0.001650710               0.005110838              -0.000245549              -0.000019839               0.001710209               0.001690370               0.000000000               0.000000000               0.000000000               0.000000000               0.001879433               0.005085327              -0.000143027               0.000069121               0.001672052               0.001741172               0.000000000               0.000000000               0.000000000               0.000000000              -0.008427410              -0.000665790               0.000329288              -0.003077053               0.000803749              -0.002273304               0.000000000               0.000000000               0.000000000               0.000000000              -0.005351263               0.000005648              -0.000205757              -0.002007428               0.000671021              -0.001336407               0.000000000               0.000000000               0.000000000               0.000000000              -0.002998138               0.000661339              -0.000697970              -0.001206968               0.000622765              -0.000584203               0.000000000               0.000000000               0.000000000               0.000000000              -0.001797819               0.001573412              -0.000849580              -0.000870857               0.000814750              -0.000056107               0.000000000               0.000000000               0.000000000               0.000000000              -0.001121359               0.002407916              -0.000866266              -0.000721498               0.001043130               0.000321632               0.000000000               0.000000000               0.000000000               0.000000000              -0.000698649               0.003098269              -0.000826319              -0.000649276               0.001249171               0.000599895               0.000000000               0.000000000               0.000000000               0.000000000              -0.000396930               0.003652219              -0.000766222              -0.000605375               0.001419186               0.000813811               0.000000000               0.000000000               0.000000000               0.000000000              -0.000149365               0.004095014              -0.000702695              -0.000567887               0.001554287               0.000986399               0.000000000               0.000000000               0.000000000               0.000000000               0.000073542               0.004435157              -0.000641284              -0.000526815               0.001653976               0.001127161               0.000000000               0.000000000               0.000000000               0.000000000               0.000290065               0.004689417              -0.000583583              -0.000477402               0.001722257               0.001244855               0.000000000               0.000000000               0.000000000               0.000000000               0.000513974               0.004872715              -0.000529366              -0.000416348               0.001763005               0.001346656               0.000000000               0.000000000               0.000000000               0.000000000               0.000755189               0.005000124              -0.000476647              -0.000341819               0.001780631               0.001438812               0.000000000               0.000000000               0.000000000               0.000000000               0.001025730               0.005084064              -0.000419567              -0.000250859               0.001778291               0.001527432               0.000000000               0.000000000               0.000000000               0.000000000               0.001337196               0.005126191              -0.000349039              -0.000139325               0.001755155               0.001615830               0.000000000               0.000000000               0.000000000               0.000000000               0.001701845               0.005124284              -0.000261831              -0.000002344               0.001708859               0.001706515               0.000000000               0.000000000               0.000000000               0.000000000               0.002130796               0.005076752              -0.000147131               0.000164453               0.001637416               0.001801869               0.000000000               0.000000000               0.000000000               0.000000000               0.002472029               0.005081968              -0.000087544               0.000291762               0.001596719               0.001888481               0.000000000               0.000000000               0.000000000               0.000000000              -0.008739084              -0.000718092               0.000000000              -0.003187393               0.000823095              -0.002364298               0.000000000               0.000000000               0.000000000               0.000000000              -0.005518533              -0.000135751               0.000000000              -0.002052479               0.000638905              -0.001413574               0.000000000               0.000000000               0.000000000               0.000000000              -0.003023578               0.000425570               0.000000000              -0.001187037               0.000537532              -0.000649505               0.000000000               0.000000000               0.000000000               0.000000000              -0.001755363               0.001306935               0.000000000              -0.000821626               0.000709515              -0.000112111               0.000000000               0.000000000               0.000000000               0.000000000              -0.001050358               0.002138699               0.000000000              -0.000661220               0.000933299               0.000272079               0.000000000               0.000000000               0.000000000               0.000000000              -0.000611706               0.002845744              -0.000000000              -0.000585106               0.001143607               0.000558501               0.000000000               0.000000000               0.000000000               0.000000000              -0.000302198               0.003421590               0.000000000              -0.000541022               0.001320859               0.000779837               0.000000000               0.000000000               0.000000000               0.000000000              -0.000054617               0.003888131               0.000000000              -0.000506497               0.001464863               0.000958366               0.000000000               0.000000000               0.000000000               0.000000000               0.000163205               0.004255259               0.000000000              -0.000470704               0.001575307               0.001104603               0.000000000               0.000000000               0.000000000               0.000000000               0.000375761               0.004536257               0.000000000              -0.000426121               0.001654111               0.001227990               0.000000000               0.000000000               0.000000000               0.000000000               0.000597886               0.004745610              -0.000000000              -0.000368993               0.001704852               0.001335859               0.000000000               0.000000000               0.000000000               0.000000000               0.000842056               0.004899335              -0.000000000              -0.000296645               0.001731977               0.001435332               0.000000000               0.000000000               0.000000000               0.000000000               0.001118060               0.005006461              -0.000000000              -0.000206535               0.001737648               0.001531114               0.000000000               0.000000000               0.000000000               0.000000000               0.001442437               0.005070743               0.000000000              -0.000092929               0.001721207               0.001628278               0.000000000               0.000000000               0.000000000               0.000000000               0.001834388               0.005093574               0.000000000               0.000051198               0.001680775               0.001731973               0.000000000               0.000000000               0.000000000               0.000000000               0.002309403               0.005064536              -0.000000000               0.000232957               0.001610510               0.001843466               0.000000000               0.000000000               0.000000000               0.000000000               0.002695776               0.005080661              -0.000000000               0.000375830               0.001568260               0.001944090               0.000000000               0.000000000               0.000000000               0.000000000               0.000000000               0.000000000               0.000000000               0.000000000               0.000000000               0.000000000               0.000000000               0.000000000               0.000000000               0.000000000               0.000000000               0.000000000               0.000000000               0.000000000               0.000000000               0.000000000               0.000000000               0.000000000               0.000000000               0.000000000               0.000000000               0.000000000               0.000000000               0.000000000               0.000000000               0.000000000               0.000000000               0.000000000               0.000000000               0.000000000               0.000000000               0.000000000               0.000000000               0.000000000               0.000000000               0.000000000               0.000000000               0.000000000               0.000000000               0.000000000               0.000000000               0.000000000               0.000000000               0.000000000               0.000000000               0.000000000               0.000000000               0.000000000               0.000000000               0.000000000               0.000000000               0.000000000               0.000000000               0.000000000               0.000000000               0.000000000               0.000000000               0.000000000               0.000000000               0.000000000               0.000000000               0.000000000               0.000000000               0.000000000               0.000000000               0.000000000               0.000000000               0.000000000               0.000000000               0.000000000               0.000000000               0.000000000               0.000000000               0.000000000               0.000000000               0.000000000               0.000000000               0.000000000               0.000000000               0.000000000               0.000000000               0.000000000               0.000000000               0.000000000               0.000000000               0.000000000               0.000000000               0.000000000               0.000000000               0.000000000               0.000000000               0.000000000               0.000000000               0.000000000               0.000000000               0.000000000               0.000000000               0.000000000               0.000000000               0.000000000               0.000000000               0.000000000               0.000000000               0.000000000               0.000000000               0.000000000               0.000000000               0.000000000               0.000000000               0.000000000               0.000000000               0.000000000               0.000000000               0.000000000               0.000000000               0.000000000               0.000000000               0.000000000               0.000000000               0.000000000               0.000000000               0.000000000               0.000000000               0.000000000               0.000000000               0.000000000               0.000000000               0.000000000               0.000000000               0.000000000               0.000000000               0.000000000               0.000000000               0.000000000               0.000000000               0.000000000               0.000000000               0.000000000               0.000000000               0.000000000               0.000000000               0.000000000               0.000000000               0.000000000               0.000000000               0.000000000               0.000000000               0.000000000               0.000000000               0.000000000               0.000000000               0.000000000               0.000000000               0.000000000               0.000000000               0.000000000               0.000000000               0.000000000               0.000000000               0.000000000               0.000000000               0.000000000               0.000000000               0.000000000               0.000000000               0.000000000               0.000000000               0.000000000               0.000000000               0.000000000               0.002021959               0.020873353               0.001468004              -0.001850930               0.007574692               0.005723761               0.000000000               0.000000000               0.000000000               0.000000000               0.001928988               0.016512727               0.000758051              -0.001340717               0.005951093               0.004610376               0.000000000               0.000000000               0.000000000               0.000000000               0.002449589               0.013028113               0.000049097              -0.000709917               0.004579300               0.003869383               0.000000000               0.000000000               0.000000000               0.000000000               0.002320325               0.011075938              -0.000250073              -0.000514369               0.003863399               0.003349030               0.000000000               0.000000000               0.000000000               0.000000000               0.002011137               0.009854500              -0.000369008              -0.000477635               0.003444012               0.002966377               0.000000000               0.000000000               0.000000000               0.000000000               0.001679105               0.009015998              -0.000411663              -0.000497334               0.003171081               0.002673746               0.000000000               0.000000000               0.000000000               0.000000000               0.001365934               0.008395216              -0.000421396              -0.000537176               0.002977436               0.002440260               0.000000000               0.000000000               0.000000000               0.000000000               0.001084450               0.007898005              -0.000412260              -0.000580581               0.002826169               0.002245588               0.000000000               0.000000000               0.000000000               0.000000000               0.000842475               0.007474603              -0.000395618              -0.000618396               0.002697641               0.002079246               0.000000000               0.000000000               0.000000000               0.000000000               0.000638445               0.007095868              -0.000376847              -0.000647565               0.002581121               0.001933556               0.000000000               0.000000000               0.000000000               0.000000000               0.000469647               0.006736942              -0.000353666              -0.000665999               0.002467624               0.001801626               0.000000000               0.000000000               0.000000000               0.000000000               0.000332636               0.006381450              -0.000326540              -0.000672941               0.002351443               0.001678501               0.000000000               0.000000000               0.000000000               0.000000000               0.000221070               0.006019706              -0.000298274              -0.000669560               0.002229735               0.001560175               0.000000000               0.000000000               0.000000000               0.000000000               0.000130764               0.005644909              -0.000264007              -0.000656575               0.002100476               0.001443901               0.000000000               0.000000000               0.000000000               0.000000000               0.000061987               0.005246308              -0.000211009              -0.000632542               0.001959599               0.001327057               0.000000000               0.000000000               0.000000000               0.000000000               0.000019796               0.004809038              -0.000123534              -0.000593705               0.001800898               0.001207193               0.000000000               0.000000000               0.000000000               0.000000000              -0.000027499               0.004482147              -0.000075289              -0.000570579               0.001684227               0.001113648               0.000000000               0.000000000               0.000000000               0.000000000               0.002208085               0.019640673               0.002736546              -0.001627049               0.007089175               0.005462126               0.000000000               0.000000000               0.000000000               0.000000000               0.001823322               0.015709176               0.001411379              -0.001279898               0.005662972               0.004383074               0.000000000               0.000000000               0.000000000               0.000000000               0.002035519               0.012673750               0.000101473              -0.000820897               0.004498174               0.003677276               0.000000000               0.000000000               0.000000000               0.000000000               0.001796104               0.010950331              -0.000431805              -0.000695251               0.003881824               0.003186573               0.000000000               0.000000000               0.000000000               0.000000000               0.001470803               0.009847528              -0.000638114              -0.000679388               0.003508939               0.002829551               0.000000000               0.000000000               0.000000000               0.000000000               0.001167990               0.009070495              -0.000709837              -0.000695814               0.003255406               0.002559592               0.000000000               0.000000000               0.000000000               0.000000000               0.000902879               0.008473853              -0.000721473              -0.000720650               0.003064806               0.002344156               0.000000000               0.000000000               0.000000000               0.000000000               0.000676346               0.007984272              -0.000701026              -0.000744403               0.002909532               0.002165129               0.000000000               0.000000000               0.000000000               0.000000000               0.000489074               0.007563307              -0.000670311              -0.000762009               0.002775080               0.002013071               0.000000000               0.000000000               0.000000000               0.000000000               0.000339526               0.007183673              -0.000634347              -0.000770635               0.002651412               0.001880777               0.000000000               0.000000000               0.000000000               0.000000000               0.000225528               0.006828021              -0.000590352              -0.000768928               0.002532294               0.001763366               0.000000000               0.000000000               0.000000000               0.000000000               0.000141393               0.006487942              -0.000541686              -0.000757969               0.002415282               0.001657313               0.000000000               0.000000000               0.000000000               0.000000000               0.000081109               0.006158262              -0.000488889              -0.000739365               0.002299188               0.001559823               0.000000000               0.000000000               0.000000000               0.000000000               0.000038704               0.005832849              -0.000423044              -0.000714591               0.002182460               0.001467870               0.000000000               0.000000000               0.000000000               0.000000000               0.000012872               0.005509917              -0.000328549              -0.000683911               0.002064591               0.001380680               0.000000000               0.000000000               0.000000000               0.000000000               0.000000387               0.005194489              -0.000187738              -0.000649164               0.001947867               0.001298703               0.000000000               0.000000000               0.000000000               0.000000000              -0.000022087               0.004987042              -0.000110112              -0.000631661               0.001872884               0.001241223               0.000000000               0.000000000               0.000000000               0.000000000               0.002407930               0.017767099               0.003647369              -0.001317913               0.006361611               0.005043698               0.000000000               0.000000000               0.000000000               0.000000000               0.001615286               0.014507657               0.001889782              -0.001207723               0.005238411               0.004030689               0.000000000               0.000000000               0.000000000               0.000000000               0.001397908               0.012145849               0.000174598              -0.000994013               0.004379914               0.003385900               0.000000000               0.000000000               0.000000000               0.000000000               0.001034687               0.010748264              -0.000492387              -0.000955523               0.003901227               0.002945703               0.000000000               0.000000000               0.000000000               0.000000000               0.000715350               0.009807179              -0.000739814              -0.000957639               0.003588240               0.002630601               0.000000000               0.000000000               0.000000000               0.000000000               0.000469356               0.009111067              -0.000815523              -0.000962873               0.003357950               0.002395077               0.000000000               0.000000000               0.000000000               0.000000000               0.000277307               0.008549599              -0.000819962              -0.000964707               0.003171407               0.002206700               0.000000000               0.000000000               0.000000000               0.000000000               0.000134089               0.008074020              -0.000791681              -0.000958967               0.003010969               0.002052002               0.000000000               0.000000000               0.000000000               0.000000000               0.000037883               0.007658261              -0.000750573              -0.000943074               0.002867086               0.001924012               0.000000000               0.000000000               0.000000000               0.000000000              -0.000025236               0.007281810              -0.000702572              -0.000919688               0.002733808               0.001814121               0.000000000               0.000000000               0.000000000               0.000000000              -0.000059198               0.006936967              -0.000646285              -0.000889318               0.002608738               0.001719420               0.000000000               0.000000000               0.000000000               0.000000000              -0.000072319               0.006620914              -0.000583947              -0.000854732               0.002491860               0.001637128               0.000000000               0.000000000               0.000000000               0.000000000              -0.000076774               0.006330507              -0.000514080              -0.000820102               0.002383515               0.001563413               0.000000000               0.000000000               0.000000000               0.000000000              -0.000068881               0.006066563              -0.000427639              -0.000784149               0.002283550               0.001499402               0.000000000               0.000000000               0.000000000               0.000000000              -0.000048737               0.005831696              -0.000315643              -0.000747236               0.002192958               0.001445721               0.000000000               0.000000000               0.000000000               0.000000000              -0.000025215               0.005636959              -0.000172269              -0.000714074               0.002116992               0.001402919               0.000000000               0.000000000               0.000000000               0.000000000              -0.000021094               0.005532822              -0.000096252              -0.000699511               0.002077426               0.001377915               0.000000000               0.000000000               0.000000000               0.000000000               0.002493980               0.015475067               0.004127331              -0.000999142               0.005491350               0.004492209               0.000000000               0.000000000               0.000000000               0.000000000               0.001280194               0.013070559               0.002174731              -0.001153746               0.004741391               0.003587645               0.000000000               0.000000000               0.000000000               0.000000000               0.000617624               0.011517770               0.000292030              -0.001208109               0.004241921               0.003033812               0.000000000               0.000000000               0.000000000               0.000000000               0.000174222               0.010476543              -0.000402139              -0.001244232               0.003906890               0.002662658               0.000000000               0.000000000               0.000000000               0.000000000              -0.000098318               0.009703632              -0.000646546              -0.001249820               0.003651119               0.002401298               0.000000000               0.000000000               0.000000000               0.000000000              -0.000256502               0.009087804              -0.000714571              -0.001232161               0.003439958               0.002207797               0.000000000               0.000000000               0.000000000               0.000000000              -0.000342033               0.008567870              -0.000713168              -0.001199243               0.003255676               0.002056433               0.000000000               0.000000000               0.000000000               0.000000000              -0.000378496               0.008112973              -0.000682152              -0.001156055               0.003089649               0.001933594               0.000000000               0.000000000               0.000000000               0.000000000              -0.000376521               0.007710392              -0.000639405              -0.001104992               0.002938435               0.001833444               0.000000000               0.000000000               0.000000000               0.000000000              -0.000348899               0.007347091              -0.000588338              -0.001049221               0.002798746               0.001749525               0.000000000               0.000000000               0.000000000               0.000000000              -0.000306877               0.007015836              -0.000528991              -0.000992056               0.002669274               0.001677218               0.000000000               0.000000000               0.000000000               0.000000000              -0.000257744               0.006715814              -0.000466680              -0.000936129               0.002550625               0.001614497               0.000000000               0.000000000               0.000000000               0.000000000              -0.000205986               0.006452228              -0.000401206              -0.000883771               0.002445311               0.001561540               0.000000000               0.000000000               0.000000000               0.000000000              -0.000150918               0.006228381              -0.000322507              -0.000835140               0.002354486               0.001519346               0.000000000               0.000000000               0.000000000               0.000000000              -0.000097687               0.006047297              -0.000225253              -0.000792543               0.002279926               0.001487384               0.000000000               0.000000000               0.000000000               0.000000000              -0.000049456               0.005916238              -0.000114981              -0.000758074               0.002224751               0.001466677               0.000000000               0.000000000               0.000000000               0.000000000              -0.000032550               0.005853422              -0.000061950              -0.000743882               0.002199082               0.001455200               0.000000000               0.000000000               0.000000000               0.000000000               0.002358233               0.013001443               0.004184152              -0.000740845               0.004580719               0.003839873               0.000000000               0.000000000               0.000000000               0.000000000               0.000817560               0.011550889               0.002288550              -0.001137275               0.004229349               0.003092074               0.000000000               0.000000000               0.000000000               0.000000000              -0.000208914               0.010837545               0.000475823              -0.001433032               0.004090156               0.002657124               0.000000000               0.000000000               0.000000000               0.000000000              -0.000656510               0.010133411              -0.000161581              -0.001512864               0.003882058               0.002369194               0.000000000               0.000000000               0.000000000               0.000000000              -0.000824779               0.009510477              -0.000382591              -0.001498098               0.003669493               0.002171395               0.000000000               0.000000000               0.000000000               0.000000000              -0.000859409               0.008964361              -0.000446454              -0.001442820               0.003469030               0.002026210               0.000000000               0.000000000               0.000000000               0.000000000              -0.000828376               0.008484943              -0.000449276              -0.001371255               0.003285371               0.001914116               0.000000000               0.000000000               0.000000000               0.000000000              -0.000757856               0.008057214              -0.000429109              -0.001291345               0.003116160               0.001824815               0.000000000               0.000000000               0.000000000               0.000000000              -0.000662786               0.007669704              -0.000400138              -0.001207255               0.002958961               0.001751706               0.000000000               0.000000000               0.000000000               0.000000000              -0.000561277               0.007312302              -0.000363093              -0.001124514               0.002812248               0.001687734               0.000000000               0.000000000               0.000000000               0.000000000              -0.000460614               0.006985187              -0.000318659              -0.001045876               0.002676998               0.001631122               0.000000000               0.000000000               0.000000000               0.000000000              -0.000363750               0.006692389              -0.000275617              -0.000972953               0.002555092               0.001582139               0.000000000               0.000000000               0.000000000               0.000000000              -0.000275384               0.006438733              -0.000234854              -0.000908109               0.002448926               0.001540817               0.000000000               0.000000000               0.000000000               0.000000000              -0.000194801               0.006227838              -0.000185417              -0.000851528               0.002359768               0.001508240               0.000000000               0.000000000               0.000000000               0.000000000              -0.000123612               0.006062671              -0.000124924              -0.000804186               0.002288932               0.001484746               0.000000000               0.000000000               0.000000000               0.000000000              -0.000059883               0.005941286              -0.000060532              -0.000765115               0.002235447               0.001470332               0.000000000               0.000000000               0.000000000               0.000000000              -0.000040143               0.005874144              -0.000035451              -0.000749320               0.002207802               0.001458482               0.000000000               0.000000000               0.000000000               0.000000000               0.001948814               0.010549739               0.003888251              -0.000587915               0.003712515               0.003124600               0.000000000               0.000000000               0.000000000               0.000000000               0.000252687               0.010061080               0.002279947              -0.001162876               0.003741285               0.002578408               0.000000000               0.000000000               0.000000000               0.000000000              -0.000986780               0.010126117               0.000733278              -0.001635803               0.003920606               0.002284803               0.000000000               0.000000000               0.000000000               0.000000000              -0.001348236               0.009709204               0.000193444              -0.001719235               0.003809447               0.002090213               0.000000000               0.000000000               0.000000000               0.000000000              -0.001373983               0.009215161              -0.000008854              -0.001667135               0.003627401               0.001960266               0.000000000               0.000000000               0.000000000               0.000000000              -0.001271004               0.008742230              -0.000085026              -0.001569401               0.003437181               0.001867780               0.000000000               0.000000000               0.000000000               0.000000000              -0.001119299               0.008308760              -0.000112902              -0.001458329               0.003255669               0.001797340               0.000000000               0.000000000               0.000000000               0.000000000              -0.000953945               0.007898129              -0.000120030              -0.001344992               0.003081014               0.001736022               0.000000000               0.000000000               0.000000000               0.000000000              -0.000793702               0.007507167              -0.000117421              -0.001236031               0.002914374               0.001678343               0.000000000               0.000000000               0.000000000               0.000000000              -0.000645024               0.007140639              -0.000107085              -0.001134461               0.002758343               0.001623882               0.000000000               0.000000000               0.000000000               0.000000000              -0.000508754               0.006805846              -0.000091709              -0.001041511               0.002615763               0.001574252               0.000000000               0.000000000               0.000000000               0.000000000              -0.000387355               0.006511173              -0.000081277              -0.000959152               0.002490087               0.001530934               0.000000000               0.000000000               0.000000000               0.000000000              -0.000282841               0.006260942              -0.000077269              -0.000888681               0.002383187               0.001494506               0.000000000               0.000000000               0.000000000               0.000000000              -0.000194171               0.006055311              -0.000069374              -0.000829726               0.002294992               0.001465266               0.000000000               0.000000000               0.000000000               0.000000000              -0.000119311               0.005891443              -0.000051144              -0.000781170               0.002224185               0.001443015               0.000000000               0.000000000               0.000000000               0.000000000              -0.000055743               0.005761664              -0.000025083              -0.000741110               0.002167572               0.001426462               0.000000000               0.000000000               0.000000000               0.000000000              -0.000041719               0.005681945              -0.000020284              -0.000725886               0.002135925               0.001410039               0.000000000               0.000000000               0.000000000               0.000000000               0.001294305               0.008273001               0.003332926              -0.000548763               0.002940559               0.002391796               0.000000000               0.000000000               0.000000000               0.000000000              -0.000375764               0.008684899               0.002193492              -0.001226522               0.003303778               0.002077255               0.000000000               0.000000000               0.000000000               0.000000000              -0.001639377               0.009392923               0.001052273              -0.001788878               0.003727236               0.001938358               0.000000000               0.000000000               0.000000000               0.000000000              -0.001838438               0.009208640               0.000605869              -0.001840490               0.003683013               0.001842523               0.000000000               0.000000000               0.000000000               0.000000000              -0.001702983               0.008841330               0.000395863              -0.001743780               0.003528341               0.001784560               0.000000000               0.000000000               0.000000000               0.000000000              -0.001471211               0.008444125               0.000284276              -0.001607216               0.003350419               0.001743203               0.000000000               0.000000000               0.000000000               0.000000000              -0.001229911               0.008036694               0.000217468              -0.001465800               0.003167471               0.001701671               0.000000000               0.000000000               0.000000000               0.000000000              -0.001004293               0.007628695               0.000178472              -0.001330194               0.002986271               0.001656077               0.000000000               0.000000000               0.000000000               0.000000000              -0.000801060               0.007230331               0.000149361              -0.001204186               0.002811482               0.001607296               0.000000000               0.000000000               0.000000000               0.000000000              -0.000624526               0.006853401               0.000123895              -0.001090870               0.002648067               0.001557198               0.000000000               0.000000000               0.000000000               0.000000000              -0.000471571               0.006513352               0.000098252              -0.000991006               0.002501431               0.001510425               0.000000000               0.000000000               0.000000000               0.000000000              -0.000342312               0.006220735               0.000063824              -0.000905957               0.002375543               0.001469586               0.000000000               0.000000000               0.000000000               0.000000000              -0.000240646               0.005975220               0.000023661              -0.000837143               0.002270768               0.001433625               0.000000000               0.000000000               0.000000000               0.000000000              -0.000160858               0.005773158              -0.000008464              -0.000781964               0.002185022               0.001403057               0.000000000               0.000000000               0.000000000               0.000000000              -0.000097414               0.005609412              -0.000023283              -0.000737705               0.002115687               0.001377982               0.000000000               0.000000000               0.000000000               0.000000000              -0.000047846               0.005480452              -0.000019219              -0.000702997               0.002061131               0.001358134               0.000000000               0.000000000               0.000000000               0.000000000              -0.000035335               0.005406699              -0.000019602              -0.000689086               0.002031910               0.001342824               0.000000000               0.000000000               0.000000000               0.000000000               0.000499150               0.006338099               0.002624931              -0.000605082               0.002314371               0.001709290               0.000000000               0.000000000               0.000000000               0.000000000              -0.000979224               0.007450859               0.002076227              -0.001298564               0.002916449               0.001617885               0.000000000               0.000000000               0.000000000               0.000000000              -0.002126001               0.008668690               0.001422089              -0.001880832               0.003516478               0.001635646               0.000000000               0.000000000               0.000000000               0.000000000              -0.002153324               0.008732107               0.001036362              -0.001899005               0.003543675               0.001644669               0.000000000               0.000000000               0.000000000               0.000000000              -0.001888572               0.008508733               0.000795288              -0.001771802               0.003426816               0.001655015               0.000000000               0.000000000               0.000000000               0.000000000              -0.001564655               0.008181009               0.000637461              -0.001609368               0.003263432               0.001654064               0.000000000               0.000000000               0.000000000               0.000000000              -0.001260193               0.007803459               0.000529123              -0.001448001               0.003083794               0.001635793               0.000000000               0.000000000               0.000000000               0.000000000              -0.000987885               0.007408376               0.000454547              -0.001296501               0.002901601               0.001605100               0.000000000               0.000000000               0.000000000               0.000000000              -0.000752631               0.007015472               0.000393705              -0.001159168               0.002724857               0.001565689               0.000000000               0.000000000               0.000000000               0.000000000              -0.000554004               0.006643948               0.000331742              -0.001038242               0.002560708               0.001522466               0.000000000               0.000000000               0.000000000               0.000000000              -0.000391856               0.006307856               0.000262644              -0.000935426               0.002414406               0.001478980               0.000000000               0.000000000               0.000000000               0.000000000              -0.000269930               0.006018214               0.000186801              -0.000853498               0.002290551               0.001437052               0.000000000               0.000000000               0.000000000               0.000000000              -0.000187289               0.005772363               0.000109601              -0.000791777               0.002188027               0.001396251               0.000000000               0.000000000               0.000000000               0.000000000              -0.000134013               0.005563911               0.000043646              -0.000745742               0.002103199               0.001357457               0.000000000               0.000000000               0.000000000               0.000000000              -0.000105642               0.005384054              -0.000001533              -0.000712621               0.002032207               0.001319586               0.000000000               0.000000000               0.000000000               0.000000000              -0.000095145               0.005236155              -0.000017890              -0.000690197               0.001975433               0.001285236               0.000000000               0.000000000               0.000000000               0.000000000              -0.000089223               0.005164833              -0.000018743              -0.000679061               0.001947948               0.001268886               0.000000000               0.000000000               0.000000000               0.000000000              -0.000450780               0.004533511               0.001866013              -0.000735731               0.001756398               0.001020667               0.000000000               0.000000000               0.000000000               0.000000000              -0.001468077               0.006026288               0.001939542              -0.001303813               0.002443346               0.001139534               0.000000000               0.000000000               0.000000000               0.000000000              -0.002380286               0.007612068               0.001813064              -0.001844112               0.003152034               0.001307922               0.000000000               0.000000000               0.000000000               0.000000000              -0.002322386               0.008019242               0.001499857              -0.001873296               0.003297486               0.001424190               0.000000000               0.000000000               0.000000000               0.000000000              -0.002017255               0.008024543               0.001231596              -0.001759535               0.003261332               0.001501798               0.000000000               0.000000000               0.000000000               0.000000000              -0.001664450               0.007846877               0.001022124              -0.001605025               0.003150608               0.001545583               0.000000000               0.000000000               0.000000000               0.000000000              -0.001333750               0.007578209               0.000866289              -0.001447429               0.003008520               0.001561092               0.000000000               0.000000000               0.000000000               0.000000000              -0.001041316               0.007260368               0.000749902              -0.001298037               0.002852777               0.001554741               0.000000000               0.000000000               0.000000000               0.000000000              -0.000789824               0.006925853               0.000650454              -0.001161913               0.002695899               0.001533986               0.000000000               0.000000000               0.000000000               0.000000000              -0.000581184               0.006589506               0.000554793              -0.001041630               0.002543690               0.001502060               0.000000000               0.000000000               0.000000000               0.000000000              -0.000415917               0.006265073               0.000453238              -0.000939101               0.002401370               0.001462270               0.000000000               0.000000000               0.000000000               0.000000000              -0.000292699               0.005970316               0.000346454              -0.000856050               0.002275435               0.001419386               0.000000000               0.000000000               0.000000000               0.000000000              -0.000212234               0.005717244               0.000241169              -0.000794241               0.002170476               0.001376235               0.000000000               0.000000000               0.000000000               0.000000000              -0.000170375               0.005501036               0.000142704              -0.000751518               0.002084167               0.001332648               0.000000000               0.000000000               0.000000000               0.000000000              -0.000162400               0.005310571               0.000059044              -0.000724720               0.002011746               0.001287026               0.000000000               0.000000000               0.000000000               0.000000000              -0.000179611               0.005143842               0.000009863              -0.000710333               0.001951374               0.001241042               0.000000000               0.000000000               0.000000000               0.000000000              -0.000193359               0.005060346              -0.000004481              -0.000705051               0.001921782               0.001216731               0.000000000               0.000000000               0.000000000               0.000000000              -0.001700777               0.002899292               0.001108501              -0.001000201               0.001299821               0.000299620               0.000000000               0.000000000               0.000000000               0.000000000              -0.002022089               0.004605674               0.001735110              -0.001333990               0.001979872               0.000645882               0.000000000               0.000000000               0.000000000               0.000000000              -0.002543803               0.006399340               0.002114577              -0.001753840               0.002717705               0.000963865               0.000000000               0.000000000               0.000000000               0.000000000              -0.002407459               0.007123028               0.001935190              -0.001793172               0.002972042               0.001178871               0.000000000               0.000000000               0.000000000               0.000000000              -0.002093097               0.007379705               0.001673168              -0.001707371               0.003029000               0.001321629               0.000000000               0.000000000               0.000000000               0.000000000              -0.001743600               0.007389026               0.001433973              -0.001577475               0.002988809               0.001411334               0.000000000               0.000000000               0.000000000               0.000000000              -0.001404258               0.007269559               0.001238816              -0.001435289               0.002901592               0.001466303               0.000000000               0.000000000               0.000000000               0.000000000              -0.001099880               0.007073583               0.001079485              -0.001296650               0.002790054               0.001493404               0.000000000               0.000000000               0.000000000               0.000000000              -0.000836343               0.006834174               0.000943528              -0.001167898               0.002667334               0.001499436               0.000000000               0.000000000               0.000000000               0.000000000              -0.000611127               0.006563090               0.000819903              -0.001049557               0.002537527               0.001487970               0.000000000               0.000000000               0.000000000               0.000000000              -0.000424981               0.006278412               0.000697327              -0.000944167               0.002407505               0.001463338               0.000000000               0.000000000               0.000000000               0.000000000              -0.000276480               0.006003059               0.000571483              -0.000854060               0.002285686               0.001431626               0.000000000               0.000000000               0.000000000               0.000000000              -0.000171911               0.005751999               0.000442310              -0.000783465               0.002178469               0.001395004               0.000000000               0.000000000               0.000000000               0.000000000              -0.000123955               0.005522183               0.000310337              -0.000736754               0.002086294               0.001349540               0.000000000               0.000000000               0.000000000               0.000000000              -0.000130186               0.005319493               0.000182498              -0.000713754               0.002011065               0.001297310               0.000000000               0.000000000               0.000000000               0.000000000              -0.000186478               0.005144136               0.000076436              -0.000712945               0.001952343               0.001239398               0.000000000               0.000000000               0.000000000               0.000000000              -0.000245563               0.005048053               0.000024648              -0.000723091               0.001923698               0.001200607               0.000000000               0.000000000               0.000000000               0.000000000              -0.003165385               0.001548758               0.000411153              -0.001380612               0.000976450              -0.000404162               0.000000000               0.000000000               0.000000000               0.000000000              -0.002696403               0.003270993               0.001444033              -0.001420023               0.001563660               0.000143637               0.000000000               0.000000000               0.000000000               0.000000000              -0.002657356               0.005047377               0.002227786              -0.001627427               0.002224917               0.000597490               0.000000000               0.000000000               0.000000000               0.000000000              -0.002373616               0.005988902               0.002217367              -0.001638716               0.002542519               0.000903803               0.000000000               0.000000000               0.000000000               0.000000000              -0.002033030               0.006474465               0.002007643              -0.001571691               0.002682030               0.001110339               0.000000000               0.000000000               0.000000000               0.000000000              -0.001692012               0.006685890               0.001772480              -0.001470238               0.002718687               0.001248449               0.000000000               0.000000000               0.000000000               0.000000000              -0.001367078               0.006733247               0.001562660              -0.001354307               0.002695829               0.001341521               0.000000000               0.000000000               0.000000000               0.000000000              -0.001069836               0.006680791               0.001376445              -0.001236285               0.002639003               0.001402718               0.000000000               0.000000000               0.000000000               0.000000000              -0.000804583               0.006564256               0.001212378              -0.001122248               0.002562146               0.001439898               0.000000000               0.000000000               0.000000000               0.000000000              -0.000572293               0.006393692               0.001067171              -0.001013819               0.002469149               0.001455330               0.000000000               0.000000000               0.000000000               0.000000000              -0.000365331               0.006188477               0.000931413              -0.000910557               0.002366324               0.001455767               0.000000000               0.000000000               0.000000000               0.000000000              -0.000187092               0.005968580               0.000795362              -0.000816230               0.002261583               0.001445353               0.000000000               0.000000000               0.000000000               0.000000000              -0.000049454               0.005748277               0.000649214              -0.000737078               0.002161766               0.001424688               0.000000000               0.000000000               0.000000000               0.000000000               0.000033220               0.005532361               0.000490847              -0.000679086               0.002070464               0.001391378               0.000000000               0.000000000               0.000000000               0.000000000               0.000052149               0.005332497               0.000324985              -0.000647005               0.001993149               0.001346145               0.000000000               0.000000000               0.000000000               0.000000000              -0.000003316               0.005154732               0.000159285              -0.000645583               0.001933421               0.001287838               0.000000000               0.000000000               0.000000000               0.000000000              -0.000078746               0.005055150               0.000068639              -0.000661422               0.001905507               0.001244085               0.000000000               0.000000000               0.000000000               0.000000000              -0.004734313               0.000549893              -0.000139722              -0.001844102               0.000797993              -0.001046109               0.000000000               0.000000000               0.000000000               0.000000000              -0.003451831               0.002089217               0.001101640              -0.001555586               0.001214926              -0.000340660               0.000000000               0.000000000               0.000000000               0.000000000              -0.002753955               0.003665100               0.002130800              -0.001490868               0.001718642               0.000227775               0.000000000               0.000000000               0.000000000               0.000000000              -0.002253292               0.004711238               0.002273360              -0.001433887               0.002048358               0.000614471               0.000000000               0.000000000               0.000000000               0.000000000              -0.001852400               0.005370648               0.002144902              -0.001365979               0.002245524               0.000879545               0.000000000               0.000000000               0.000000000               0.000000000              -0.001506811               0.005768952               0.001946173              -0.001286171               0.002351688               0.001065517               0.000000000               0.000000000               0.000000000               0.000000000              -0.001200289               0.005991060               0.001744199              -0.001198989               0.002396662               0.001197674               0.000000000               0.000000000               0.000000000               0.000000000              -0.000923660               0.006092120               0.001555775              -0.001107885               0.002399981               0.001292096               0.000000000               0.000000000               0.000000000               0.000000000              -0.000670355               0.006109816               0.001385059              -0.001015108               0.002374954               0.001359846               0.000000000               0.000000000               0.000000000               0.000000000              -0.000439256               0.006061515               0.001234661              -0.000922409               0.002327954               0.001405545               0.000000000               0.000000000               0.000000000               0.000000000              -0.000220726               0.005962720               0.001097818              -0.000828111               0.002263590               0.001435480               0.000000000               0.000000000               0.000000000               0.000000000              -0.000016782               0.005829921               0.000958305              -0.000735032               0.002188298               0.001453266               0.000000000               0.000000000               0.000000000               0.000000000               0.000160818               0.005673965               0.000805771              -0.000648938               0.002107615               0.001458678               0.000000000               0.000000000               0.000000000               0.000000000               0.000302716               0.005503098               0.000638879              -0.000574367               0.002025803               0.001451436               0.000000000               0.000000000               0.000000000               0.000000000               0.000396034               0.005328784               0.000449886              -0.000517584               0.001948771               0.001431187               0.000000000               0.000000000               0.000000000               0.000000000               0.000416648               0.005160926               0.000234912              -0.000488871               0.001883249               0.001394377               0.000000000               0.000000000               0.000000000               0.000000000               0.000390724               0.005071566               0.000117153              -0.000487423               0.001852980               0.001365556               0.000000000               0.000000000               0.000000000               0.000000000              -0.006259552              -0.000107906              -0.000460864              -0.002333842               0.000741974              -0.001591868               0.000000000               0.000000000               0.000000000               0.000000000              -0.004217171               0.001127715               0.000756802              -0.001722401               0.000950032              -0.000772369               0.000000000               0.000000000               0.000000000               0.000000000              -0.002846876               0.002383478               0.001821215              -0.001365511               0.001249654              -0.000115857               0.000000000               0.000000000               0.000000000               0.000000000              -0.002086213               0.003429337               0.002059324              -0.001210995               0.001546765               0.000335770               0.000000000               0.000000000               0.000000000               0.000000000              -0.001592968               0.004200548               0.002011164              -0.001122430               0.001774311               0.000651881               0.000000000               0.000000000               0.000000000               0.000000000              -0.001229008               0.004745585               0.001867408              -0.001054075               0.001933203               0.000879129               0.000000000               0.000000000               0.000000000               0.000000000              -0.000934804               0.005121415               0.001698090              -0.000990727               0.002037363               0.001046636               0.000000000               0.000000000               0.000000000               0.000000000              -0.000675763               0.005373697               0.001530820              -0.000925122               0.002099588               0.001174466               0.000000000               0.000000000               0.000000000               0.000000000              -0.000434953               0.005522610               0.001376777              -0.000853432               0.002125329               0.001271897               0.000000000               0.000000000               0.000000000               0.000000000              -0.000205148               0.005595311               0.001241091              -0.000776343               0.002123866               0.001347523               0.000000000               0.000000000               0.000000000               0.000000000               0.000016575               0.005611193               0.001116984              -0.000695182               0.002102106               0.001406924               0.000000000               0.000000000               0.000000000               0.000000000               0.000235886               0.005580522               0.000988550              -0.000609107               0.002063191               0.001454084               0.000000000               0.000000000               0.000000000               0.000000000               0.000455807               0.005511690               0.000847906              -0.000518033               0.002009889               0.001491857               0.000000000               0.000000000               0.000000000               0.000000000               0.000667159               0.005408860               0.000691602              -0.000425922               0.001944909               0.001518987               0.000000000               0.000000000               0.000000000               0.000000000               0.000858084               0.005284038               0.000504090              -0.000338723               0.001874236               0.001535513               0.000000000               0.000000000               0.000000000               0.000000000               0.001016550               0.005147133               0.000272997              -0.000262185               0.001803089               0.001540904               0.000000000               0.000000000               0.000000000               0.000000000               0.001106968               0.005084578               0.000150176              -0.000220459               0.001768329               0.001547870               0.000000000               0.000000000               0.000000000               0.000000000              -0.007553189              -0.000486941              -0.000515755              -0.002771576               0.000761540              -0.002010037               0.000000000               0.000000000               0.000000000               0.000000000              -0.004887736               0.000426222               0.000452269              -0.001886177               0.000770794              -0.001115383               0.000000000               0.000000000               0.000000000               0.000000000              -0.002932137               0.001341797               0.001326353              -0.001267274               0.000869684              -0.000397590               0.000000000               0.000000000               0.000000000               0.000000000              -0.001917563               0.002324988               0.001568392              -0.001009708               0.001111557               0.000101849               0.000000000               0.000000000               0.000000000               0.000000000              -0.001321891               0.003146679               0.001573635              -0.000889043               0.001345229               0.000456187               0.000000000               0.000000000               0.000000000               0.000000000              -0.000929777               0.003788582               0.001486395              -0.000822238               0.001536927               0.000714689               0.000000000               0.000000000               0.000000000               0.000000000              -0.000637086               0.004277429               0.001367321              -0.000773585               0.001683656               0.000910072               0.000000000               0.000000000               0.000000000               0.000000000              -0.000388703               0.004646803               0.001244091              -0.000726613               0.001791123               0.001064510               0.000000000               0.000000000               0.000000000               0.000000000              -0.000156774               0.004909303               0.001129197              -0.000672452               0.001860568               0.001188117               0.000000000               0.000000000               0.000000000               0.000000000               0.000069382               0.005088721               0.001024835              -0.000610071               0.001899580               0.001289509               0.000000000               0.000000000               0.000000000               0.000000000               0.000294192               0.005204716               0.000926975              -0.000540267               0.001914977               0.001374710               0.000000000               0.000000000               0.000000000               0.000000000               0.000525928               0.005265757               0.000828918              -0.000460996               0.001908900               0.001447904               0.000000000               0.000000000               0.000000000               0.000000000               0.000778275               0.005284473               0.000721895              -0.000368705               0.001884375               0.001515670               0.000000000               0.000000000               0.000000000               0.000000000               0.001051155               0.005263360               0.000595951              -0.000263736               0.001842348               0.001578612               0.000000000               0.000000000               0.000000000               0.000000000               0.001340728               0.005202502               0.000442104              -0.000147540               0.001783330               0.001635790               0.000000000               0.000000000               0.000000000               0.000000000               0.001650710               0.005110838               0.000245549              -0.000019839               0.001710209               0.001690370               0.000000000               0.000000000               0.000000000               0.000000000               0.001879433               0.005085327               0.000143027               0.000069121               0.001672052               0.001741172               0.000000000               0.000000000               0.000000000               0.000000000              -0.008427410              -0.000665790              -0.000329288              -0.003077053               0.000803749              -0.002273304               0.000000000               0.000000000               0.000000000               0.000000000              -0.005351263               0.000005648               0.000205757              -0.002007428               0.000671021              -0.001336407               0.000000000               0.000000000               0.000000000               0.000000000              -0.002998138               0.000661339               0.000697970              -0.001206968               0.000622765              -0.000584203               0.000000000               0.000000000               0.000000000               0.000000000              -0.001797819               0.001573412               0.000849580              -0.000870857               0.000814750              -0.000056107               0.000000000               0.000000000               0.000000000               0.000000000              -0.001121359               0.002407916               0.000866266              -0.000721498               0.001043130               0.000321632               0.000000000               0.000000000               0.000000000               0.000000000              -0.000698649               0.003098269               0.000826319              -0.000649276               0.001249171               0.000599895               0.000000000               0.000000000               0.000000000               0.000000000              -0.000396930               0.003652219               0.000766222              -0.000605375               0.001419186               0.000813811               0.000000000               0.000000000               0.000000000               0.000000000              -0.000149365               0.004095014               0.000702695              -0.000567887               0.001554287               0.000986399               0.000000000               0.000000000               0.000000000               0.000000000               0.000073542               0.004435157               0.000641284              -0.000526815               0.001653976               0.001127161               0.000000000               0.000000000               0.000000000               0.000000000               0.000290065               0.004689417               0.000583583              -0.000477402               0.001722257               0.001244855               0.000000000               0.000000000               0.000000000               0.000000000               0.000513974               0.004872715               0.000529366              -0.000416348               0.001763005               0.001346656               0.000000000               0.000000000               0.000000000               0.000000000               0.000755189               0.005000124               0.000476647              -0.000341819               0.001780631               0.001438812               0.000000000               0.000000000               0.000000000               0.000000000               0.001025730               0.005084064               0.000419567              -0.000250859               0.001778291               0.001527432               0.000000000               0.000000000               0.000000000               0.000000000               0.001337196               0.005126191               0.000349039              -0.000139325               0.001755155               0.001615830               0.000000000               0.000000000               0.000000000               0.000000000               0.001701845               0.005124284               0.000261831              -0.000002344               0.001708859               0.001706515               0.000000000               0.000000000               0.000000000               0.000000000               0.002130796               0.005076752               0.000147131               0.000164453               0.001637416               0.001801869               0.000000000               0.000000000               0.000000000               0.000000000               0.002472029               0.005081968               0.000087544               0.000291762               0.001596719               0.001888481               0.000000000               0.000000000               0.000000000               0.000000000              -0.008739084              -0.000718092              -0.000000000              -0.003187393               0.000823095              -0.002364298               0.000000000               0.000000000               0.000000000               0.000000000              -0.005518533              -0.000135751               0.000000000              -0.002052479               0.000638905              -0.001413574               0.000000000               0.000000000               0.000000000               0.000000000              -0.003023578               0.000425570               0.000000000              -0.001187037               0.000537532              -0.000649505               0.000000000               0.000000000               0.000000000               0.000000000              -0.001755363               0.001306935               0.000000000              -0.000821626               0.000709515              -0.000112111               0.000000000               0.000000000               0.000000000               0.000000000              -0.001050358               0.002138699               0.000000000              -0.000661220               0.000933299               0.000272079               0.000000000               0.000000000               0.000000000               0.000000000              -0.000611706               0.002845744              -0.000000000              -0.000585106               0.001143607               0.000558501               0.000000000               0.000000000               0.000000000               0.000000000              -0.000302198               0.003421590              -0.000000000              -0.000541022               0.001320859               0.000779837               0.000000000               0.000000000               0.000000000               0.000000000              -0.000054617               0.003888131              -0.000000000              -0.000506497               0.001464863               0.000958366               0.000000000               0.000000000               0.000000000               0.000000000               0.000163205               0.004255259               0.000000000              -0.000470704               0.001575307               0.001104603               0.000000000               0.000000000               0.000000000               0.000000000               0.000375761               0.004536257               0.000000000              -0.000426121               0.001654111               0.001227990               0.000000000               0.000000000               0.000000000               0.000000000               0.000597886               0.004745610               0.000000000              -0.000368993               0.001704852               0.001335859               0.000000000               0.000000000               0.000000000               0.000000000               0.000842056               0.004899335              -0.000000000              -0.000296645               0.001731977               0.001435332               0.000000000               0.000000000               0.000000000               0.000000000               0.001118060               0.005006461              -0.000000000              -0.000206535               0.001737648               0.001531114               0.000000000               0.000000000               0.000000000               0.000000000               0.001442437               0.005070743               0.000000000              -0.000092929               0.001721207               0.001628278               0.000000000               0.000000000               0.000000000               0.000000000               0.001834388               0.005093574               0.000000000               0.000051198               0.001680775               0.001731973               0.000000000               0.000000000               0.000000000               0.000000000               0.002309403               0.005064536              -0.000000000               0.000232957               0.001610510               0.001843466               0.000000000               0.000000000               0.000000000               0.000000000               0.002695776               0.005080661               0.000000000               0.000375830               0.001568260               0.001944090               0.000000000               0.000000000               0.000000000               0.000000000               0.001949342               0.021304781               0.000000000              -0.001932090               0.007745553               0.005813463               0.000000000               0.000000000               0.000000000               0.000000000               0.001962941               0.016796023              -0.000000000              -0.001363397               0.006053084               0.004689687               0.000000000               0.000000000               0.000000000               0.000000000               0.002592616               0.013152280              -0.000000000              -0.000671802               0.004607983               0.003936181               0.000000000               0.000000000               0.000000000               0.000000000               0.002503750               0.011118460              -0.000000000              -0.000450900               0.003856416               0.003405516               0.000000000               0.000000000               0.000000000               0.000000000               0.002207774               0.009853307               0.000000000              -0.000403747               0.003418985               0.003015238               0.000000000               0.000000000               0.000000000               0.000000000               0.001870072               0.008991920               0.000000000              -0.000422712               0.003138181               0.002715469               0.000000000               0.000000000               0.000000000               0.000000000               0.001537300               0.008360356              -0.000000000              -0.000468556               0.002942943               0.002474387               0.000000000               0.000000000               0.000000000               0.000000000               0.001236269               0.007862023               0.000000000              -0.000519151               0.002793698               0.002274548               0.000000000               0.000000000               0.000000000               0.000000000               0.000974248               0.007435454              -0.000000000              -0.000564087               0.002666489               0.002102402               0.000000000               0.000000000               0.000000000               0.000000000               0.000749370               0.007052759              -0.000000000              -0.000600580               0.002551090               0.001950510               0.000000000               0.000000000               0.000000000               0.000000000               0.000564016               0.006693940               0.000000000              -0.000625235               0.002439703               0.001814468               0.000000000               0.000000000               0.000000000               0.000000000               0.000411107               0.006337982               0.000000000              -0.000638081               0.002325333               0.001687252               0.000000000               0.000000000               0.000000000               0.000000000               0.000281044               0.005970111               0.000000000              -0.000640871               0.002203641               0.001562770               0.000000000               0.000000000               0.000000000               0.000000000               0.000166948               0.005580210               0.000000000              -0.000634919               0.002071691               0.001436772               0.000000000               0.000000000               0.000000000               0.000000000               0.000074698               0.005152880              -0.000000000              -0.000616097               0.001922975               0.001306878               0.000000000               0.000000000               0.000000000               0.000000000               0.000023043               0.004665555              -0.000000000              -0.000574552               0.001746687               0.001172135               0.000000000               0.000000000               0.000000000               0.000000000              -0.000031125               0.004286901              -0.000000000              -0.000547533               0.001611464               0.001063931               0.000000000               0.000000000               0.000000000               0.000000000               0.002021959               0.020873353              -0.001468004              -0.001850930               0.007574692               0.005723761               0.000000000               0.000000000               0.000000000               0.000000000               0.001928988               0.016512727              -0.000758051              -0.001340717               0.005951093               0.004610376               0.000000000               0.000000000               0.000000000               0.000000000               0.002449589               0.013028113              -0.000049097              -0.000709917               0.004579300               0.003869383               0.000000000               0.000000000               0.000000000               0.000000000               0.002320325               0.011075938               0.000250073              -0.000514369               0.003863399               0.003349030               0.000000000               0.000000000               0.000000000               0.000000000               0.002011137               0.009854500               0.000369008              -0.000477635               0.003444012               0.002966377               0.000000000               0.000000000               0.000000000               0.000000000               0.001679105               0.009015998               0.000411663              -0.000497334               0.003171081               0.002673746               0.000000000               0.000000000               0.000000000               0.000000000               0.001365934               0.008395216               0.000421396              -0.000537176               0.002977436               0.002440260               0.000000000               0.000000000               0.000000000               0.000000000               0.001084450               0.007898005               0.000412260              -0.000580581               0.002826169               0.002245588               0.000000000               0.000000000               0.000000000               0.000000000               0.000842475               0.007474603               0.000395618              -0.000618396               0.002697641               0.002079246               0.000000000               0.000000000               0.000000000               0.000000000               0.000638445               0.007095868               0.000376847              -0.000647565               0.002581121               0.001933556               0.000000000               0.000000000               0.000000000               0.000000000               0.000469647               0.006736942               0.000353666              -0.000665999               0.002467624               0.001801626               0.000000000               0.000000000               0.000000000               0.000000000               0.000332636               0.006381450               0.000326540              -0.000672941               0.002351443               0.001678501               0.000000000               0.000000000               0.000000000               0.000000000               0.000221070               0.006019706               0.000298274              -0.000669560               0.002229735               0.001560175               0.000000000               0.000000000               0.000000000               0.000000000               0.000130764               0.005644909               0.000264007              -0.000656575               0.002100476               0.001443901               0.000000000               0.000000000               0.000000000               0.000000000               0.000061987               0.005246308               0.000211009              -0.000632542               0.001959599               0.001327057               0.000000000               0.000000000               0.000000000               0.000000000               0.000019796               0.004809038               0.000123534              -0.000593705               0.001800898               0.001207193               0.000000000               0.000000000               0.000000000               0.000000000              -0.000027499               0.004482147               0.000075289              -0.000570579               0.001684227               0.001113648               0.000000000               0.000000000               0.000000000               0.000000000               0.002208085               0.019640673              -0.002736546              -0.001627049               0.007089175               0.005462126               0.000000000               0.000000000               0.000000000               0.000000000               0.001823322               0.015709176              -0.001411379              -0.001279898               0.005662972               0.004383074               0.000000000               0.000000000               0.000000000               0.000000000               0.002035519               0.012673750              -0.000101473              -0.000820897               0.004498174               0.003677276               0.000000000               0.000000000               0.000000000               0.000000000               0.001796104               0.010950331               0.000431805              -0.000695251               0.003881824               0.003186573               0.000000000               0.000000000               0.000000000               0.000000000               0.001470803               0.009847528               0.000638114              -0.000679388               0.003508939               0.002829551               0.000000000               0.000000000               0.000000000               0.000000000               0.001167990               0.009070495               0.000709837              -0.000695814               0.003255406               0.002559592               0.000000000               0.000000000               0.000000000               0.000000000               0.000902879               0.008473853               0.000721473              -0.000720650               0.003064806               0.002344156               0.000000000               0.000000000               0.000000000               0.000000000               0.000676346               0.007984272               0.000701026              -0.000744403               0.002909532               0.002165129               0.000000000               0.000000000               0.000000000               0.000000000               0.000489074               0.007563307               0.000670311              -0.000762009               0.002775080               0.002013071               0.000000000               0.000000000               0.000000000               0.000000000               0.000339526               0.007183673               0.000634347              -0.000770635               0.002651412               0.001880777               0.000000000               0.000000000               0.000000000               0.000000000               0.000225528               0.006828021               0.000590352              -0.000768928               0.002532294               0.001763366               0.000000000               0.000000000               0.000000000               0.000000000               0.000141393               0.006487942               0.000541686              -0.000757969               0.002415282               0.001657313               0.000000000               0.000000000               0.000000000               0.000000000               0.000081109               0.006158262               0.000488889              -0.000739365               0.002299188               0.001559823               0.000000000               0.000000000               0.000000000               0.000000000               0.000038704               0.005832849               0.000423044              -0.000714591               0.002182460               0.001467870               0.000000000               0.000000000               0.000000000               0.000000000               0.000012872               0.005509917               0.000328549              -0.000683911               0.002064591               0.001380680               0.000000000               0.000000000               0.000000000               0.000000000               0.000000387               0.005194489               0.000187738              -0.000649164               0.001947867               0.001298703               0.000000000               0.000000000               0.000000000               0.000000000              -0.000022087               0.004987042               0.000110112              -0.000631661               0.001872884               0.001241223               0.000000000               0.000000000               0.000000000               0.000000000               0.002407930               0.017767099              -0.003647369              -0.001317913               0.006361611               0.005043698               0.000000000               0.000000000               0.000000000               0.000000000               0.001615286               0.014507657              -0.001889782              -0.001207723               0.005238411               0.004030689               0.000000000               0.000000000               0.000000000               0.000000000               0.001397908               0.012145849              -0.000174598              -0.000994013               0.004379914               0.003385900               0.000000000               0.000000000               0.000000000               0.000000000               0.001034687               0.010748264               0.000492387              -0.000955523               0.003901227               0.002945703               0.000000000               0.000000000               0.000000000               0.000000000               0.000715350               0.009807179               0.000739814              -0.000957639               0.003588240               0.002630601               0.000000000               0.000000000               0.000000000               0.000000000               0.000469356               0.009111067               0.000815523              -0.000962873               0.003357950               0.002395077               0.000000000               0.000000000               0.000000000               0.000000000               0.000277307               0.008549599               0.000819962              -0.000964707               0.003171407               0.002206700               0.000000000               0.000000000               0.000000000               0.000000000               0.000134089               0.008074020               0.000791681              -0.000958967               0.003010969               0.002052002               0.000000000               0.000000000               0.000000000               0.000000000               0.000037883               0.007658261               0.000750573              -0.000943074               0.002867086               0.001924012               0.000000000               0.000000000               0.000000000               0.000000000              -0.000025236               0.007281810               0.000702572              -0.000919688               0.002733808               0.001814121               0.000000000               0.000000000               0.000000000               0.000000000              -0.000059198               0.006936967               0.000646285              -0.000889318               0.002608738               0.001719420               0.000000000               0.000000000               0.000000000               0.000000000              -0.000072319               0.006620914               0.000583947              -0.000854732               0.002491860               0.001637128               0.000000000               0.000000000               0.000000000               0.000000000              -0.000076774               0.006330507               0.000514080              -0.000820102               0.002383515               0.001563413               0.000000000               0.000000000               0.000000000               0.000000000              -0.000068881               0.006066563               0.000427639              -0.000784149               0.002283550               0.001499402               0.000000000               0.000000000               0.000000000               0.000000000              -0.000048737               0.005831696               0.000315643              -0.000747236               0.002192958               0.001445721               0.000000000               0.000000000               0.000000000               0.000000000              -0.000025215               0.005636959               0.000172269              -0.000714074               0.002116992               0.001402919               0.000000000               0.000000000               0.000000000               0.000000000              -0.000021094               0.005532822               0.000096252              -0.000699511               0.002077426               0.001377915               0.000000000               0.000000000               0.000000000               0.000000000               0.002493980               0.015475067              -0.004127331              -0.000999142               0.005491350               0.004492209               0.000000000               0.000000000               0.000000000               0.000000000               0.001280194               0.013070559              -0.002174731              -0.001153746               0.004741391               0.003587645               0.000000000               0.000000000               0.000000000               0.000000000               0.000617624               0.011517770              -0.000292030              -0.001208109               0.004241921               0.003033812               0.000000000               0.000000000               0.000000000               0.000000000               0.000174222               0.010476543               0.000402139              -0.001244232               0.003906890               0.002662658               0.000000000               0.000000000               0.000000000               0.000000000              -0.000098318               0.009703632               0.000646546              -0.001249820               0.003651119               0.002401298               0.000000000               0.000000000               0.000000000               0.000000000              -0.000256502               0.009087804               0.000714571              -0.001232161               0.003439958               0.002207797               0.000000000               0.000000000               0.000000000               0.000000000              -0.000342033               0.008567870               0.000713168              -0.001199243               0.003255676               0.002056433               0.000000000               0.000000000               0.000000000               0.000000000              -0.000378496               0.008112973               0.000682152              -0.001156055               0.003089649               0.001933594               0.000000000               0.000000000               0.000000000               0.000000000              -0.000376521               0.007710392               0.000639405              -0.001104992               0.002938435               0.001833444               0.000000000               0.000000000               0.000000000               0.000000000              -0.000348899               0.007347091               0.000588338              -0.001049221               0.002798746               0.001749525               0.000000000               0.000000000               0.000000000               0.000000000              -0.000306877               0.007015836               0.000528991              -0.000992056               0.002669274               0.001677218               0.000000000               0.000000000               0.000000000               0.000000000              -0.000257744               0.006715814               0.000466680              -0.000936129               0.002550625               0.001614497               0.000000000               0.000000000               0.000000000               0.000000000              -0.000205986               0.006452228               0.000401206              -0.000883771               0.002445311               0.001561540               0.000000000               0.000000000               0.000000000               0.000000000              -0.000150918               0.006228381               0.000322507              -0.000835140               0.002354486               0.001519346               0.000000000               0.000000000               0.000000000               0.000000000              -0.000097687               0.006047297               0.000225253              -0.000792543               0.002279926               0.001487384               0.000000000               0.000000000               0.000000000               0.000000000              -0.000049456               0.005916238               0.000114981              -0.000758074               0.002224751               0.001466677               0.000000000               0.000000000               0.000000000               0.000000000              -0.000032550               0.005853422               0.000061950              -0.000743882               0.002199082               0.001455200               0.000000000               0.000000000               0.000000000               0.000000000               0.002358233               0.013001443              -0.004184152              -0.000740845               0.004580719               0.003839873               0.000000000               0.000000000               0.000000000               0.000000000               0.000817560               0.011550889              -0.002288550              -0.001137275               0.004229349               0.003092074               0.000000000               0.000000000               0.000000000               0.000000000              -0.000208914               0.010837545              -0.000475823              -0.001433032               0.004090156               0.002657124               0.000000000               0.000000000               0.000000000               0.000000000              -0.000656510               0.010133411               0.000161581              -0.001512864               0.003882058               0.002369194               0.000000000               0.000000000               0.000000000               0.000000000              -0.000824779               0.009510477               0.000382591              -0.001498098               0.003669493               0.002171395               0.000000000               0.000000000               0.000000000               0.000000000              -0.000859409               0.008964361               0.000446454              -0.001442820               0.003469030               0.002026210               0.000000000               0.000000000               0.000000000               0.000000000              -0.000828376               0.008484943               0.000449276              -0.001371255               0.003285371               0.001914116               0.000000000               0.000000000               0.000000000               0.000000000              -0.000757856               0.008057214               0.000429109              -0.001291345               0.003116160               0.001824815               0.000000000               0.000000000               0.000000000               0.000000000              -0.000662786               0.007669704               0.000400138              -0.001207255               0.002958961               0.001751706               0.000000000               0.000000000               0.000000000               0.000000000              -0.000561277               0.007312302               0.000363093              -0.001124514               0.002812248               0.001687734               0.000000000               0.000000000               0.000000000               0.000000000              -0.000460614               0.006985187               0.000318659              -0.001045876               0.002676998               0.001631122               0.000000000               0.000000000               0.000000000               0.000000000              -0.000363750               0.006692389               0.000275617              -0.000972953               0.002555092               0.001582139               0.000000000               0.000000000               0.000000000               0.000000000              -0.000275384               0.006438733               0.000234854              -0.000908109               0.002448926               0.001540817               0.000000000               0.000000000               0.000000000               0.000000000              -0.000194801               0.006227838               0.000185417              -0.000851528               0.002359768               0.001508240               0.000000000               0.000000000               0.000000000               0.000000000              -0.000123612               0.006062671               0.000124924              -0.000804186               0.002288932               0.001484746               0.000000000               0.000000000               0.000000000               0.000000000              -0.000059883               0.005941286               0.000060532              -0.000765115               0.002235447               0.001470332               0.000000000               0.000000000               0.000000000               0.000000000              -0.000040143               0.005874144               0.000035451              -0.000749320               0.002207802               0.001458482               0.000000000               0.000000000               0.000000000               0.000000000               0.001948814               0.010549739              -0.003888251              -0.000587915               0.003712515               0.003124600               0.000000000               0.000000000               0.000000000               0.000000000               0.000252687               0.010061080              -0.002279947              -0.001162876               0.003741285               0.002578408               0.000000000               0.000000000               0.000000000               0.000000000              -0.000986780               0.010126117              -0.000733278              -0.001635803               0.003920606               0.002284803               0.000000000               0.000000000               0.000000000               0.000000000              -0.001348236               0.009709204              -0.000193444              -0.001719235               0.003809447               0.002090213               0.000000000               0.000000000               0.000000000               0.000000000              -0.001373983               0.009215161               0.000008854              -0.001667135               0.003627401               0.001960266               0.000000000               0.000000000               0.000000000               0.000000000              -0.001271004               0.008742230               0.000085026              -0.001569401               0.003437181               0.001867780               0.000000000               0.000000000               0.000000000               0.000000000              -0.001119299               0.008308760               0.000112902              -0.001458329               0.003255669               0.001797340               0.000000000               0.000000000               0.000000000               0.000000000              -0.000953945               0.007898129               0.000120030              -0.001344992               0.003081014               0.001736022               0.000000000               0.000000000               0.000000000               0.000000000              -0.000793702               0.007507167               0.000117421              -0.001236031               0.002914374               0.001678343               0.000000000               0.000000000               0.000000000               0.000000000              -0.000645024               0.007140639               0.000107085              -0.001134461               0.002758343               0.001623882               0.000000000               0.000000000               0.000000000               0.000000000              -0.000508754               0.006805846               0.000091709              -0.001041511               0.002615763               0.001574252               0.000000000               0.000000000               0.000000000               0.000000000              -0.000387355               0.006511173               0.000081277              -0.000959152               0.002490087               0.001530934               0.000000000               0.000000000               0.000000000               0.000000000              -0.000282841               0.006260942               0.000077269              -0.000888681               0.002383187               0.001494506               0.000000000               0.000000000               0.000000000               0.000000000              -0.000194171               0.006055311               0.000069374              -0.000829726               0.002294992               0.001465266               0.000000000               0.000000000               0.000000000               0.000000000              -0.000119311               0.005891443               0.000051144              -0.000781170               0.002224185               0.001443015               0.000000000               0.000000000               0.000000000               0.000000000              -0.000055743               0.005761664               0.000025083              -0.000741110               0.002167572               0.001426462               0.000000000               0.000000000               0.000000000               0.000000000              -0.000041719               0.005681945               0.000020284              -0.000725886               0.002135925               0.001410039               0.000000000               0.000000000               0.000000000               0.000000000               0.001294305               0.008273001              -0.003332926              -0.000548763               0.002940559               0.002391796               0.000000000               0.000000000               0.000000000               0.000000000              -0.000375764               0.008684899              -0.002193492              -0.001226522               0.003303778               0.002077255               0.000000000               0.000000000               0.000000000               0.000000000              -0.001639377               0.009392923              -0.001052273              -0.001788878               0.003727236               0.001938358               0.000000000               0.000000000               0.000000000               0.000000000              -0.001838438               0.009208640              -0.000605869              -0.001840490               0.003683013               0.001842523               0.000000000               0.000000000               0.000000000               0.000000000              -0.001702983               0.008841330              -0.000395863              -0.001743780               0.003528341               0.001784560               0.000000000               0.000000000               0.000000000               0.000000000              -0.001471211               0.008444125              -0.000284276              -0.001607216               0.003350419               0.001743203               0.000000000               0.000000000               0.000000000               0.000000000              -0.001229911               0.008036694              -0.000217468              -0.001465800               0.003167471               0.001701671               0.000000000               0.000000000               0.000000000               0.000000000              -0.001004293               0.007628695              -0.000178472              -0.001330194               0.002986271               0.001656077               0.000000000               0.000000000               0.000000000               0.000000000              -0.000801060               0.007230331              -0.000149361              -0.001204186               0.002811482               0.001607296               0.000000000               0.000000000               0.000000000               0.000000000              -0.000624526               0.006853401              -0.000123895              -0.001090870               0.002648067               0.001557198               0.000000000               0.000000000               0.000000000               0.000000000              -0.000471571               0.006513352              -0.000098252              -0.000991006               0.002501431               0.001510425               0.000000000               0.000000000               0.000000000               0.000000000              -0.000342312               0.006220735              -0.000063824              -0.000905957               0.002375543               0.001469586               0.000000000               0.000000000               0.000000000               0.000000000              -0.000240646               0.005975220              -0.000023661              -0.000837143               0.002270768               0.001433625               0.000000000               0.000000000               0.000000000               0.000000000              -0.000160858               0.005773158               0.000008464              -0.000781964               0.002185022               0.001403057               0.000000000               0.000000000               0.000000000               0.000000000              -0.000097414               0.005609412               0.000023283              -0.000737705               0.002115687               0.001377982               0.000000000               0.000000000               0.000000000               0.000000000              -0.000047846               0.005480452               0.000019219              -0.000702997               0.002061131               0.001358134               0.000000000               0.000000000               0.000000000               0.000000000              -0.000035335               0.005406699               0.000019602              -0.000689086               0.002031910               0.001342824               0.000000000               0.000000000               0.000000000               0.000000000               0.000499150               0.006338099              -0.002624931              -0.000605082               0.002314371               0.001709290               0.000000000               0.000000000               0.000000000               0.000000000              -0.000979224               0.007450859              -0.002076227              -0.001298564               0.002916449               0.001617885               0.000000000               0.000000000               0.000000000               0.000000000              -0.002126001               0.008668690              -0.001422089              -0.001880832               0.003516478               0.001635646               0.000000000               0.000000000               0.000000000               0.000000000              -0.002153324               0.008732107              -0.001036362              -0.001899005               0.003543675               0.001644669               0.000000000               0.000000000               0.000000000               0.000000000              -0.001888572               0.008508733              -0.000795288              -0.001771802               0.003426816               0.001655015               0.000000000               0.000000000               0.000000000               0.000000000              -0.001564655               0.008181009              -0.000637461              -0.001609368               0.003263432               0.001654064               0.000000000               0.000000000               0.000000000               0.000000000              -0.001260193               0.007803459              -0.000529123              -0.001448001               0.003083794               0.001635793               0.000000000               0.000000000               0.000000000               0.000000000              -0.000987885               0.007408376              -0.000454547              -0.001296501               0.002901601               0.001605100               0.000000000               0.000000000               0.000000000               0.000000000              -0.000752631               0.007015472              -0.000393705              -0.001159168               0.002724857               0.001565689               0.000000000               0.000000000               0.000000000               0.000000000              -0.000554004               0.006643948              -0.000331742              -0.001038242               0.002560708               0.001522466               0.000000000               0.000000000               0.000000000               0.000000000              -0.000391856               0.006307856              -0.000262644              -0.000935426               0.002414406               0.001478980               0.000000000               0.000000000               0.000000000               0.000000000              -0.000269930               0.006018214              -0.000186801              -0.000853498               0.002290551               0.001437052               0.000000000               0.000000000               0.000000000               0.000000000              -0.000187289               0.005772363              -0.000109601              -0.000791777               0.002188027               0.001396251               0.000000000               0.000000000               0.000000000               0.000000000              -0.000134013               0.005563911              -0.000043646              -0.000745742               0.002103199               0.001357457               0.000000000               0.000000000               0.000000000               0.000000000              -0.000105642               0.005384054               0.000001533              -0.000712621               0.002032207               0.001319586               0.000000000               0.000000000               0.000000000               0.000000000              -0.000095145               0.005236155               0.000017890              -0.000690197               0.001975433               0.001285236               0.000000000               0.000000000               0.000000000               0.000000000              -0.000089223               0.005164833               0.000018743              -0.000679061               0.001947948               0.001268886               0.000000000               0.000000000               0.000000000               0.000000000              -0.000450780               0.004533511              -0.001866013              -0.000735731               0.001756398               0.001020667               0.000000000               0.000000000               0.000000000               0.000000000              -0.001468077               0.006026288              -0.001939542              -0.001303813               0.002443346               0.001139534               0.000000000               0.000000000               0.000000000               0.000000000              -0.002380286               0.007612068              -0.001813064              -0.001844112               0.003152034               0.001307922               0.000000000               0.000000000               0.000000000               0.000000000              -0.002322386               0.008019242              -0.001499857              -0.001873296               0.003297486               0.001424190               0.000000000               0.000000000               0.000000000               0.000000000              -0.002017255               0.008024543              -0.001231596              -0.001759535               0.003261332               0.001501798               0.000000000               0.000000000               0.000000000               0.000000000              -0.001664450               0.007846877              -0.001022124              -0.001605025               0.003150608               0.001545583               0.000000000               0.000000000               0.000000000               0.000000000              -0.001333750               0.007578209              -0.000866289              -0.001447429               0.003008520               0.001561092               0.000000000               0.000000000               0.000000000               0.000000000              -0.001041316               0.007260368              -0.000749902              -0.001298037               0.002852777               0.001554741               0.000000000               0.000000000               0.000000000               0.000000000              -0.000789824               0.006925853              -0.000650454              -0.001161913               0.002695899               0.001533986               0.000000000               0.000000000               0.000000000               0.000000000              -0.000581184               0.006589506              -0.000554793              -0.001041630               0.002543690               0.001502060               0.000000000               0.000000000               0.000000000               0.000000000              -0.000415917               0.006265073              -0.000453238              -0.000939101               0.002401370               0.001462270               0.000000000               0.000000000               0.000000000               0.000000000              -0.000292699               0.005970316              -0.000346454              -0.000856050               0.002275435               0.001419386               0.000000000               0.000000000               0.000000000               0.000000000              -0.000212234               0.005717244              -0.000241169              -0.000794241               0.002170476               0.001376235               0.000000000               0.000000000               0.000000000               0.000000000              -0.000170375               0.005501036              -0.000142704              -0.000751518               0.002084167               0.001332648               0.000000000               0.000000000               0.000000000               0.000000000              -0.000162400               0.005310571              -0.000059044              -0.000724720               0.002011746               0.001287026               0.000000000               0.000000000               0.000000000               0.000000000              -0.000179611               0.005143842              -0.000009863              -0.000710333               0.001951374               0.001241042               0.000000000               0.000000000               0.000000000               0.000000000              -0.000193359               0.005060346               0.000004481              -0.000705051               0.001921782               0.001216731               0.000000000               0.000000000               0.000000000               0.000000000              -0.001700777               0.002899292              -0.001108501              -0.001000201               0.001299821               0.000299620               0.000000000               0.000000000               0.000000000               0.000000000              -0.002022089               0.004605674              -0.001735110              -0.001333990               0.001979872               0.000645882               0.000000000               0.000000000               0.000000000               0.000000000              -0.002543803               0.006399340              -0.002114577              -0.001753840               0.002717705               0.000963865               0.000000000               0.000000000               0.000000000               0.000000000              -0.002407459               0.007123028              -0.001935190              -0.001793172               0.002972042               0.001178871               0.000000000               0.000000000               0.000000000               0.000000000              -0.002093097               0.007379705              -0.001673168              -0.001707371               0.003029000               0.001321629               0.000000000               0.000000000               0.000000000               0.000000000              -0.001743600               0.007389026              -0.001433973              -0.001577475               0.002988809               0.001411334               0.000000000               0.000000000               0.000000000               0.000000000              -0.001404258               0.007269559              -0.001238816              -0.001435289               0.002901592               0.001466303               0.000000000               0.000000000               0.000000000               0.000000000              -0.001099880               0.007073583              -0.001079485              -0.001296650               0.002790054               0.001493404               0.000000000               0.000000000               0.000000000               0.000000000              -0.000836343               0.006834174              -0.000943528              -0.001167898               0.002667334               0.001499436               0.000000000               0.000000000               0.000000000               0.000000000              -0.000611127               0.006563090              -0.000819903              -0.001049557               0.002537527               0.001487970               0.000000000               0.000000000               0.000000000               0.000000000              -0.000424981               0.006278412              -0.000697327              -0.000944167               0.002407505               0.001463338               0.000000000               0.000000000               0.000000000               0.000000000              -0.000276480               0.006003059              -0.000571483              -0.000854060               0.002285686               0.001431626               0.000000000               0.000000000               0.000000000               0.000000000              -0.000171911               0.005751999              -0.000442310              -0.000783465               0.002178469               0.001395004               0.000000000               0.000000000               0.000000000               0.000000000              -0.000123955               0.005522183              -0.000310337              -0.000736754               0.002086294               0.001349540               0.000000000               0.000000000               0.000000000               0.000000000              -0.000130186               0.005319493              -0.000182498              -0.000713754               0.002011065               0.001297310               0.000000000               0.000000000               0.000000000               0.000000000              -0.000186478               0.005144136              -0.000076436              -0.000712945               0.001952343               0.001239398               0.000000000               0.000000000               0.000000000               0.000000000              -0.000245563               0.005048053              -0.000024648              -0.000723091               0.001923698               0.001200607               0.000000000               0.000000000               0.000000000               0.000000000              -0.003165385               0.001548758              -0.000411153              -0.001380612               0.000976450              -0.000404162               0.000000000               0.000000000               0.000000000               0.000000000              -0.002696403               0.003270993              -0.001444033              -0.001420023               0.001563660               0.000143637               0.000000000               0.000000000               0.000000000               0.000000000              -0.002657356               0.005047377              -0.002227786              -0.001627427               0.002224917               0.000597490               0.000000000               0.000000000               0.000000000               0.000000000              -0.002373616               0.005988902              -0.002217367              -0.001638716               0.002542519               0.000903803               0.000000000               0.000000000               0.000000000               0.000000000              -0.002033030               0.006474465              -0.002007643              -0.001571691               0.002682030               0.001110339               0.000000000               0.000000000               0.000000000               0.000000000              -0.001692012               0.006685890              -0.001772480              -0.001470238               0.002718687               0.001248449               0.000000000               0.000000000               0.000000000               0.000000000              -0.001367078               0.006733247              -0.001562660              -0.001354307               0.002695829               0.001341521               0.000000000               0.000000000               0.000000000               0.000000000              -0.001069836               0.006680791              -0.001376445              -0.001236285               0.002639003               0.001402718               0.000000000               0.000000000               0.000000000               0.000000000              -0.000804583               0.006564256              -0.001212378              -0.001122248               0.002562146               0.001439898               0.000000000               0.000000000               0.000000000               0.000000000              -0.000572293               0.006393692              -0.001067171              -0.001013819               0.002469149               0.001455330               0.000000000               0.000000000               0.000000000               0.000000000              -0.000365331               0.006188477              -0.000931413              -0.000910557               0.002366324               0.001455767               0.000000000               0.000000000               0.000000000               0.000000000              -0.000187092               0.005968580              -0.000795362              -0.000816230               0.002261583               0.001445353               0.000000000               0.000000000               0.000000000               0.000000000              -0.000049454               0.005748277              -0.000649214              -0.000737078               0.002161766               0.001424688               0.000000000               0.000000000               0.000000000               0.000000000               0.000033220               0.005532361              -0.000490847              -0.000679086               0.002070464               0.001391378               0.000000000               0.000000000               0.000000000               0.000000000               0.000052149               0.005332497              -0.000324985              -0.000647005               0.001993149               0.001346145               0.000000000               0.000000000               0.000000000               0.000000000              -0.000003316               0.005154732              -0.000159285              -0.000645583               0.001933421               0.001287838               0.000000000               0.000000000               0.000000000               0.000000000              -0.000078746               0.005055150              -0.000068639              -0.000661422               0.001905507               0.001244085               0.000000000               0.000000000               0.000000000               0.000000000              -0.004734313               0.000549893               0.000139722              -0.001844102               0.000797993              -0.001046109               0.000000000               0.000000000               0.000000000               0.000000000              -0.003451831               0.002089217              -0.001101640              -0.001555586               0.001214926              -0.000340660               0.000000000               0.000000000               0.000000000               0.000000000              -0.002753955               0.003665100              -0.002130800              -0.001490868               0.001718642               0.000227775               0.000000000               0.000000000               0.000000000               0.000000000              -0.002253292               0.004711238              -0.002273360              -0.001433887               0.002048358               0.000614471               0.000000000               0.000000000               0.000000000               0.000000000              -0.001852400               0.005370648              -0.002144902              -0.001365979               0.002245524               0.000879545               0.000000000               0.000000000               0.000000000               0.000000000              -0.001506811               0.005768952              -0.001946173              -0.001286171               0.002351688               0.001065517               0.000000000               0.000000000               0.000000000               0.000000000              -0.001200289               0.005991060              -0.001744199              -0.001198989               0.002396662               0.001197674               0.000000000               0.000000000               0.000000000               0.000000000              -0.000923660               0.006092120              -0.001555775              -0.001107885               0.002399981               0.001292096               0.000000000               0.000000000               0.000000000               0.000000000              -0.000670355               0.006109816              -0.001385059              -0.001015108               0.002374954               0.001359846               0.000000000               0.000000000               0.000000000               0.000000000              -0.000439256               0.006061515              -0.001234661              -0.000922409               0.002327954               0.001405545               0.000000000               0.000000000               0.000000000               0.000000000              -0.000220726               0.005962720              -0.001097818              -0.000828111               0.002263590               0.001435480               0.000000000               0.000000000               0.000000000               0.000000000              -0.000016782               0.005829921              -0.000958305              -0.000735032               0.002188298               0.001453266               0.000000000               0.000000000               0.000000000               0.000000000               0.000160818               0.005673965              -0.000805771              -0.000648938               0.002107615               0.001458678               0.000000000               0.000000000               0.000000000               0.000000000               0.000302716               0.005503098              -0.000638879              -0.000574367               0.002025803               0.001451436               0.000000000               0.000000000               0.000000000               0.000000000               0.000396034               0.005328784              -0.000449886              -0.000517584               0.001948771               0.001431187               0.000000000               0.000000000               0.000000000               0.000000000               0.000416648               0.005160926              -0.000234912              -0.000488871               0.001883249               0.001394377               0.000000000               0.000000000               0.000000000               0.000000000               0.000390724               0.005071566              -0.000117153              -0.000487423               0.001852980               0.001365556               0.000000000               0.000000000               0.000000000               0.000000000              -0.006259552              -0.000107906               0.000460864              -0.002333842               0.000741974              -0.001591868               0.000000000               0.000000000               0.000000000               0.000000000              -0.004217171               0.001127715              -0.000756802              -0.001722401               0.000950032              -0.000772369               0.000000000               0.000000000               0.000000000               0.000000000              -0.002846876               0.002383478              -0.001821215              -0.001365511               0.001249654              -0.000115857               0.000000000               0.000000000               0.000000000               0.000000000              -0.002086213               0.003429337              -0.002059324              -0.001210995               0.001546765               0.000335770               0.000000000               0.000000000               0.000000000               0.000000000              -0.001592968               0.004200548              -0.002011164              -0.001122430               0.001774311               0.000651881               0.000000000               0.000000000               0.000000000               0.000000000              -0.001229008               0.004745585              -0.001867408              -0.001054075               0.001933203               0.000879129               0.000000000               0.000000000               0.000000000               0.000000000              -0.000934804               0.005121415              -0.001698090              -0.000990727               0.002037363               0.001046636               0.000000000               0.000000000               0.000000000               0.000000000              -0.000675763               0.005373697              -0.001530820              -0.000925122               0.002099588               0.001174466               0.000000000               0.000000000               0.000000000               0.000000000              -0.000434953               0.005522610              -0.001376777              -0.000853432               0.002125329               0.001271897               0.000000000               0.000000000               0.000000000               0.000000000              -0.000205148               0.005595311              -0.001241091              -0.000776343               0.002123866               0.001347523               0.000000000               0.000000000               0.000000000               0.000000000               0.000016575               0.005611193              -0.001116984              -0.000695182               0.002102106               0.001406924               0.000000000               0.000000000               0.000000000               0.000000000               0.000235886               0.005580522              -0.000988550              -0.000609107               0.002063191               0.001454084               0.000000000               0.000000000               0.000000000               0.000000000               0.000455807               0.005511690              -0.000847906              -0.000518033               0.002009889               0.001491857               0.000000000               0.000000000               0.000000000               0.000000000               0.000667159               0.005408860              -0.000691602              -0.000425922               0.001944909               0.001518987               0.000000000               0.000000000               0.000000000               0.000000000               0.000858084               0.005284038              -0.000504090              -0.000338723               0.001874236               0.001535513               0.000000000               0.000000000               0.000000000               0.000000000               0.001016550               0.005147133              -0.000272997              -0.000262185               0.001803089               0.001540904               0.000000000               0.000000000               0.000000000               0.000000000               0.001106968               0.005084578              -0.000150176              -0.000220459               0.001768329               0.001547870               0.000000000               0.000000000               0.000000000               0.000000000              -0.007553189              -0.000486941               0.000515755              -0.002771576               0.000761540              -0.002010037               0.000000000               0.000000000               0.000000000               0.000000000              -0.004887736               0.000426222              -0.000452269              -0.001886177               0.000770794              -0.001115383               0.000000000               0.000000000               0.000000000               0.000000000              -0.002932137               0.001341797              -0.001326353              -0.001267274               0.000869684              -0.000397590               0.000000000               0.000000000               0.000000000               0.000000000              -0.001917563               0.002324988              -0.001568392              -0.001009708               0.001111557               0.000101849               0.000000000               0.000000000               0.000000000               0.000000000              -0.001321891               0.003146679              -0.001573635              -0.000889043               0.001345229               0.000456187               0.000000000               0.000000000               0.000000000               0.000000000              -0.000929777               0.003788582              -0.001486395              -0.000822238               0.001536927               0.000714689               0.000000000               0.000000000               0.000000000               0.000000000              -0.000637086               0.004277429              -0.001367321              -0.000773585               0.001683656               0.000910072               0.000000000               0.000000000               0.000000000               0.000000000              -0.000388703               0.004646803              -0.001244091              -0.000726613               0.001791123               0.001064510               0.000000000               0.000000000               0.000000000               0.000000000              -0.000156774               0.004909303              -0.001129197              -0.000672452               0.001860568               0.001188117               0.000000000               0.000000000               0.000000000               0.000000000               0.000069382               0.005088721              -0.001024835              -0.000610071               0.001899580               0.001289509               0.000000000               0.000000000               0.000000000               0.000000000               0.000294192               0.005204716              -0.000926975              -0.000540267               0.001914977               0.001374710               0.000000000               0.000000000               0.000000000               0.000000000               0.000525928               0.005265757              -0.000828918              -0.000460996               0.001908900               0.001447904               0.000000000               0.000000000               0.000000000               0.000000000               0.000778275               0.005284473              -0.000721895              -0.000368705               0.001884375               0.001515670               0.000000000               0.000000000               0.000000000               0.000000000               0.001051155               0.005263360              -0.000595951              -0.000263736               0.001842348               0.001578612               0.000000000               0.000000000               0.000000000               0.000000000               0.001340728               0.005202502              -0.000442104              -0.000147540               0.001783330               0.001635790               0.000000000               0.000000000               0.000000000               0.000000000               0.001650710               0.005110838              -0.000245549              -0.000019839               0.001710209               0.001690370               0.000000000               0.000000000               0.000000000               0.000000000               0.001879433               0.005085327              -0.000143027               0.000069121               0.001672052               0.001741172               0.000000000               0.000000000               0.000000000               0.000000000              -0.008427410              -0.000665790               0.000329288              -0.003077053               0.000803749              -0.002273304               0.000000000               0.000000000               0.000000000               0.000000000              -0.005351263               0.000005648              -0.000205757              -0.002007428               0.000671021              -0.001336407               0.000000000               0.000000000               0.000000000               0.000000000              -0.002998138               0.000661339              -0.000697970              -0.001206968               0.000622765              -0.000584203               0.000000000               0.000000000               0.000000000               0.000000000              -0.001797819               0.001573412              -0.000849580              -0.000870857               0.000814750              -0.000056107               0.000000000               0.000000000               0.000000000               0.000000000              -0.001121359               0.002407916              -0.000866266              -0.000721498               0.001043130               0.000321632               0.000000000               0.000000000               0.000000000               0.000000000              -0.000698649               0.003098269              -0.000826319              -0.000649276               0.001249171               0.000599895               0.000000000               0.000000000               0.000000000               0.000000000              -0.000396930               0.003652219              -0.000766222              -0.000605375               0.001419186               0.000813811               0.000000000               0.000000000               0.000000000               0.000000000              -0.000149365               0.004095014              -0.000702695              -0.000567887               0.001554287               0.000986399               0.000000000               0.000000000               0.000000000               0.000000000               0.000073542               0.004435157              -0.000641284              -0.000526815               0.001653976               0.001127161               0.000000000               0.000000000               0.000000000               0.000000000               0.000290065               0.004689417              -0.000583583              -0.000477402               0.001722257               0.001244855               0.000000000               0.000000000               0.000000000               0.000000000               0.000513974               0.004872715              -0.000529366              -0.000416348               0.001763005               0.001346656               0.000000000               0.000000000               0.000000000               0.000000000               0.000755189               0.005000124              -0.000476647              -0.000341819               0.001780631               0.001438812               0.000000000               0.000000000               0.000000000               0.000000000               0.001025730               0.005084064              -0.000419567              -0.000250859               0.001778291               0.001527432               0.000000000               0.000000000               0.000000000               0.000000000               0.001337196               0.005126191              -0.000349039              -0.000139325               0.001755155               0.001615830               0.000000000               0.000000000               0.000000000               0.000000000               0.001701845               0.005124284              -0.000261831              -0.000002344               0.001708859               0.001706515               0.000000000               0.000000000               0.000000000               0.000000000               0.002130796               0.005076752              -0.000147131               0.000164453               0.001637416               0.001801869               0.000000000               0.000000000               0.000000000               0.000000000               0.002472029               0.005081968              -0.000087544               0.000291762               0.001596719               0.001888481               0.000000000               0.000000000               0.000000000               0.000000000               0.000000000               0.000000000               0.000000000               0.000000000               0.000000000               0.000000000               0.000000000               0.000000000               0.000000000               0.000000000               0.000000000               0.000000000               0.000000000               0.000000000               0.000000000               0.000000000               0.000000000               0.000000000               0.000000000               0.000000000               0.000000000               0.000000000               0.000000000               0.000000000               0.000000000               0.000000000               0.000000000               0.000000000               0.000000000               0.000000000               0.000000000               0.000000000               0.000000000               0.000000000               0.000000000               0.000000000               0.000000000               0.000000000               0.000000000               0.000000000               0.000000000               0.000000000               0.000000000               0.000000000               0.000000000               0.000000000               0.000000000               0.000000000               0.000000000               0.000000000               0.000000000               0.000000000               0.000000000               0.000000000               0.000000000               0.000000000               0.000000000               0.000000000               0.000000000               0.000000000               0.000000000               0.000000000               0.000000000               0.000000000               0.000000000               0.000000000               0.000000000               0.000000000               0.000000000               0.000000000               0.000000000               0.000000000               0.000000000               0.000000000               0.000000000               0.000000000               0.000000000               0.000000000               0.000000000               0.000000000               0.000000000               0.000000000               0.000000000               0.000000000               0.000000000               0.000000000               0.000000000               0.000000000               0.000000000               0.000000000               0.000000000               0.000000000               0.000000000               0.000000000               0.000000000               0.000000000               0.000000000               0.000000000               0.000000000               0.000000000               0.000000000               0.000000000               0.000000000               0.000000000               0.000000000               0.000000000               0.000000000               0.000000000               0.000000000               0.000000000               0.000000000               0.000000000               0.000000000               0.000000000               0.000000000               0.000000000               0.000000000               0.000000000               0.000000000               0.000000000               0.000000000               0.000000000               0.000000000               0.000000000               0.000000000               0.000000000               0.000000000               0.000000000               0.000000000               0.000000000               0.000000000               0.000000000               0.000000000               0.000000000               0.000000000               0.000000000               0.000000000               0.000000000               0.000000000               0.000000000               0.000000000               0.000000000               0.000000000               0.000000000               0.000000000               0.000000000               0.000000000               0.000000000               0.000000000               0.000000000               0.000000000               0.000000000               0.000000000               0.000000000               0.000000000               0.000000000               0.000000000               0.000000000               0.000000000               0.000000000               0.000000000               0.000000000               0.000000000               0.000000000               0.000000000               0.000000000               0.000000000               0.000000000               0.000000000               0.000000000               0.000000000               0.000000000               0.000000000               0.000000000               0.000000000               0.000000000               0.000000000               0.000000000               0.000000000               0.000000000               0.000000000               0.000000000               0.000000000               0.000000000               0.000000000               0.000000000               0.000000000               0.000000000               0.000000000               0.000000000               0.000000000               0.000000000               0.000000000               0.000000000               0.000000000               0.000000000               0.000000000               0.000000000               0.000000000               0.000000000               0.000000000               0.000000000               0.000000000               0.000000000               0.000000000               0.000000000               0.000000000               0.000000000               0.000000000               0.000000000               0.000000000               0.000000000               0.000000000               0.000000000               0.000000000               0.000000000               0.000000000               0.000000000               0.000000000               0.000000000               0.000000000               0.000000000               0.000000000               0.000000000               0.000000000               0.000000000               0.000000000               0.000000000               0.000000000               0.000000000               0.000000000               0.000000000               0.000000000               0.000000000               0.000000000               0.000000000               0.000000000               0.000000000               0.000000000               0.000000000               0.000000000               0.000000000               0.000000000               0.000000000               0.000000000               0.000000000               0.000000000               0.000000000               0.000000000               0.000000000               0.000000000               0.000000000               0.000000000               0.000000000               0.000000000               0.000000000               0.000000000               0.000000000               0.000000000               0.000000000               0.000000000               0.000000000               0.000000000               0.000000000               0.000000000               0.000000000               0.000000000               0.000000000               0.000000000               0.000000000               0.000000000               0.000000000               0.000000000               0.000000000               0.000000000               0.000000000               0.000000000               0.000000000               0.000000000               0.000000000               0.000000000               0.000000000               0.000000000               0.000000000               0.000000000               0.000000000               0.000000000               0.000000000               0.000000000               0.000000000               0.000000000               0.000000000               0.000000000               0.000000000               0.000000000               0.000000000               0.000000000               0.000000000               0.000000000               0.000000000               0.000000000               0.000000000               0.000000000               0.000000000               0.000000000               0.000000000               0.000000000               0.000000000               0.000000000               0.000000000               0.000000000               0.000000000               0.000000000               0.000000000               0.000000000               0.000000000               0.000000000               0.000000000               0.000000000               0.000000000               0.000000000               0.000000000               0.000000000               0.000000000               0.000000000               0.000000000               0.000000000               0.000000000               0.000000000               0.000000000               0.000000000               0.000000000               0.000000000               0.000000000               0.000000000               0.000000000               0.000000000               0.000000000               0.000000000               0.000000000               0.002021959               0.020873353               0.001468004              -0.001850930               0.007574692               0.005723761               0.000000000               0.000000000               0.000000000               0.000000000               0.001928988               0.016512727               0.000758051              -0.001340717               0.005951093               0.004610376               0.000000000               0.000000000               0.000000000               0.000000000               0.002449589               0.013028113               0.000049097              -0.000709917               0.004579300               0.003869383               0.000000000               0.000000000               0.000000000               0.000000000               0.002320325               0.011075938              -0.000250073              -0.000514369               0.003863399               0.003349030               0.000000000               0.000000000               0.000000000               0.000000000               0.002011137               0.009854500              -0.000369008              -0.000477635               0.003444012               0.002966377               0.000000000               0.000000000               0.000000000               0.000000000               0.001679105               0.009015998              -0.000411663              -0.000497334               0.003171081               0.002673746               0.000000000               0.000000000               0.000000000               0.000000000               0.001365934               0.008395216              -0.000421396              -0.000537176               0.002977436               0.002440260               0.000000000               0.000000000               0.000000000               0.000000000               0.001084450               0.007898005              -0.000412260              -0.000580581               0.002826169               0.002245588               0.000000000               0.000000000               0.000000000               0.000000000               0.000842475               0.007474603              -0.000395618              -0.000618396               0.002697641               0.002079246               0.000000000               0.000000000               0.000000000               0.000000000               0.000638445               0.007095868              -0.000376847              -0.000647565               0.002581121               0.001933556               0.000000000               0.000000000               0.000000000               0.000000000               0.000469647               0.006736942              -0.000353666              -0.000665999               0.002467624               0.001801626               0.000000000               0.000000000               0.000000000               0.000000000               0.000332636               0.006381450              -0.000326540              -0.000672941               0.002351443               0.001678501               0.000000000               0.000000000               0.000000000               0.000000000               0.000221070               0.006019706              -0.000298274              -0.000669560               0.002229735               0.001560175               0.000000000               0.000000000               0.000000000               0.000000000               0.000130764               0.005644909              -0.000264007              -0.000656575               0.002100476               0.001443901               0.000000000               0.000000000               0.000000000               0.000000000               0.000061987               0.005246308              -0.000211009              -0.000632542               0.001959599               0.001327057               0.000000000               0.000000000               0.000000000               0.000000000               0.000019796               0.004809038              -0.000123534              -0.000593705               0.001800898               0.001207193               0.000000000               0.000000000               0.000000000               0.000000000              -0.000027499               0.004482147              -0.000075289              -0.000570579               0.001684227               0.001113648               0.000000000               0.000000000               0.000000000               0.000000000               0.002208085               0.019640673               0.002736546              -0.001627049               0.007089175               0.005462126               0.000000000               0.000000000               0.000000000               0.000000000               0.001823322               0.015709176               0.001411379              -0.001279898               0.005662972               0.004383074               0.000000000               0.000000000               0.000000000               0.000000000               0.002035519               0.012673750               0.000101473              -0.000820897               0.004498174               0.003677276               0.000000000               0.000000000               0.000000000               0.000000000               0.001796104               0.010950331              -0.000431805              -0.000695251               0.003881824               0.003186573               0.000000000               0.000000000               0.000000000               0.000000000               0.001470803               0.009847528              -0.000638114              -0.000679388               0.003508939               0.002829551               0.000000000               0.000000000               0.000000000               0.000000000               0.001167990               0.009070495              -0.000709837              -0.000695814               0.003255406               0.002559592               0.000000000               0.000000000               0.000000000               0.000000000               0.000902879               0.008473853              -0.000721473              -0.000720650               0.003064806               0.002344156               0.000000000               0.000000000               0.000000000               0.000000000               0.000676346               0.007984272              -0.000701026              -0.000744403               0.002909532               0.002165129               0.000000000               0.000000000               0.000000000               0.000000000               0.000489074               0.007563307              -0.000670311              -0.000762009               0.002775080               0.002013071               0.000000000               0.000000000               0.000000000               0.000000000               0.000339526               0.007183673              -0.000634347              -0.000770635               0.002651412               0.001880777               0.000000000               0.000000000               0.000000000               0.000000000               0.000225528               0.006828021              -0.000590352              -0.000768928               0.002532294               0.001763366               0.000000000               0.000000000               0.000000000               0.000000000               0.000141393               0.006487942              -0.000541686              -0.000757969               0.002415282               0.001657313               0.000000000               0.000000000               0.000000000               0.000000000               0.000081109               0.006158262              -0.000488889              -0.000739365               0.002299188               0.001559823               0.000000000               0.000000000               0.000000000               0.000000000               0.000038704               0.005832849              -0.000423044              -0.000714591               0.002182460               0.001467870               0.000000000               0.000000000               0.000000000               0.000000000               0.000012872               0.005509917              -0.000328549              -0.000683911               0.002064591               0.001380680               0.000000000               0.000000000               0.000000000               0.000000000               0.000000387               0.005194489              -0.000187738              -0.000649164               0.001947867               0.001298703               0.000000000               0.000000000               0.000000000               0.000000000              -0.000022087               0.004987042              -0.000110112              -0.000631661               0.001872884               0.001241223               0.000000000               0.000000000               0.000000000               0.000000000               0.002407930               0.017767099               0.003647369              -0.001317913               0.006361611               0.005043698               0.000000000               0.000000000               0.000000000               0.000000000               0.001615286               0.014507657               0.001889782              -0.001207723               0.005238411               0.004030689               0.000000000               0.000000000               0.000000000               0.000000000               0.001397908               0.012145849               0.000174598              -0.000994013               0.004379914               0.003385900               0.000000000               0.000000000               0.000000000               0.000000000               0.001034687               0.010748264              -0.000492387              -0.000955523               0.003901227               0.002945703               0.000000000               0.000000000               0.000000000               0.000000000               0.000715350               0.009807179              -0.000739814              -0.000957639               0.003588240               0.002630601               0.000000000               0.000000000               0.000000000               0.000000000               0.000469356               0.009111067              -0.000815523              -0.000962873               0.003357950               0.002395077               0.000000000               0.000000000               0.000000000               0.000000000               0.000277307               0.008549599              -0.000819962              -0.000964707               0.003171407               0.002206700               0.000000000               0.000000000               0.000000000               0.000000000               0.000134089               0.008074020              -0.000791681              -0.000958967               0.003010969               0.002052002               0.000000000               0.000000000               0.000000000               0.000000000               0.000037883               0.007658261              -0.000750573              -0.000943074               0.002867086               0.001924012               0.000000000               0.000000000               0.000000000               0.000000000              -0.000025236               0.007281810              -0.000702572              -0.000919688               0.002733808               0.001814121               0.000000000               0.000000000               0.000000000               0.000000000              -0.000059198               0.006936967              -0.000646285              -0.000889318               0.002608738               0.001719420               0.000000000               0.000000000               0.000000000               0.000000000              -0.000072319               0.006620914              -0.000583947              -0.000854732               0.002491860               0.001637128               0.000000000               0.000000000               0.000000000               0.000000000              -0.000076774               0.006330507              -0.000514080              -0.000820102               0.002383515               0.001563413               0.000000000               0.000000000               0.000000000               0.000000000              -0.000068881               0.006066563              -0.000427639              -0.000784149               0.002283550               0.001499402               0.000000000               0.000000000               0.000000000               0.000000000              -0.000048737               0.005831696              -0.000315643              -0.000747236               0.002192958               0.001445721               0.000000000               0.000000000               0.000000000               0.000000000              -0.000025215               0.005636959              -0.000172269              -0.000714074               0.002116992               0.001402919               0.000000000               0.000000000               0.000000000               0.000000000              -0.000021094               0.005532822              -0.000096252              -0.000699511               0.002077426               0.001377915               0.000000000               0.000000000               0.000000000               0.000000000               0.002493980               0.015475067               0.004127331              -0.000999142               0.005491350               0.004492209               0.000000000               0.000000000               0.000000000               0.000000000               0.001280194               0.013070559               0.002174731              -0.001153746               0.004741391               0.003587645               0.000000000               0.000000000               0.000000000               0.000000000               0.000617624               0.011517770               0.000292030              -0.001208109               0.004241921               0.003033812               0.000000000               0.000000000               0.000000000               0.000000000               0.000174222               0.010476543              -0.000402139              -0.001244232               0.003906890               0.002662658               0.000000000               0.000000000               0.000000000               0.000000000              -0.000098318               0.009703632              -0.000646546              -0.001249820               0.003651119               0.002401298               0.000000000               0.000000000               0.000000000               0.000000000              -0.000256502               0.009087804              -0.000714571              -0.001232161               0.003439958               0.002207797               0.000000000               0.000000000               0.000000000               0.000000000              -0.000342033               0.008567870              -0.000713168              -0.001199243               0.003255676               0.002056433               0.000000000               0.000000000               0.000000000               0.000000000              -0.000378496               0.008112973              -0.000682152              -0.001156055               0.003089649               0.001933594               0.000000000               0.000000000               0.000000000               0.000000000              -0.000376521               0.007710392              -0.000639405              -0.001104992               0.002938435               0.001833444               0.000000000               0.000000000               0.000000000               0.000000000              -0.000348899               0.007347091              -0.000588338              -0.001049221               0.002798746               0.001749525               0.000000000               0.000000000               0.000000000               0.000000000              -0.000306877               0.007015836              -0.000528991              -0.000992056               0.002669274               0.001677218               0.000000000               0.000000000               0.000000000               0.000000000              -0.000257744               0.006715814              -0.000466680              -0.000936129               0.002550625               0.001614497               0.000000000               0.000000000               0.000000000               0.000000000              -0.000205986               0.006452228              -0.000401206              -0.000883771               0.002445311               0.001561540               0.000000000               0.000000000               0.000000000               0.000000000              -0.000150918               0.006228381              -0.000322507              -0.000835140               0.002354486               0.001519346               0.000000000               0.000000000               0.000000000               0.000000000              -0.000097687               0.006047297              -0.000225253              -0.000792543               0.002279926               0.001487384               0.000000000               0.000000000               0.000000000               0.000000000              -0.000049456               0.005916238              -0.000114981              -0.000758074               0.002224751               0.001466677               0.000000000               0.000000000               0.000000000               0.000000000              -0.000032550               0.005853422              -0.000061950              -0.000743882               0.002199082               0.001455200               0.000000000               0.000000000               0.000000000               0.000000000               0.002358233               0.013001443               0.004184152              -0.000740845               0.004580719               0.003839873               0.000000000               0.000000000               0.000000000               0.000000000               0.000817560               0.011550889               0.002288550              -0.001137275               0.004229349               0.003092074               0.000000000               0.000000000               0.000000000               0.000000000              -0.000208914               0.010837545               0.000475823              -0.001433032               0.004090156               0.002657124               0.000000000               0.000000000               0.000000000               0.000000000              -0.000656510               0.010133411              -0.000161581              -0.001512864               0.003882058               0.002369194               0.000000000               0.000000000               0.000000000               0.000000000              -0.000824779               0.009510477              -0.000382591              -0.001498098               0.003669493               0.002171395               0.000000000               0.000000000               0.000000000               0.000000000              -0.000859409               0.008964361              -0.000446454              -0.001442820               0.003469030               0.002026210               0.000000000               0.000000000               0.000000000               0.000000000              -0.000828376               0.008484943              -0.000449276              -0.001371255               0.003285371               0.001914116               0.000000000               0.000000000               0.000000000               0.000000000              -0.000757856               0.008057214              -0.000429109              -0.001291345               0.003116160               0.001824815               0.000000000               0.000000000               0.000000000               0.000000000              -0.000662786               0.007669704              -0.000400138              -0.001207255               0.002958961               0.001751706               0.000000000               0.000000000               0.000000000               0.000000000              -0.000561277               0.007312302              -0.000363093              -0.001124514               0.002812248               0.001687734               0.000000000               0.000000000               0.000000000               0.000000000              -0.000460614               0.006985187              -0.000318659              -0.001045876               0.002676998               0.001631122               0.000000000               0.000000000               0.000000000               0.000000000              -0.000363750               0.006692389              -0.000275617              -0.000972953               0.002555092               0.001582139               0.000000000               0.000000000               0.000000000               0.000000000              -0.000275384               0.006438733              -0.000234854              -0.000908109               0.002448926               0.001540817               0.000000000               0.000000000               0.000000000               0.000000000              -0.000194801               0.006227838              -0.000185417              -0.000851528               0.002359768               0.001508240               0.000000000               0.000000000               0.000000000               0.000000000              -0.000123612               0.006062671              -0.000124924              -0.000804186               0.002288932               0.001484746               0.000000000               0.000000000               0.000000000               0.000000000              -0.000059883               0.005941286              -0.000060532              -0.000765115               0.002235447               0.001470332               0.000000000               0.000000000               0.000000000               0.000000000              -0.000040143               0.005874144              -0.000035451              -0.000749320               0.002207802               0.001458482               0.000000000               0.000000000               0.000000000               0.000000000               0.001948814               0.010549739               0.003888251              -0.000587915               0.003712515               0.003124600               0.000000000               0.000000000               0.000000000               0.000000000               0.000252687               0.010061080               0.002279947              -0.001162876               0.003741285               0.002578408               0.000000000               0.000000000               0.000000000               0.000000000              -0.000986780               0.010126117               0.000733278              -0.001635803               0.003920606               0.002284803               0.000000000               0.000000000               0.000000000               0.000000000              -0.001348236               0.009709204               0.000193444              -0.001719235               0.003809447               0.002090213               0.000000000               0.000000000               0.000000000               0.000000000              -0.001373983               0.009215161              -0.000008854              -0.001667135               0.003627401               0.001960266               0.000000000               0.000000000               0.000000000               0.000000000              -0.001271004               0.008742230              -0.000085026              -0.001569401               0.003437181               0.001867780               0.000000000               0.000000000               0.000000000               0.000000000              -0.001119299               0.008308760              -0.000112902              -0.001458329               0.003255669               0.001797340               0.000000000               0.000000000               0.000000000               0.000000000              -0.000953945               0.007898129              -0.000120030              -0.001344992               0.003081014               0.001736022               0.000000000               0.000000000               0.000000000               0.000000000              -0.000793702               0.007507167              -0.000117421              -0.001236031               0.002914374               0.001678343               0.000000000               0.000000000               0.000000000               0.000000000              -0.000645024               0.007140639              -0.000107085              -0.001134461               0.002758343               0.001623882               0.000000000               0.000000000               0.000000000               0.000000000              -0.000508754               0.006805846              -0.000091709              -0.001041511               0.002615763               0.001574252               0.000000000               0.000000000               0.000000000               0.000000000              -0.000387355               0.006511173              -0.000081277              -0.000959152               0.002490087               0.001530934               0.000000000               0.000000000               0.000000000               0.000000000              -0.000282841               0.006260942              -0.000077269              -0.000888681               0.002383187               0.001494506               0.000000000               0.000000000               0.000000000               0.000000000              -0.000194171               0.006055311              -0.000069374              -0.000829726               0.002294992               0.001465266               0.000000000               0.000000000               0.000000000               0.000000000              -0.000119311               0.005891443              -0.000051144              -0.000781170               0.002224185               0.001443015               0.000000000               0.000000000               0.000000000               0.000000000              -0.000055743               0.005761664              -0.000025083              -0.000741110               0.002167572               0.001426462               0.000000000               0.000000000               0.000000000               0.000000000              -0.000041719               0.005681945              -0.000020284              -0.000725886               0.002135925               0.001410039               0.000000000               0.000000000               0.000000000               0.000000000               0.001294305               0.008273001               0.003332926              -0.000548763               0.002940559               0.002391796               0.000000000               0.000000000               0.000000000               0.000000000              -0.000375764               0.008684899               0.002193492              -0.001226522               0.003303778               0.002077255               0.000000000               0.000000000               0.000000000               0.000000000              -0.001639377               0.009392923               0.001052273              -0.001788878               0.003727236               0.001938358               0.000000000               0.000000000               0.000000000               0.000000000              -0.001838438               0.009208640               0.000605869              -0.001840490               0.003683013               0.001842523               0.000000000               0.000000000               0.000000000               0.000000000              -0.001702983               0.008841330               0.000395863              -0.001743780               0.003528341               0.001784560               0.000000000               0.000000000               0.000000000               0.000000000              -0.001471211               0.008444125               0.000284276              -0.001607216               0.003350419               0.001743203               0.000000000               0.000000000               0.000000000               0.000000000              -0.001229911               0.008036694               0.000217468              -0.001465800               0.003167471               0.001701671               0.000000000               0.000000000               0.000000000               0.000000000              -0.001004293               0.007628695               0.000178472              -0.001330194               0.002986271               0.001656077               0.000000000               0.000000000               0.000000000               0.000000000              -0.000801060               0.007230331               0.000149361              -0.001204186               0.002811482               0.001607296               0.000000000               0.000000000               0.000000000               0.000000000              -0.000624526               0.006853401               0.000123895              -0.001090870               0.002648067               0.001557198               0.000000000               0.000000000               0.000000000               0.000000000              -0.000471571               0.006513352               0.000098252              -0.000991006               0.002501431               0.001510425               0.000000000               0.000000000               0.000000000               0.000000000              -0.000342312               0.006220735               0.000063824              -0.000905957               0.002375543               0.001469586               0.000000000               0.000000000               0.000000000               0.000000000              -0.000240646               0.005975220               0.000023661              -0.000837143               0.002270768               0.001433625               0.000000000               0.000000000               0.000000000               0.000000000              -0.000160858               0.005773158              -0.000008464              -0.000781964               0.002185022               0.001403057               0.000000000               0.000000000               0.000000000               0.000000000              -0.000097414               0.005609412              -0.000023283              -0.000737705               0.002115687               0.001377982               0.000000000               0.000000000               0.000000000               0.000000000              -0.000047846               0.005480452              -0.000019219              -0.000702997               0.002061131               0.001358134               0.000000000               0.000000000               0.000000000               0.000000000              -0.000035335               0.005406699              -0.000019602              -0.000689086               0.002031910               0.001342824               0.000000000               0.000000000               0.000000000               0.000000000               0.000499150               0.006338099               0.002624931              -0.000605082               0.002314371               0.001709290               0.000000000               0.000000000               0.000000000               0.000000000              -0.000979224               0.007450859               0.002076227              -0.001298564               0.002916449               0.001617885               0.000000000               0.000000000               0.000000000               0.000000000              -0.002126001               0.008668690               0.001422089              -0.001880832               0.003516478               0.001635646               0.000000000               0.000000000               0.000000000               0.000000000              -0.002153324               0.008732107               0.001036362              -0.001899005               0.003543675               0.001644669               0.000000000               0.000000000               0.000000000               0.000000000              -0.001888572               0.008508733               0.000795288              -0.001771802               0.003426816               0.001655015               0.000000000               0.000000000               0.000000000               0.000000000              -0.001564655               0.008181009               0.000637461              -0.001609368               0.003263432               0.001654064               0.000000000               0.000000000               0.000000000               0.000000000              -0.001260193               0.007803459               0.000529123              -0.001448001               0.003083794               0.001635793               0.000000000               0.000000000               0.000000000               0.000000000              -0.000987885               0.007408376               0.000454547              -0.001296501               0.002901601               0.001605100               0.000000000               0.000000000               0.000000000               0.000000000              -0.000752631               0.007015472               0.000393705              -0.001159168               0.002724857               0.001565689               0.000000000               0.000000000               0.000000000               0.000000000              -0.000554004               0.006643948               0.000331742              -0.001038242               0.002560708               0.001522466               0.000000000               0.000000000               0.000000000               0.000000000              -0.000391856               0.006307856               0.000262644              -0.000935426               0.002414406               0.001478980               0.000000000               0.000000000               0.000000000               0.000000000              -0.000269930               0.006018214               0.000186801              -0.000853498               0.002290551               0.001437052               0.000000000               0.000000000               0.000000000               0.000000000              -0.000187289               0.005772363               0.000109601              -0.000791777               0.002188027               0.001396251               0.000000000               0.000000000               0.000000000               0.000000000              -0.000134013               0.005563911               0.000043646              -0.000745742               0.002103199               0.001357457               0.000000000               0.000000000               0.000000000               0.000000000              -0.000105642               0.005384054              -0.000001533              -0.000712621               0.002032207               0.001319586               0.000000000               0.000000000               0.000000000               0.000000000              -0.000095145               0.005236155              -0.000017890              -0.000690197               0.001975433               0.001285236               0.000000000               0.000000000               0.000000000               0.000000000              -0.000089223               0.005164833              -0.000018743              -0.000679061               0.001947948               0.001268886               0.000000000               0.000000000               0.000000000               0.000000000              -0.000450780               0.004533511               0.001866013              -0.000735731               0.001756398               0.001020667               0.000000000               0.000000000               0.000000000               0.000000000              -0.001468077               0.006026288               0.001939542              -0.001303813               0.002443346               0.001139534               0.000000000               0.000000000               0.000000000               0.000000000              -0.002380286               0.007612068               0.001813064              -0.001844112               0.003152034               0.001307922               0.000000000               0.000000000               0.000000000               0.000000000              -0.002322386               0.008019242               0.001499857              -0.001873296               0.003297486               0.001424190               0.000000000               0.000000000               0.000000000               0.000000000              -0.002017255               0.008024543               0.001231596              -0.001759535               0.003261332               0.001501798               0.000000000               0.000000000               0.000000000               0.000000000              -0.001664450               0.007846877               0.001022124              -0.001605025               0.003150608               0.001545583               0.000000000               0.000000000               0.000000000               0.000000000              -0.001333750               0.007578209               0.000866289              -0.001447429               0.003008520               0.001561092               0.000000000               0.000000000               0.000000000               0.000000000              -0.001041316               0.007260368               0.000749902              -0.001298037               0.002852777               0.001554741               0.000000000               0.000000000               0.000000000               0.000000000              -0.000789824               0.006925853               0.000650454              -0.001161913               0.002695899               0.001533986               0.000000000               0.000000000               0.000000000               0.000000000              -0.000581184               0.006589506               0.000554793              -0.001041630               0.002543690               0.001502060               0.000000000               0.000000000               0.000000000               0.000000000              -0.000415917               0.006265073               0.000453238              -0.000939101               0.002401370               0.001462270               0.000000000               0.000000000               0.000000000               0.000000000              -0.000292699               0.005970316               0.000346454              -0.000856050               0.002275435               0.001419386               0.000000000               0.000000000               0.000000000               0.000000000              -0.000212234               0.005717244               0.000241169              -0.000794241               0.002170476               0.001376235               0.000000000               0.000000000               0.000000000               0.000000000              -0.000170375               0.005501036               0.000142704              -0.000751518               0.002084167               0.001332648               0.000000000               0.000000000               0.000000000               0.000000000              -0.000162400               0.005310571               0.000059044              -0.000724720               0.002011746               0.001287026               0.000000000               0.000000000               0.000000000               0.000000000              -0.000179611               0.005143842               0.000009863              -0.000710333               0.001951374               0.001241042               0.000000000               0.000000000               0.000000000               0.000000000              -0.000193359               0.005060346              -0.000004481              -0.000705051               0.001921782               0.001216731               0.000000000               0.000000000               0.000000000               0.000000000              -0.001700777               0.002899292               0.001108501              -0.001000201               0.001299821               0.000299620               0.000000000               0.000000000               0.000000000               0.000000000              -0.002022089               0.004605674               0.001735110              -0.001333990               0.001979872               0.000645882               0.000000000               0.000000000               0.000000000               0.000000000              -0.002543803               0.006399340               0.002114577              -0.001753840               0.002717705               0.000963865               0.000000000               0.000000000               0.000000000               0.000000000              -0.002407459               0.007123028               0.001935190              -0.001793172               0.002972042               0.001178871               0.000000000               0.000000000               0.000000000               0.000000000              -0.002093097               0.007379705               0.001673168              -0.001707371               0.003029000               0.001321629               0.000000000               0.000000000               0.000000000               0.000000000              -0.001743600               0.007389026               0.001433973              -0.001577475               0.002988809               0.001411334               0.000000000               0.000000000               0.000000000               0.000000000              -0.001404258               0.007269559               0.001238816              -0.001435289               0.002901592               0.001466303               0.000000000               0.000000000               0.000000000               0.000000000              -0.001099880               0.007073583               0.001079485              -0.001296650               0.002790054               0.001493404               0.000000000               0.000000000               0.000000000               0.000000000              -0.000836343               0.006834174               0.000943528              -0.001167898               0.002667334               0.001499436               0.000000000               0.000000000               0.000000000               0.000000000              -0.000611127               0.006563090               0.000819903              -0.001049557               0.002537527               0.001487970               0.000000000               0.000000000               0.000000000               0.000000000              -0.000424981               0.006278412               0.000697327              -0.000944167               0.002407505               0.001463338               0.000000000               0.000000000               0.000000000               0.000000000              -0.000276480               0.006003059               0.000571483              -0.000854060               0.002285686               0.001431626               0.000000000               0.000000000               0.000000000               0.000000000              -0.000171911               0.005751999               0.000442310              -0.000783465               0.002178469               0.001395004               0.000000000               0.000000000               0.000000000               0.000000000              -0.000123955               0.005522183               0.000310337              -0.000736754               0.002086294               0.001349540               0.000000000               0.000000000               0.000000000               0.000000000              -0.000130186               0.005319493               0.000182498              -0.000713754               0.002011065               0.001297310               0.000000000               0.000000000               0.000000000               0.000000000              -0.000186478               0.005144136               0.000076436              -0.000712945               0.001952343               0.001239398               0.000000000               0.000000000               0.000000000               0.000000000              -0.000245563               0.005048053               0.000024648              -0.000723091               0.001923698               0.001200607               0.000000000               0.000000000               0.000000000               0.000000000              -0.003165385               0.001548758               0.000411153              -0.001380612               0.000976450              -0.000404162               0.000000000               0.000000000               0.000000000               0.000000000              -0.002696403               0.003270993               0.001444033              -0.001420023               0.001563660               0.000143637               0.000000000               0.000000000               0.000000000               0.000000000              -0.002657356               0.005047377               0.002227786              -0.001627427               0.002224917               0.000597490               0.000000000               0.000000000               0.000000000               0.000000000              -0.002373616               0.005988902               0.002217367              -0.001638716               0.002542519               0.000903803               0.000000000               0.000000000               0.000000000               0.000000000              -0.002033030               0.006474465               0.002007643              -0.001571691               0.002682030               0.001110339               0.000000000               0.000000000               0.000000000               0.000000000              -0.001692012               0.006685890               0.001772480              -0.001470238               0.002718687               0.001248449               0.000000000               0.000000000               0.000000000               0.000000000              -0.001367078               0.006733247               0.001562660              -0.001354307               0.002695829               0.001341521               0.000000000               0.000000000               0.000000000               0.000000000              -0.001069836               0.006680791               0.001376445              -0.001236285               0.002639003               0.001402718               0.000000000               0.000000000               0.000000000               0.000000000              -0.000804583               0.006564256               0.001212378              -0.001122248               0.002562146               0.001439898               0.000000000               0.000000000               0.000000000               0.000000000              -0.000572293               0.006393692               0.001067171              -0.001013819               0.002469149               0.001455330               0.000000000               0.000000000               0.000000000               0.000000000              -0.000365331               0.006188477               0.000931413              -0.000910557               0.002366324               0.001455767               0.000000000               0.000000000               0.000000000               0.000000000              -0.000187092               0.005968580               0.000795362              -0.000816230               0.002261583               0.001445353               0.000000000               0.000000000               0.000000000               0.000000000              -0.000049454               0.005748277               0.000649214              -0.000737078               0.002161766               0.001424688               0.000000000               0.000000000               0.000000000               0.000000000               0.000033220               0.005532361               0.000490847              -0.000679086               0.002070464               0.001391378               0.000000000               0.000000000               0.000000000               0.000000000               0.000052149               0.005332497               0.000324985              -0.000647005               0.001993149               0.001346145               0.000000000               0.000000000               0.000000000               0.000000000              -0.000003316               0.005154732               0.000159285              -0.000645583               0.001933421               0.001287838               0.000000000               0.000000000               0.000000000               0.000000000              -0.000078746               0.005055150               0.000068639              -0.000661422               0.001905507               0.001244085               0.000000000               0.000000000               0.000000000               0.000000000              -0.004734313               0.000549893              -0.000139722              -0.001844102               0.000797993              -0.001046109               0.000000000               0.000000000               0.000000000               0.000000000              -0.003451831               0.002089217               0.001101640              -0.001555586               0.001214926              -0.000340660               0.000000000               0.000000000               0.000000000               0.000000000              -0.002753955               0.003665100               0.002130800              -0.001490868               0.001718642               0.000227775               0.000000000               0.000000000               0.000000000               0.000000000              -0.002253292               0.004711238               0.002273360              -0.001433887               0.002048358               0.000614471               0.000000000               0.000000000               0.000000000               0.000000000              -0.001852400               0.005370648               0.002144902              -0.001365979               0.002245524               0.000879545               0.000000000               0.000000000               0.000000000               0.000000000              -0.001506811               0.005768952               0.001946173              -0.001286171               0.002351688               0.001065517               0.000000000               0.000000000               0.000000000               0.000000000              -0.001200289               0.005991060               0.001744199              -0.001198989               0.002396662               0.001197674               0.000000000               0.000000000               0.000000000               0.000000000              -0.000923660               0.006092120               0.001555775              -0.001107885               0.002399981               0.001292096               0.000000000               0.000000000               0.000000000               0.000000000              -0.000670355               0.006109816               0.001385059              -0.001015108               0.002374954               0.001359846               0.000000000               0.000000000               0.000000000               0.000000000              -0.000439256               0.006061515               0.001234661              -0.000922409               0.002327954               0.001405545               0.000000000               0.000000000               0.000000000               0.000000000              -0.000220726               0.005962720               0.001097818              -0.000828111               0.002263590               0.001435480               0.000000000               0.000000000               0.000000000               0.000000000              -0.000016782               0.005829921               0.000958305              -0.000735032               0.002188298               0.001453266               0.000000000               0.000000000               0.000000000               0.000000000               0.000160818               0.005673965               0.000805771              -0.000648938               0.002107615               0.001458678               0.000000000               0.000000000               0.000000000               0.000000000               0.000302716               0.005503098               0.000638879              -0.000574367               0.002025803               0.001451436               0.000000000               0.000000000               0.000000000               0.000000000               0.000396034               0.005328784               0.000449886              -0.000517584               0.001948771               0.001431187               0.000000000               0.000000000               0.000000000               0.000000000               0.000416648               0.005160926               0.000234912              -0.000488871               0.001883249               0.001394377               0.000000000               0.000000000               0.000000000               0.000000000               0.000390724               0.005071566               0.000117153              -0.000487423               0.001852980               0.001365556               0.000000000               0.000000000               0.000000000               0.000000000              -0.006259552              -0.000107906              -0.000460864              -0.002333842               0.000741974              -0.001591868               0.000000000               0.000000000               0.000000000               0.000000000              -0.004217171               0.001127715               0.000756802              -0.001722401               0.000950032              -0.000772369               0.000000000               0.000000000               0.000000000               0.000000000              -0.002846876               0.002383478               0.001821215              -0.001365511               0.001249654              -0.000115857               0.000000000               0.000000000               0.000000000               0.000000000              -0.002086213               0.003429337               0.002059324              -0.001210995               0.001546765               0.000335770               0.000000000               0.000000000               0.000000000               0.000000000              -0.001592968               0.004200548               0.002011164              -0.001122430               0.001774311               0.000651881               0.000000000               0.000000000               0.000000000               0.000000000              -0.001229008               0.004745585               0.001867408              -0.001054075               0.001933203               0.000879129               0.000000000               0.000000000               0.000000000               0.000000000              -0.000934804               0.005121415               0.001698090              -0.000990727               0.002037363               0.001046636               0.000000000               0.000000000               0.000000000               0.000000000              -0.000675763               0.005373697               0.001530820              -0.000925122               0.002099588               0.001174466               0.000000000               0.000000000               0.000000000               0.000000000              -0.000434953               0.005522610               0.001376777              -0.000853432               0.002125329               0.001271897               0.000000000               0.000000000               0.000000000               0.000000000              -0.000205148               0.005595311               0.001241091              -0.000776343               0.002123866               0.001347523               0.000000000               0.000000000               0.000000000               0.000000000               0.000016575               0.005611193               0.001116984              -0.000695182               0.002102106               0.001406924               0.000000000               0.000000000               0.000000000               0.000000000               0.000235886               0.005580522               0.000988550              -0.000609107               0.002063191               0.001454084               0.000000000               0.000000000               0.000000000               0.000000000               0.000455807               0.005511690               0.000847906              -0.000518033               0.002009889               0.001491857               0.000000000               0.000000000               0.000000000               0.000000000               0.000667159               0.005408860               0.000691602              -0.000425922               0.001944909               0.001518987               0.000000000               0.000000000               0.000000000               0.000000000               0.000858084               0.005284038               0.000504090              -0.000338723               0.001874236               0.001535513               0.000000000               0.000000000               0.000000000               0.000000000               0.001016550               0.005147133               0.000272997              -0.000262185               0.001803089               0.001540904               0.000000000               0.000000000               0.000000000               0.000000000               0.001106968               0.005084578               0.000150176              -0.000220459               0.001768329               0.001547870               0.000000000               0.000000000               0.000000000               0.000000000              -0.007553189              -0.000486941              -0.000515755              -0.002771576               0.000761540              -0.002010037               0.000000000               0.000000000               0.000000000               0.000000000              -0.004887736               0.000426222               0.000452269              -0.001886177               0.000770794              -0.001115383               0.000000000               0.000000000               0.000000000               0.000000000              -0.002932137               0.001341797               0.001326353              -0.001267274               0.000869684              -0.000397590               0.000000000               0.000000000               0.000000000               0.000000000              -0.001917563               0.002324988               0.001568392              -0.001009708               0.001111557               0.000101849               0.000000000               0.000000000               0.000000000               0.000000000              -0.001321891               0.003146679               0.001573635              -0.000889043               0.001345229               0.000456187               0.000000000               0.000000000               0.000000000               0.000000000              -0.000929777               0.003788582               0.001486395              -0.000822238               0.001536927               0.000714689               0.000000000               0.000000000               0.000000000               0.000000000              -0.000637086               0.004277429               0.001367321              -0.000773585               0.001683656               0.000910072               0.000000000               0.000000000               0.000000000               0.000000000              -0.000388703               0.004646803               0.001244091              -0.000726613               0.001791123               0.001064510               0.000000000               0.000000000               0.000000000               0.000000000              -0.000156774               0.004909303               0.001129197              -0.000672452               0.001860568               0.001188117               0.000000000               0.000000000               0.000000000               0.000000000               0.000069382               0.005088721               0.001024835              -0.000610071               0.001899580               0.001289509               0.000000000               0.000000000               0.000000000               0.000000000               0.000294192               0.005204716               0.000926975              -0.000540267               0.001914977               0.001374710               0.000000000               0.000000000               0.000000000               0.000000000               0.000525928               0.005265757               0.000828918              -0.000460996               0.001908900               0.001447904               0.000000000               0.000000000               0.000000000               0.000000000               0.000778275               0.005284473               0.000721895              -0.000368705               0.001884375               0.001515670               0.000000000               0.000000000               0.000000000               0.000000000               0.001051155               0.005263360               0.000595951              -0.000263736               0.001842348               0.001578612               0.000000000               0.000000000               0.000000000               0.000000000               0.001340728               0.005202502               0.000442104              -0.000147540               0.001783330               0.001635790               0.000000000               0.000000000               0.000000000               0.000000000               0.001650710               0.005110838               0.000245549              -0.000019839               0.001710209               0.001690370               0.000000000               0.000000000               0.000000000               0.000000000               0.001879433               0.005085327               0.000143027               0.000069121               0.001672052               0.001741172               0.000000000               0.000000000               0.000000000               0.000000000              -0.008427410              -0.000665790              -0.000329288              -0.003077053               0.000803749              -0.002273304               0.000000000               0.000000000               0.000000000               0.000000000              -0.005351263               0.000005648               0.000205757              -0.002007428               0.000671021              -0.001336407               0.000000000               0.000000000               0.000000000               0.000000000              -0.002998138               0.000661339               0.000697970              -0.001206968               0.000622765              -0.000584203               0.000000000               0.000000000               0.000000000               0.000000000              -0.001797819               0.001573412               0.000849580              -0.000870857               0.000814750              -0.000056107               0.000000000               0.000000000               0.000000000               0.000000000              -0.001121359               0.002407916               0.000866266              -0.000721498               0.001043130               0.000321632               0.000000000               0.000000000               0.000000000               0.000000000              -0.000698649               0.003098269               0.000826319              -0.000649276               0.001249171               0.000599895               0.000000000               0.000000000               0.000000000               0.000000000              -0.000396930               0.003652219               0.000766222              -0.000605375               0.001419186               0.000813811               0.000000000               0.000000000               0.000000000               0.000000000              -0.000149365               0.004095014               0.000702695              -0.000567887               0.001554287               0.000986399               0.000000000               0.000000000               0.000000000               0.000000000               0.000073542               0.004435157               0.000641284              -0.000526815               0.001653976               0.001127161               0.000000000               0.000000000               0.000000000               0.000000000               0.000290065               0.004689417               0.000583583              -0.000477402               0.001722257               0.001244855               0.000000000               0.000000000               0.000000000               0.000000000               0.000513974               0.004872715               0.000529366              -0.000416348               0.001763005               0.001346656               0.000000000               0.000000000               0.000000000               0.000000000               0.000755189               0.005000124               0.000476647              -0.000341819               0.001780631               0.001438812               0.000000000               0.000000000               0.000000000               0.000000000               0.001025730               0.005084064               0.000419567              -0.000250859               0.001778291               0.001527432               0.000000000               0.000000000               0.000000000               0.000000000               0.001337196               0.005126191               0.000349039              -0.000139325               0.001755155               0.001615830               0.000000000               0.000000000               0.000000000               0.000000000               0.001701845               0.005124284               0.000261831              -0.000002344               0.001708859               0.001706515               0.000000000               0.000000000               0.000000000               0.000000000               0.002130796               0.005076752               0.000147131               0.000164453               0.001637416               0.001801869               0.000000000               0.000000000               0.000000000               0.000000000               0.002472029               0.005081968               0.000087544               0.000291762               0.001596719               0.001888481               0.000000000               0.000000000               0.000000000               0.000000000               0.000000000               0.000000000               0.000000000               0.000000000               0.000000000               0.000000000               0.000000000               0.000000000               0.000000000               0.000000000               0.000000000               0.000000000               0.000000000               0.000000000               0.000000000               0.000000000               0.000000000               0.000000000               0.000000000               0.000000000               0.000000000               0.000000000               0.000000000               0.000000000               0.000000000               0.000000000               0.000000000               0.000000000               0.000000000               0.000000000               0.000000000               0.000000000               0.000000000               0.000000000               0.000000000               0.000000000               0.000000000               0.000000000               0.000000000               0.000000000               0.000000000               0.000000000               0.000000000               0.000000000               0.000000000               0.000000000               0.000000000               0.000000000               0.000000000               0.000000000               0.000000000               0.000000000               0.000000000               0.000000000               0.000000000               0.000000000               0.000000000               0.000000000               0.000000000               0.000000000               0.000000000               0.000000000               0.000000000               0.000000000               0.000000000               0.000000000               0.000000000               0.000000000               0.000000000               0.000000000               0.000000000               0.000000000               0.000000000               0.000000000               0.000000000               0.000000000               0.000000000               0.000000000               0.000000000               0.000000000               0.000000000               0.000000000               0.000000000               0.000000000               0.000000000               0.000000000               0.000000000               0.000000000               0.000000000               0.000000000               0.000000000               0.000000000               0.000000000               0.000000000               0.000000000               0.000000000               0.000000000               0.000000000               0.000000000               0.000000000               0.000000000               0.000000000               0.000000000               0.000000000               0.000000000               0.000000000               0.000000000               0.000000000               0.000000000               0.000000000               0.000000000               0.000000000               0.000000000               0.000000000               0.000000000               0.000000000               0.000000000               0.000000000               0.000000000               0.000000000               0.000000000               0.000000000               0.000000000               0.000000000               0.000000000               0.000000000               0.000000000               0.000000000               0.000000000               0.000000000               0.000000000               0.000000000               0.000000000               0.000000000               0.000000000               0.000000000               0.000000000               0.000000000               0.000000000               0.000000000               0.000000000               0.000000000               0.000000000               0.000000000               0.000000000               0.000000000               0.000000000               0.000000000               0.000000000               0.000000000               0.000000000               0.000000000               0.000000000               0.000000000               0.000000000               0.000000000               0.000000000               0.000000000               0.000000000               0.000000000               0.000000000               0.000000000               0.000000000               0.000000000               0.000000000               0.000000000               0.000000000               0.000000000               0.000000000               0.000000000 </DataArray>
</PointData>
</Piece>
</UnstructuredGrid> </VTKFile>
