<?xml version="1.0"?>
<VTKFile type="UnstructuredGrid" version="0.1">
<UnstructuredGrid>
<Piece NumberOfPoints="      1156" NumberOfCells="      1024">
<Points>
<DataArray type="Float64"                                    Name="coordinates"                                                      NumberOfComponents=" 3" format="ascii">
              0.133000000               0.000000000               0.000000000               0.155937500               0.000000000               0.000000000               0.178875000               0.000000000               0.000000000               0.201812500               0.000000000               0.000000000               0.224750000               0.000000000               0.000000000               0.247687500               0.000000000               0.000000000               0.270625000               0.000000000               0.000000000               0.293562500               0.000000000               0.000000000               0.316500000               0.000000000               0.000000000               0.339437500               0.000000000               0.000000000               0.362375000               0.000000000               0.000000000               0.385312500               0.000000000               0.000000000               0.408250000               0.000000000               0.000000000               0.431187500               0.000000000               0.000000000               0.454125000               0.000000000               0.000000000               0.477062500               0.000000000               0.000000000               0.500000000               0.000000000               0.000000000               0.132359569               0.013036280               0.000000000               0.155337096               0.016127762               0.000000000               0.178314623               0.019219245               0.000000000               0.201292150               0.022310727               0.000000000               0.224269676               0.025402210               0.000000000               0.247247203               0.028493692               0.000000000               0.270224730               0.031585175               0.000000000               0.293202257               0.034676657               0.000000000               0.316179784               0.037768140               0.000000000               0.339157311               0.040859622               0.000000000               0.362134838               0.043951105               0.000000000               0.385112365               0.047042587               0.000000000               0.408089892               0.050134070               0.000000000               0.431067419               0.053225552               0.000000000               0.454044946               0.056317035               0.000000000               0.477022473               0.059408517               0.000000000               0.500000000               0.062500000               0.000000000               0.130444442               0.025947013               0.000000000               0.153541665               0.032137825               0.000000000               0.176638887               0.038328636               0.000000000               0.199736109               0.044519448               0.000000000               0.222833332               0.050710260               0.000000000               0.245930554               0.056901071               0.000000000               0.269027776               0.063091883               0.000000000               0.292124999               0.069282695               0.000000000               0.315222221               0.075473506               0.000000000               0.338319444               0.081664318               0.000000000               0.361416666               0.087855130               0.000000000               0.384513888               0.094045942               0.000000000               0.407611111               0.100236753               0.000000000               0.430708333               0.106427565               0.000000000               0.453805555               0.112618377               0.000000000               0.476902778               0.118809188               0.000000000               0.500000000               0.125000000               0.000000000               0.127273065               0.038607862               0.000000000               0.150568498               0.047913621               0.000000000               0.173863932               0.057219379               0.000000000               0.197159365               0.066525138               0.000000000               0.220454798               0.075830897               0.000000000               0.243750232               0.085136655               0.000000000               0.267045665               0.094442414               0.000000000               0.290341099               0.103748172               0.000000000               0.313636532               0.113053931               0.000000000               0.336931966               0.122359690               0.000000000               0.360227399               0.131665448               0.000000000               0.383522833               0.140971207               0.000000000               0.406818266               0.150276966               0.000000000               0.430113700               0.159582724               0.000000000               0.453409133               0.168888483               0.000000000               0.476704567               0.178194241               0.000000000               0.500000000               0.187500000               0.000000000               0.122875978               0.050896897               0.000000000               0.146446229               0.063340840               0.000000000               0.170016481               0.075784784               0.000000000               0.193586732               0.088228728               0.000000000               0.217156983               0.100672672               0.000000000               0.240727235               0.113116616               0.000000000               0.264297486               0.125560560               0.000000000               0.287867738               0.138004504               0.000000000               0.311437989               0.150448448               0.000000000               0.335008240               0.162892392               0.000000000               0.358578492               0.175336336               0.000000000               0.382148743               0.187780280               0.000000000               0.405718994               0.200224224               0.000000000               0.429289246               0.212668168               0.000000000               0.452859497               0.225112112               0.000000000               0.476429749               0.237556056               0.000000000               0.500000000               0.250000000               0.000000000               0.117295528               0.062695766               0.000000000               0.141214558               0.078308531               0.000000000               0.165133587               0.093921295               0.000000000               0.189052617               0.109534060               0.000000000               0.212971646               0.125146824               0.000000000               0.236890676               0.140759589               0.000000000               0.260809705               0.156372354               0.000000000               0.284728735               0.171985118               0.000000000               0.308647764               0.187597883               0.000000000               0.332566794               0.203210648               0.000000000               0.356485823               0.218823412               0.000000000               0.380404853               0.234436177               0.000000000               0.404323882               0.250048941               0.000000000               0.428242912               0.265661706               0.000000000               0.452161941               0.281274471               0.000000000               0.476080971               0.296887235               0.000000000               0.500000000               0.312500000               0.000000000               0.110585458               0.073890841               0.000000000               0.134923867               0.092710163               0.000000000               0.159262276               0.111529486               0.000000000               0.183600685               0.130348808               0.000000000               0.207939094               0.149168131               0.000000000               0.232277503               0.167987453               0.000000000               0.256615912               0.186806776               0.000000000               0.280954320               0.205626098               0.000000000               0.305292729               0.224445420               0.000000000               0.329631138               0.243264743               0.000000000               0.353969547               0.262084065               0.000000000               0.378307956               0.280903388               0.000000000               0.402646365               0.299722710               0.000000000               0.426984773               0.318542033               0.000000000               0.451323182               0.337361355               0.000000000               0.475661591               0.356180678               0.000000000               0.500000000               0.375000000               0.000000000               0.102810390               0.084374307               0.000000000               0.127634741               0.106444663               0.000000000               0.152459092               0.128515018               0.000000000               0.177283442               0.150585374               0.000000000               0.202107793               0.172655730               0.000000000               0.226932143               0.194726086               0.000000000               0.251756494               0.216796442               0.000000000               0.276580845               0.238866798               0.000000000               0.301405195               0.260937153               0.000000000               0.326229546               0.283007509               0.000000000               0.351053896               0.305077865               0.000000000               0.375878247               0.327148221               0.000000000               0.400702598               0.349218577               0.000000000               0.425526948               0.371288933               0.000000000               0.450351299               0.393359288               0.000000000               0.475175649               0.415429644               0.000000000               0.500000000               0.437500000               0.000000000               0.094045202               0.094045202               0.000000000               0.119417377               0.119417377               0.000000000               0.144789552               0.144789552               0.000000000               0.170161727               0.170161727               0.000000000               0.195533901               0.195533901               0.000000000               0.220906076               0.220906076               0.000000000               0.246278251               0.246278251               0.000000000               0.271650426               0.271650426               0.000000000               0.297022601               0.297022601               0.000000000               0.322394776               0.322394776               0.000000000               0.347766951               0.347766951               0.000000000               0.373139126               0.373139126               0.000000000               0.398511300               0.398511300               0.000000000               0.423883475               0.423883475               0.000000000               0.449255650               0.449255650               0.000000000               0.474627825               0.474627825               0.000000000               0.500000000               0.500000000               0.000000000               0.084374307               0.102810390               0.000000000               0.106444663               0.127634741               0.000000000               0.128515018               0.152459092               0.000000000               0.150585374               0.177283442               0.000000000               0.172655730               0.202107793               0.000000000               0.194726086               0.226932143               0.000000000               0.216796442               0.251756494               0.000000000               0.238866798               0.276580845               0.000000000               0.260937153               0.301405195               0.000000000               0.283007509               0.326229546               0.000000000               0.305077865               0.351053896               0.000000000               0.327148221               0.375878247               0.000000000               0.349218577               0.400702598               0.000000000               0.371288933               0.425526948               0.000000000               0.393359288               0.450351299               0.000000000               0.415429644               0.475175649               0.000000000               0.437500000               0.500000000               0.000000000               0.073890841               0.110585458               0.000000000               0.092710163               0.134923867               0.000000000               0.111529486               0.159262276               0.000000000               0.130348808               0.183600685               0.000000000               0.149168131               0.207939094               0.000000000               0.167987453               0.232277503               0.000000000               0.186806776               0.256615912               0.000000000               0.205626098               0.280954320               0.000000000               0.224445420               0.305292729               0.000000000               0.243264743               0.329631138               0.000000000               0.262084065               0.353969547               0.000000000               0.280903388               0.378307956               0.000000000               0.299722710               0.402646365               0.000000000               0.318542033               0.426984773               0.000000000               0.337361355               0.451323182               0.000000000               0.356180678               0.475661591               0.000000000               0.375000000               0.500000000               0.000000000               0.062695766               0.117295528               0.000000000               0.078308531               0.141214558               0.000000000               0.093921295               0.165133587               0.000000000               0.109534060               0.189052617               0.000000000               0.125146824               0.212971646               0.000000000               0.140759589               0.236890676               0.000000000               0.156372354               0.260809705               0.000000000               0.171985118               0.284728735               0.000000000               0.187597883               0.308647764               0.000000000               0.203210648               0.332566794               0.000000000               0.218823412               0.356485823               0.000000000               0.234436177               0.380404853               0.000000000               0.250048941               0.404323882               0.000000000               0.265661706               0.428242912               0.000000000               0.281274471               0.452161941               0.000000000               0.296887235               0.476080971               0.000000000               0.312500000               0.500000000               0.000000000               0.050896897               0.122875978               0.000000000               0.063340840               0.146446229               0.000000000               0.075784784               0.170016481               0.000000000               0.088228728               0.193586732               0.000000000               0.100672672               0.217156983               0.000000000               0.113116616               0.240727235               0.000000000               0.125560560               0.264297486               0.000000000               0.138004504               0.287867738               0.000000000               0.150448448               0.311437989               0.000000000               0.162892392               0.335008240               0.000000000               0.175336336               0.358578492               0.000000000               0.187780280               0.382148743               0.000000000               0.200224224               0.405718994               0.000000000               0.212668168               0.429289246               0.000000000               0.225112112               0.452859497               0.000000000               0.237556056               0.476429749               0.000000000               0.250000000               0.500000000               0.000000000               0.038607862               0.127273065               0.000000000               0.047913621               0.150568498               0.000000000               0.057219379               0.173863932               0.000000000               0.066525138               0.197159365               0.000000000               0.075830897               0.220454798               0.000000000               0.085136655               0.243750232               0.000000000               0.094442414               0.267045665               0.000000000               0.103748172               0.290341099               0.000000000               0.113053931               0.313636532               0.000000000               0.122359690               0.336931966               0.000000000               0.131665448               0.360227399               0.000000000               0.140971207               0.383522833               0.000000000               0.150276966               0.406818266               0.000000000               0.159582724               0.430113700               0.000000000               0.168888483               0.453409133               0.000000000               0.178194241               0.476704567               0.000000000               0.187500000               0.500000000               0.000000000               0.025947013               0.130444442               0.000000000               0.032137825               0.153541665               0.000000000               0.038328636               0.176638887               0.000000000               0.044519448               0.199736109               0.000000000               0.050710260               0.222833332               0.000000000               0.056901071               0.245930554               0.000000000               0.063091883               0.269027776               0.000000000               0.069282695               0.292124999               0.000000000               0.075473506               0.315222221               0.000000000               0.081664318               0.338319444               0.000000000               0.087855130               0.361416666               0.000000000               0.094045942               0.384513888               0.000000000               0.100236753               0.407611111               0.000000000               0.106427565               0.430708333               0.000000000               0.112618377               0.453805555               0.000000000               0.118809188               0.476902778               0.000000000               0.125000000               0.500000000               0.000000000               0.013036280               0.132359569               0.000000000               0.016127762               0.155337096               0.000000000               0.019219245               0.178314623               0.000000000               0.022310727               0.201292150               0.000000000               0.025402210               0.224269676               0.000000000               0.028493692               0.247247203               0.000000000               0.031585175               0.270224730               0.000000000               0.034676657               0.293202257               0.000000000               0.037768140               0.316179784               0.000000000               0.040859622               0.339157311               0.000000000               0.043951105               0.362134838               0.000000000               0.047042587               0.385112365               0.000000000               0.050134070               0.408089892               0.000000000               0.053225552               0.431067419               0.000000000               0.056317035               0.454044946               0.000000000               0.059408517               0.477022473               0.000000000               0.062500000               0.500000000               0.000000000               0.000000000               0.133000000               0.000000000               0.000000000               0.155937500               0.000000000               0.000000000               0.178875000               0.000000000               0.000000000               0.201812500               0.000000000               0.000000000               0.224750000               0.000000000               0.000000000               0.247687500               0.000000000               0.000000000               0.270625000               0.000000000               0.000000000               0.293562500               0.000000000               0.000000000               0.316500000               0.000000000               0.000000000               0.339437500               0.000000000               0.000000000               0.362375000               0.000000000               0.000000000               0.385312500               0.000000000               0.000000000               0.408250000               0.000000000               0.000000000               0.431187500               0.000000000               0.000000000               0.454125000               0.000000000               0.000000000               0.477062500               0.000000000               0.000000000               0.500000000               0.000000000               0.133000000               0.000000000               0.000000000               0.155937500               0.000000000               0.000000000               0.178875000               0.000000000               0.000000000               0.201812500               0.000000000               0.000000000               0.224750000               0.000000000               0.000000000               0.247687500               0.000000000               0.000000000               0.270625000               0.000000000               0.000000000               0.293562500               0.000000000               0.000000000               0.316500000               0.000000000               0.000000000               0.339437500               0.000000000               0.000000000               0.362375000               0.000000000               0.000000000               0.385312500               0.000000000               0.000000000               0.408250000               0.000000000               0.000000000               0.431187500               0.000000000               0.000000000               0.454125000               0.000000000               0.000000000               0.477062500               0.000000000               0.000000000               0.500000000               0.000000000               0.000000000               0.132359569              -0.013036280               0.000000000               0.155337096              -0.016127762               0.000000000               0.178314623              -0.019219245               0.000000000               0.201292150              -0.022310727               0.000000000               0.224269676              -0.025402210               0.000000000               0.247247203              -0.028493692               0.000000000               0.270224730              -0.031585175               0.000000000               0.293202257              -0.034676657               0.000000000               0.316179784              -0.037768140               0.000000000               0.339157311              -0.040859622               0.000000000               0.362134838              -0.043951105               0.000000000               0.385112365              -0.047042587               0.000000000               0.408089892              -0.050134070               0.000000000               0.431067419              -0.053225552               0.000000000               0.454044946              -0.056317035               0.000000000               0.477022473              -0.059408517               0.000000000               0.500000000              -0.062500000               0.000000000               0.130444442              -0.025947013               0.000000000               0.153541665              -0.032137825               0.000000000               0.176638887              -0.038328636               0.000000000               0.199736109              -0.044519448               0.000000000               0.222833332              -0.050710260               0.000000000               0.245930554              -0.056901071               0.000000000               0.269027776              -0.063091883               0.000000000               0.292124999              -0.069282695               0.000000000               0.315222221              -0.075473506               0.000000000               0.338319444              -0.081664318               0.000000000               0.361416666              -0.087855130               0.000000000               0.384513888              -0.094045942               0.000000000               0.407611111              -0.100236753               0.000000000               0.430708333              -0.106427565               0.000000000               0.453805555              -0.112618377               0.000000000               0.476902778              -0.118809188               0.000000000               0.500000000              -0.125000000               0.000000000               0.127273065              -0.038607862               0.000000000               0.150568498              -0.047913621               0.000000000               0.173863932              -0.057219379               0.000000000               0.197159365              -0.066525138               0.000000000               0.220454798              -0.075830897               0.000000000               0.243750232              -0.085136655               0.000000000               0.267045665              -0.094442414               0.000000000               0.290341099              -0.103748172               0.000000000               0.313636532              -0.113053931               0.000000000               0.336931966              -0.122359690               0.000000000               0.360227399              -0.131665448               0.000000000               0.383522833              -0.140971207               0.000000000               0.406818266              -0.150276966               0.000000000               0.430113700              -0.159582724               0.000000000               0.453409133              -0.168888483               0.000000000               0.476704567              -0.178194241               0.000000000               0.500000000              -0.187500000               0.000000000               0.122875978              -0.050896897               0.000000000               0.146446229              -0.063340840               0.000000000               0.170016481              -0.075784784               0.000000000               0.193586732              -0.088228728               0.000000000               0.217156983              -0.100672672               0.000000000               0.240727235              -0.113116616               0.000000000               0.264297486              -0.125560560               0.000000000               0.287867738              -0.138004504               0.000000000               0.311437989              -0.150448448               0.000000000               0.335008240              -0.162892392               0.000000000               0.358578492              -0.175336336               0.000000000               0.382148743              -0.187780280               0.000000000               0.405718994              -0.200224224               0.000000000               0.429289246              -0.212668168               0.000000000               0.452859497              -0.225112112               0.000000000               0.476429749              -0.237556056               0.000000000               0.500000000              -0.250000000               0.000000000               0.117295528              -0.062695766               0.000000000               0.141214558              -0.078308531               0.000000000               0.165133587              -0.093921295               0.000000000               0.189052617              -0.109534060               0.000000000               0.212971646              -0.125146824               0.000000000               0.236890676              -0.140759589               0.000000000               0.260809705              -0.156372354               0.000000000               0.284728735              -0.171985118               0.000000000               0.308647764              -0.187597883               0.000000000               0.332566794              -0.203210648               0.000000000               0.356485823              -0.218823412               0.000000000               0.380404853              -0.234436177               0.000000000               0.404323882              -0.250048941               0.000000000               0.428242912              -0.265661706               0.000000000               0.452161941              -0.281274471               0.000000000               0.476080971              -0.296887235               0.000000000               0.500000000              -0.312500000               0.000000000               0.110585458              -0.073890841               0.000000000               0.134923867              -0.092710163               0.000000000               0.159262276              -0.111529486               0.000000000               0.183600685              -0.130348808               0.000000000               0.207939094              -0.149168131               0.000000000               0.232277503              -0.167987453               0.000000000               0.256615912              -0.186806776               0.000000000               0.280954320              -0.205626098               0.000000000               0.305292729              -0.224445420               0.000000000               0.329631138              -0.243264743               0.000000000               0.353969547              -0.262084065               0.000000000               0.378307956              -0.280903388               0.000000000               0.402646365              -0.299722710               0.000000000               0.426984773              -0.318542033               0.000000000               0.451323182              -0.337361355               0.000000000               0.475661591              -0.356180678               0.000000000               0.500000000              -0.375000000               0.000000000               0.102810390              -0.084374307               0.000000000               0.127634741              -0.106444663               0.000000000               0.152459092              -0.128515018               0.000000000               0.177283442              -0.150585374               0.000000000               0.202107793              -0.172655730               0.000000000               0.226932143              -0.194726086               0.000000000               0.251756494              -0.216796442               0.000000000               0.276580845              -0.238866798               0.000000000               0.301405195              -0.260937153               0.000000000               0.326229546              -0.283007509               0.000000000               0.351053896              -0.305077865               0.000000000               0.375878247              -0.327148221               0.000000000               0.400702598              -0.349218577               0.000000000               0.425526948              -0.371288933               0.000000000               0.450351299              -0.393359288               0.000000000               0.475175649              -0.415429644               0.000000000               0.500000000              -0.437500000               0.000000000               0.094045202              -0.094045202               0.000000000               0.119417377              -0.119417377               0.000000000               0.144789552              -0.144789552               0.000000000               0.170161727              -0.170161727               0.000000000               0.195533901              -0.195533901               0.000000000               0.220906076              -0.220906076               0.000000000               0.246278251              -0.246278251               0.000000000               0.271650426              -0.271650426               0.000000000               0.297022601              -0.297022601               0.000000000               0.322394776              -0.322394776               0.000000000               0.347766951              -0.347766951               0.000000000               0.373139126              -0.373139126               0.000000000               0.398511300              -0.398511300               0.000000000               0.423883475              -0.423883475               0.000000000               0.449255650              -0.449255650               0.000000000               0.474627825              -0.474627825               0.000000000               0.500000000              -0.500000000               0.000000000               0.084374307              -0.102810390               0.000000000               0.106444663              -0.127634741               0.000000000               0.128515018              -0.152459092               0.000000000               0.150585374              -0.177283442               0.000000000               0.172655730              -0.202107793               0.000000000               0.194726086              -0.226932143               0.000000000               0.216796442              -0.251756494               0.000000000               0.238866798              -0.276580845               0.000000000               0.260937153              -0.301405195               0.000000000               0.283007509              -0.326229546               0.000000000               0.305077865              -0.351053896               0.000000000               0.327148221              -0.375878247               0.000000000               0.349218577              -0.400702598               0.000000000               0.371288933              -0.425526948               0.000000000               0.393359288              -0.450351299               0.000000000               0.415429644              -0.475175649               0.000000000               0.437500000              -0.500000000               0.000000000               0.073890841              -0.110585458               0.000000000               0.092710163              -0.134923867               0.000000000               0.111529486              -0.159262276               0.000000000               0.130348808              -0.183600685               0.000000000               0.149168131              -0.207939094               0.000000000               0.167987453              -0.232277503               0.000000000               0.186806776              -0.256615912               0.000000000               0.205626098              -0.280954320               0.000000000               0.224445420              -0.305292729               0.000000000               0.243264743              -0.329631138               0.000000000               0.262084065              -0.353969547               0.000000000               0.280903388              -0.378307956               0.000000000               0.299722710              -0.402646365               0.000000000               0.318542033              -0.426984773               0.000000000               0.337361355              -0.451323182               0.000000000               0.356180678              -0.475661591               0.000000000               0.375000000              -0.500000000               0.000000000               0.062695766              -0.117295528               0.000000000               0.078308531              -0.141214558               0.000000000               0.093921295              -0.165133587               0.000000000               0.109534060              -0.189052617               0.000000000               0.125146824              -0.212971646               0.000000000               0.140759589              -0.236890676               0.000000000               0.156372354              -0.260809705               0.000000000               0.171985118              -0.284728735               0.000000000               0.187597883              -0.308647764               0.000000000               0.203210648              -0.332566794               0.000000000               0.218823412              -0.356485823               0.000000000               0.234436177              -0.380404853               0.000000000               0.250048941              -0.404323882               0.000000000               0.265661706              -0.428242912               0.000000000               0.281274471              -0.452161941               0.000000000               0.296887235              -0.476080971               0.000000000               0.312500000              -0.500000000               0.000000000               0.050896897              -0.122875978               0.000000000               0.063340840              -0.146446229               0.000000000               0.075784784              -0.170016481               0.000000000               0.088228728              -0.193586732               0.000000000               0.100672672              -0.217156983               0.000000000               0.113116616              -0.240727235               0.000000000               0.125560560              -0.264297486               0.000000000               0.138004504              -0.287867738               0.000000000               0.150448448              -0.311437989               0.000000000               0.162892392              -0.335008240               0.000000000               0.175336336              -0.358578492               0.000000000               0.187780280              -0.382148743               0.000000000               0.200224224              -0.405718994               0.000000000               0.212668168              -0.429289246               0.000000000               0.225112112              -0.452859497               0.000000000               0.237556056              -0.476429749               0.000000000               0.250000000              -0.500000000               0.000000000               0.038607862              -0.127273065               0.000000000               0.047913621              -0.150568498               0.000000000               0.057219379              -0.173863932               0.000000000               0.066525138              -0.197159365               0.000000000               0.075830897              -0.220454798               0.000000000               0.085136655              -0.243750232               0.000000000               0.094442414              -0.267045665               0.000000000               0.103748172              -0.290341099               0.000000000               0.113053931              -0.313636532               0.000000000               0.122359690              -0.336931966               0.000000000               0.131665448              -0.360227399               0.000000000               0.140971207              -0.383522833               0.000000000               0.150276966              -0.406818266               0.000000000               0.159582724              -0.430113700               0.000000000               0.168888483              -0.453409133               0.000000000               0.178194241              -0.476704567               0.000000000               0.187500000              -0.500000000               0.000000000               0.025947013              -0.130444442               0.000000000               0.032137825              -0.153541665               0.000000000               0.038328636              -0.176638887               0.000000000               0.044519448              -0.199736109               0.000000000               0.050710260              -0.222833332               0.000000000               0.056901071              -0.245930554               0.000000000               0.063091883              -0.269027776               0.000000000               0.069282695              -0.292124999               0.000000000               0.075473506              -0.315222221               0.000000000               0.081664318              -0.338319444               0.000000000               0.087855130              -0.361416666               0.000000000               0.094045942              -0.384513888               0.000000000               0.100236753              -0.407611111               0.000000000               0.106427565              -0.430708333               0.000000000               0.112618377              -0.453805555               0.000000000               0.118809188              -0.476902778               0.000000000               0.125000000              -0.500000000               0.000000000               0.013036280              -0.132359569               0.000000000               0.016127762              -0.155337096               0.000000000               0.019219245              -0.178314623               0.000000000               0.022310727              -0.201292150               0.000000000               0.025402210              -0.224269676               0.000000000               0.028493692              -0.247247203               0.000000000               0.031585175              -0.270224730               0.000000000               0.034676657              -0.293202257               0.000000000               0.037768140              -0.316179784               0.000000000               0.040859622              -0.339157311               0.000000000               0.043951105              -0.362134838               0.000000000               0.047042587              -0.385112365               0.000000000               0.050134070              -0.408089892               0.000000000               0.053225552              -0.431067419               0.000000000               0.056317035              -0.454044946               0.000000000               0.059408517              -0.477022473               0.000000000               0.062500000              -0.500000000               0.000000000               0.000000000              -0.133000000               0.000000000               0.000000000              -0.155937500               0.000000000               0.000000000              -0.178875000               0.000000000               0.000000000              -0.201812500               0.000000000               0.000000000              -0.224750000               0.000000000               0.000000000              -0.247687500               0.000000000               0.000000000              -0.270625000               0.000000000               0.000000000              -0.293562500               0.000000000               0.000000000              -0.316500000               0.000000000               0.000000000              -0.339437500               0.000000000               0.000000000              -0.362375000               0.000000000               0.000000000              -0.385312500               0.000000000               0.000000000              -0.408250000               0.000000000               0.000000000              -0.431187500               0.000000000               0.000000000              -0.454125000               0.000000000               0.000000000              -0.477062500               0.000000000               0.000000000              -0.500000000               0.000000000              -0.133000000               0.000000000               0.000000000              -0.155937500               0.000000000               0.000000000              -0.178875000               0.000000000               0.000000000              -0.201812500               0.000000000               0.000000000              -0.224750000               0.000000000               0.000000000              -0.247687500               0.000000000               0.000000000              -0.270625000               0.000000000               0.000000000              -0.293562500               0.000000000               0.000000000              -0.316500000               0.000000000               0.000000000              -0.339437500               0.000000000               0.000000000              -0.362375000               0.000000000               0.000000000              -0.385312500               0.000000000               0.000000000              -0.408250000               0.000000000               0.000000000              -0.431187500               0.000000000               0.000000000              -0.454125000               0.000000000               0.000000000              -0.477062500               0.000000000               0.000000000              -0.500000000               0.000000000               0.000000000              -0.132359569              -0.013036280               0.000000000              -0.155337096              -0.016127762               0.000000000              -0.178314623              -0.019219245               0.000000000              -0.201292150              -0.022310727               0.000000000              -0.224269676              -0.025402210               0.000000000              -0.247247203              -0.028493692               0.000000000              -0.270224730              -0.031585175               0.000000000              -0.293202257              -0.034676657               0.000000000              -0.316179784              -0.037768140               0.000000000              -0.339157311              -0.040859622               0.000000000              -0.362134838              -0.043951105               0.000000000              -0.385112365              -0.047042587               0.000000000              -0.408089892              -0.050134070               0.000000000              -0.431067419              -0.053225552               0.000000000              -0.454044946              -0.056317035               0.000000000              -0.477022473              -0.059408517               0.000000000              -0.500000000              -0.062500000               0.000000000              -0.130444442              -0.025947013               0.000000000              -0.153541665              -0.032137825               0.000000000              -0.176638887              -0.038328636               0.000000000              -0.199736109              -0.044519448               0.000000000              -0.222833332              -0.050710260               0.000000000              -0.245930554              -0.056901071               0.000000000              -0.269027776              -0.063091883               0.000000000              -0.292124999              -0.069282695               0.000000000              -0.315222221              -0.075473506               0.000000000              -0.338319444              -0.081664318               0.000000000              -0.361416666              -0.087855130               0.000000000              -0.384513888              -0.094045942               0.000000000              -0.407611111              -0.100236753               0.000000000              -0.430708333              -0.106427565               0.000000000              -0.453805555              -0.112618377               0.000000000              -0.476902778              -0.118809188               0.000000000              -0.500000000              -0.125000000               0.000000000              -0.127273065              -0.038607862               0.000000000              -0.150568498              -0.047913621               0.000000000              -0.173863932              -0.057219379               0.000000000              -0.197159365              -0.066525138               0.000000000              -0.220454798              -0.075830897               0.000000000              -0.243750232              -0.085136655               0.000000000              -0.267045665              -0.094442414               0.000000000              -0.290341099              -0.103748172               0.000000000              -0.313636532              -0.113053931               0.000000000              -0.336931966              -0.122359690               0.000000000              -0.360227399              -0.131665448               0.000000000              -0.383522833              -0.140971207               0.000000000              -0.406818266              -0.150276966               0.000000000              -0.430113700              -0.159582724               0.000000000              -0.453409133              -0.168888483               0.000000000              -0.476704567              -0.178194241               0.000000000              -0.500000000              -0.187500000               0.000000000              -0.122875978              -0.050896897               0.000000000              -0.146446229              -0.063340840               0.000000000              -0.170016481              -0.075784784               0.000000000              -0.193586732              -0.088228728               0.000000000              -0.217156983              -0.100672672               0.000000000              -0.240727235              -0.113116616               0.000000000              -0.264297486              -0.125560560               0.000000000              -0.287867738              -0.138004504               0.000000000              -0.311437989              -0.150448448               0.000000000              -0.335008240              -0.162892392               0.000000000              -0.358578492              -0.175336336               0.000000000              -0.382148743              -0.187780280               0.000000000              -0.405718994              -0.200224224               0.000000000              -0.429289246              -0.212668168               0.000000000              -0.452859497              -0.225112112               0.000000000              -0.476429749              -0.237556056               0.000000000              -0.500000000              -0.250000000               0.000000000              -0.117295528              -0.062695766               0.000000000              -0.141214558              -0.078308531               0.000000000              -0.165133587              -0.093921295               0.000000000              -0.189052617              -0.109534060               0.000000000              -0.212971646              -0.125146824               0.000000000              -0.236890676              -0.140759589               0.000000000              -0.260809705              -0.156372354               0.000000000              -0.284728735              -0.171985118               0.000000000              -0.308647764              -0.187597883               0.000000000              -0.332566794              -0.203210648               0.000000000              -0.356485823              -0.218823412               0.000000000              -0.380404853              -0.234436177               0.000000000              -0.404323882              -0.250048941               0.000000000              -0.428242912              -0.265661706               0.000000000              -0.452161941              -0.281274471               0.000000000              -0.476080971              -0.296887235               0.000000000              -0.500000000              -0.312500000               0.000000000              -0.110585458              -0.073890841               0.000000000              -0.134923867              -0.092710163               0.000000000              -0.159262276              -0.111529486               0.000000000              -0.183600685              -0.130348808               0.000000000              -0.207939094              -0.149168131               0.000000000              -0.232277503              -0.167987453               0.000000000              -0.256615912              -0.186806776               0.000000000              -0.280954320              -0.205626098               0.000000000              -0.305292729              -0.224445420               0.000000000              -0.329631138              -0.243264743               0.000000000              -0.353969547              -0.262084065               0.000000000              -0.378307956              -0.280903388               0.000000000              -0.402646365              -0.299722710               0.000000000              -0.426984773              -0.318542033               0.000000000              -0.451323182              -0.337361355               0.000000000              -0.475661591              -0.356180678               0.000000000              -0.500000000              -0.375000000               0.000000000              -0.102810390              -0.084374307               0.000000000              -0.127634741              -0.106444663               0.000000000              -0.152459092              -0.128515018               0.000000000              -0.177283442              -0.150585374               0.000000000              -0.202107793              -0.172655730               0.000000000              -0.226932143              -0.194726086               0.000000000              -0.251756494              -0.216796442               0.000000000              -0.276580845              -0.238866798               0.000000000              -0.301405195              -0.260937153               0.000000000              -0.326229546              -0.283007509               0.000000000              -0.351053896              -0.305077865               0.000000000              -0.375878247              -0.327148221               0.000000000              -0.400702598              -0.349218577               0.000000000              -0.425526948              -0.371288933               0.000000000              -0.450351299              -0.393359288               0.000000000              -0.475175649              -0.415429644               0.000000000              -0.500000000              -0.437500000               0.000000000              -0.094045202              -0.094045202               0.000000000              -0.119417377              -0.119417377               0.000000000              -0.144789552              -0.144789552               0.000000000              -0.170161727              -0.170161727               0.000000000              -0.195533901              -0.195533901               0.000000000              -0.220906076              -0.220906076               0.000000000              -0.246278251              -0.246278251               0.000000000              -0.271650426              -0.271650426               0.000000000              -0.297022601              -0.297022601               0.000000000              -0.322394776              -0.322394776               0.000000000              -0.347766951              -0.347766951               0.000000000              -0.373139126              -0.373139126               0.000000000              -0.398511300              -0.398511300               0.000000000              -0.423883475              -0.423883475               0.000000000              -0.449255650              -0.449255650               0.000000000              -0.474627825              -0.474627825               0.000000000              -0.500000000              -0.500000000               0.000000000              -0.084374307              -0.102810390               0.000000000              -0.106444663              -0.127634741               0.000000000              -0.128515018              -0.152459092               0.000000000              -0.150585374              -0.177283442               0.000000000              -0.172655730              -0.202107793               0.000000000              -0.194726086              -0.226932143               0.000000000              -0.216796442              -0.251756494               0.000000000              -0.238866798              -0.276580845               0.000000000              -0.260937153              -0.301405195               0.000000000              -0.283007509              -0.326229546               0.000000000              -0.305077865              -0.351053896               0.000000000              -0.327148221              -0.375878247               0.000000000              -0.349218577              -0.400702598               0.000000000              -0.371288933              -0.425526948               0.000000000              -0.393359288              -0.450351299               0.000000000              -0.415429644              -0.475175649               0.000000000              -0.437500000              -0.500000000               0.000000000              -0.073890841              -0.110585458               0.000000000              -0.092710163              -0.134923867               0.000000000              -0.111529486              -0.159262276               0.000000000              -0.130348808              -0.183600685               0.000000000              -0.149168131              -0.207939094               0.000000000              -0.167987453              -0.232277503               0.000000000              -0.186806776              -0.256615912               0.000000000              -0.205626098              -0.280954320               0.000000000              -0.224445420              -0.305292729               0.000000000              -0.243264743              -0.329631138               0.000000000              -0.262084065              -0.353969547               0.000000000              -0.280903388              -0.378307956               0.000000000              -0.299722710              -0.402646365               0.000000000              -0.318542033              -0.426984773               0.000000000              -0.337361355              -0.451323182               0.000000000              -0.356180678              -0.475661591               0.000000000              -0.375000000              -0.500000000               0.000000000              -0.062695766              -0.117295528               0.000000000              -0.078308531              -0.141214558               0.000000000              -0.093921295              -0.165133587               0.000000000              -0.109534060              -0.189052617               0.000000000              -0.125146824              -0.212971646               0.000000000              -0.140759589              -0.236890676               0.000000000              -0.156372354              -0.260809705               0.000000000              -0.171985118              -0.284728735               0.000000000              -0.187597883              -0.308647764               0.000000000              -0.203210648              -0.332566794               0.000000000              -0.218823412              -0.356485823               0.000000000              -0.234436177              -0.380404853               0.000000000              -0.250048941              -0.404323882               0.000000000              -0.265661706              -0.428242912               0.000000000              -0.281274471              -0.452161941               0.000000000              -0.296887235              -0.476080971               0.000000000              -0.312500000              -0.500000000               0.000000000              -0.050896897              -0.122875978               0.000000000              -0.063340840              -0.146446229               0.000000000              -0.075784784              -0.170016481               0.000000000              -0.088228728              -0.193586732               0.000000000              -0.100672672              -0.217156983               0.000000000              -0.113116616              -0.240727235               0.000000000              -0.125560560              -0.264297486               0.000000000              -0.138004504              -0.287867738               0.000000000              -0.150448448              -0.311437989               0.000000000              -0.162892392              -0.335008240               0.000000000              -0.175336336              -0.358578492               0.000000000              -0.187780280              -0.382148743               0.000000000              -0.200224224              -0.405718994               0.000000000              -0.212668168              -0.429289246               0.000000000              -0.225112112              -0.452859497               0.000000000              -0.237556056              -0.476429749               0.000000000              -0.250000000              -0.500000000               0.000000000              -0.038607862              -0.127273065               0.000000000              -0.047913621              -0.150568498               0.000000000              -0.057219379              -0.173863932               0.000000000              -0.066525138              -0.197159365               0.000000000              -0.075830897              -0.220454798               0.000000000              -0.085136655              -0.243750232               0.000000000              -0.094442414              -0.267045665               0.000000000              -0.103748172              -0.290341099               0.000000000              -0.113053931              -0.313636532               0.000000000              -0.122359690              -0.336931966               0.000000000              -0.131665448              -0.360227399               0.000000000              -0.140971207              -0.383522833               0.000000000              -0.150276966              -0.406818266               0.000000000              -0.159582724              -0.430113700               0.000000000              -0.168888483              -0.453409133               0.000000000              -0.178194241              -0.476704567               0.000000000              -0.187500000              -0.500000000               0.000000000              -0.025947013              -0.130444442               0.000000000              -0.032137825              -0.153541665               0.000000000              -0.038328636              -0.176638887               0.000000000              -0.044519448              -0.199736109               0.000000000              -0.050710260              -0.222833332               0.000000000              -0.056901071              -0.245930554               0.000000000              -0.063091883              -0.269027776               0.000000000              -0.069282695              -0.292124999               0.000000000              -0.075473506              -0.315222221               0.000000000              -0.081664318              -0.338319444               0.000000000              -0.087855130              -0.361416666               0.000000000              -0.094045942              -0.384513888               0.000000000              -0.100236753              -0.407611111               0.000000000              -0.106427565              -0.430708333               0.000000000              -0.112618377              -0.453805555               0.000000000              -0.118809188              -0.476902778               0.000000000              -0.125000000              -0.500000000               0.000000000              -0.013036280              -0.132359569               0.000000000              -0.016127762              -0.155337096               0.000000000              -0.019219245              -0.178314623               0.000000000              -0.022310727              -0.201292150               0.000000000              -0.025402210              -0.224269676               0.000000000              -0.028493692              -0.247247203               0.000000000              -0.031585175              -0.270224730               0.000000000              -0.034676657              -0.293202257               0.000000000              -0.037768140              -0.316179784               0.000000000              -0.040859622              -0.339157311               0.000000000              -0.043951105              -0.362134838               0.000000000              -0.047042587              -0.385112365               0.000000000              -0.050134070              -0.408089892               0.000000000              -0.053225552              -0.431067419               0.000000000              -0.056317035              -0.454044946               0.000000000              -0.059408517              -0.477022473               0.000000000              -0.062500000              -0.500000000               0.000000000               0.000000000              -0.133000000               0.000000000               0.000000000              -0.155937500               0.000000000               0.000000000              -0.178875000               0.000000000               0.000000000              -0.201812500               0.000000000               0.000000000              -0.224750000               0.000000000               0.000000000              -0.247687500               0.000000000               0.000000000              -0.270625000               0.000000000               0.000000000              -0.293562500               0.000000000               0.000000000              -0.316500000               0.000000000               0.000000000              -0.339437500               0.000000000               0.000000000              -0.362375000               0.000000000               0.000000000              -0.385312500               0.000000000               0.000000000              -0.408250000               0.000000000               0.000000000              -0.431187500               0.000000000               0.000000000              -0.454125000               0.000000000               0.000000000              -0.477062500               0.000000000               0.000000000              -0.500000000               0.000000000              -0.133000000               0.000000000               0.000000000              -0.155937500               0.000000000               0.000000000              -0.178875000               0.000000000               0.000000000              -0.201812500               0.000000000               0.000000000              -0.224750000               0.000000000               0.000000000              -0.247687500               0.000000000               0.000000000              -0.270625000               0.000000000               0.000000000              -0.293562500               0.000000000               0.000000000              -0.316500000               0.000000000               0.000000000              -0.339437500               0.000000000               0.000000000              -0.362375000               0.000000000               0.000000000              -0.385312500               0.000000000               0.000000000              -0.408250000               0.000000000               0.000000000              -0.431187500               0.000000000               0.000000000              -0.454125000               0.000000000               0.000000000              -0.477062500               0.000000000               0.000000000              -0.500000000               0.000000000               0.000000000              -0.132359569               0.013036280               0.000000000              -0.155337096               0.016127762               0.000000000              -0.178314623               0.019219245               0.000000000              -0.201292150               0.022310727               0.000000000              -0.224269676               0.025402210               0.000000000              -0.247247203               0.028493692               0.000000000              -0.270224730               0.031585175               0.000000000              -0.293202257               0.034676657               0.000000000              -0.316179784               0.037768140               0.000000000              -0.339157311               0.040859622               0.000000000              -0.362134838               0.043951105               0.000000000              -0.385112365               0.047042587               0.000000000              -0.408089892               0.050134070               0.000000000              -0.431067419               0.053225552               0.000000000              -0.454044946               0.056317035               0.000000000              -0.477022473               0.059408517               0.000000000              -0.500000000               0.062500000               0.000000000              -0.130444442               0.025947013               0.000000000              -0.153541665               0.032137825               0.000000000              -0.176638887               0.038328636               0.000000000              -0.199736109               0.044519448               0.000000000              -0.222833332               0.050710260               0.000000000              -0.245930554               0.056901071               0.000000000              -0.269027776               0.063091883               0.000000000              -0.292124999               0.069282695               0.000000000              -0.315222221               0.075473506               0.000000000              -0.338319444               0.081664318               0.000000000              -0.361416666               0.087855130               0.000000000              -0.384513888               0.094045942               0.000000000              -0.407611111               0.100236753               0.000000000              -0.430708333               0.106427565               0.000000000              -0.453805555               0.112618377               0.000000000              -0.476902778               0.118809188               0.000000000              -0.500000000               0.125000000               0.000000000              -0.127273065               0.038607862               0.000000000              -0.150568498               0.047913621               0.000000000              -0.173863932               0.057219379               0.000000000              -0.197159365               0.066525138               0.000000000              -0.220454798               0.075830897               0.000000000              -0.243750232               0.085136655               0.000000000              -0.267045665               0.094442414               0.000000000              -0.290341099               0.103748172               0.000000000              -0.313636532               0.113053931               0.000000000              -0.336931966               0.122359690               0.000000000              -0.360227399               0.131665448               0.000000000              -0.383522833               0.140971207               0.000000000              -0.406818266               0.150276966               0.000000000              -0.430113700               0.159582724               0.000000000              -0.453409133               0.168888483               0.000000000              -0.476704567               0.178194241               0.000000000              -0.500000000               0.187500000               0.000000000              -0.122875978               0.050896897               0.000000000              -0.146446229               0.063340840               0.000000000              -0.170016481               0.075784784               0.000000000              -0.193586732               0.088228728               0.000000000              -0.217156983               0.100672672               0.000000000              -0.240727235               0.113116616               0.000000000              -0.264297486               0.125560560               0.000000000              -0.287867738               0.138004504               0.000000000              -0.311437989               0.150448448               0.000000000              -0.335008240               0.162892392               0.000000000              -0.358578492               0.175336336               0.000000000              -0.382148743               0.187780280               0.000000000              -0.405718994               0.200224224               0.000000000              -0.429289246               0.212668168               0.000000000              -0.452859497               0.225112112               0.000000000              -0.476429749               0.237556056               0.000000000              -0.500000000               0.250000000               0.000000000              -0.117295528               0.062695766               0.000000000              -0.141214558               0.078308531               0.000000000              -0.165133587               0.093921295               0.000000000              -0.189052617               0.109534060               0.000000000              -0.212971646               0.125146824               0.000000000              -0.236890676               0.140759589               0.000000000              -0.260809705               0.156372354               0.000000000              -0.284728735               0.171985118               0.000000000              -0.308647764               0.187597883               0.000000000              -0.332566794               0.203210648               0.000000000              -0.356485823               0.218823412               0.000000000              -0.380404853               0.234436177               0.000000000              -0.404323882               0.250048941               0.000000000              -0.428242912               0.265661706               0.000000000              -0.452161941               0.281274471               0.000000000              -0.476080971               0.296887235               0.000000000              -0.500000000               0.312500000               0.000000000              -0.110585458               0.073890841               0.000000000              -0.134923867               0.092710163               0.000000000              -0.159262276               0.111529486               0.000000000              -0.183600685               0.130348808               0.000000000              -0.207939094               0.149168131               0.000000000              -0.232277503               0.167987453               0.000000000              -0.256615912               0.186806776               0.000000000              -0.280954320               0.205626098               0.000000000              -0.305292729               0.224445420               0.000000000              -0.329631138               0.243264743               0.000000000              -0.353969547               0.262084065               0.000000000              -0.378307956               0.280903388               0.000000000              -0.402646365               0.299722710               0.000000000              -0.426984773               0.318542033               0.000000000              -0.451323182               0.337361355               0.000000000              -0.475661591               0.356180678               0.000000000              -0.500000000               0.375000000               0.000000000              -0.102810390               0.084374307               0.000000000              -0.127634741               0.106444663               0.000000000              -0.152459092               0.128515018               0.000000000              -0.177283442               0.150585374               0.000000000              -0.202107793               0.172655730               0.000000000              -0.226932143               0.194726086               0.000000000              -0.251756494               0.216796442               0.000000000              -0.276580845               0.238866798               0.000000000              -0.301405195               0.260937153               0.000000000              -0.326229546               0.283007509               0.000000000              -0.351053896               0.305077865               0.000000000              -0.375878247               0.327148221               0.000000000              -0.400702598               0.349218577               0.000000000              -0.425526948               0.371288933               0.000000000              -0.450351299               0.393359288               0.000000000              -0.475175649               0.415429644               0.000000000              -0.500000000               0.437500000               0.000000000              -0.094045202               0.094045202               0.000000000              -0.119417377               0.119417377               0.000000000              -0.144789552               0.144789552               0.000000000              -0.170161727               0.170161727               0.000000000              -0.195533901               0.195533901               0.000000000              -0.220906076               0.220906076               0.000000000              -0.246278251               0.246278251               0.000000000              -0.271650426               0.271650426               0.000000000              -0.297022601               0.297022601               0.000000000              -0.322394776               0.322394776               0.000000000              -0.347766951               0.347766951               0.000000000              -0.373139126               0.373139126               0.000000000              -0.398511300               0.398511300               0.000000000              -0.423883475               0.423883475               0.000000000              -0.449255650               0.449255650               0.000000000              -0.474627825               0.474627825               0.000000000              -0.500000000               0.500000000               0.000000000              -0.084374307               0.102810390               0.000000000              -0.106444663               0.127634741               0.000000000              -0.128515018               0.152459092               0.000000000              -0.150585374               0.177283442               0.000000000              -0.172655730               0.202107793               0.000000000              -0.194726086               0.226932143               0.000000000              -0.216796442               0.251756494               0.000000000              -0.238866798               0.276580845               0.000000000              -0.260937153               0.301405195               0.000000000              -0.283007509               0.326229546               0.000000000              -0.305077865               0.351053896               0.000000000              -0.327148221               0.375878247               0.000000000              -0.349218577               0.400702598               0.000000000              -0.371288933               0.425526948               0.000000000              -0.393359288               0.450351299               0.000000000              -0.415429644               0.475175649               0.000000000              -0.437500000               0.500000000               0.000000000              -0.073890841               0.110585458               0.000000000              -0.092710163               0.134923867               0.000000000              -0.111529486               0.159262276               0.000000000              -0.130348808               0.183600685               0.000000000              -0.149168131               0.207939094               0.000000000              -0.167987453               0.232277503               0.000000000              -0.186806776               0.256615912               0.000000000              -0.205626098               0.280954320               0.000000000              -0.224445420               0.305292729               0.000000000              -0.243264743               0.329631138               0.000000000              -0.262084065               0.353969547               0.000000000              -0.280903388               0.378307956               0.000000000              -0.299722710               0.402646365               0.000000000              -0.318542033               0.426984773               0.000000000              -0.337361355               0.451323182               0.000000000              -0.356180678               0.475661591               0.000000000              -0.375000000               0.500000000               0.000000000              -0.062695766               0.117295528               0.000000000              -0.078308531               0.141214558               0.000000000              -0.093921295               0.165133587               0.000000000              -0.109534060               0.189052617               0.000000000              -0.125146824               0.212971646               0.000000000              -0.140759589               0.236890676               0.000000000              -0.156372354               0.260809705               0.000000000              -0.171985118               0.284728735               0.000000000              -0.187597883               0.308647764               0.000000000              -0.203210648               0.332566794               0.000000000              -0.218823412               0.356485823               0.000000000              -0.234436177               0.380404853               0.000000000              -0.250048941               0.404323882               0.000000000              -0.265661706               0.428242912               0.000000000              -0.281274471               0.452161941               0.000000000              -0.296887235               0.476080971               0.000000000              -0.312500000               0.500000000               0.000000000              -0.050896897               0.122875978               0.000000000              -0.063340840               0.146446229               0.000000000              -0.075784784               0.170016481               0.000000000              -0.088228728               0.193586732               0.000000000              -0.100672672               0.217156983               0.000000000              -0.113116616               0.240727235               0.000000000              -0.125560560               0.264297486               0.000000000              -0.138004504               0.287867738               0.000000000              -0.150448448               0.311437989               0.000000000              -0.162892392               0.335008240               0.000000000              -0.175336336               0.358578492               0.000000000              -0.187780280               0.382148743               0.000000000              -0.200224224               0.405718994               0.000000000              -0.212668168               0.429289246               0.000000000              -0.225112112               0.452859497               0.000000000              -0.237556056               0.476429749               0.000000000              -0.250000000               0.500000000               0.000000000              -0.038607862               0.127273065               0.000000000              -0.047913621               0.150568498               0.000000000              -0.057219379               0.173863932               0.000000000              -0.066525138               0.197159365               0.000000000              -0.075830897               0.220454798               0.000000000              -0.085136655               0.243750232               0.000000000              -0.094442414               0.267045665               0.000000000              -0.103748172               0.290341099               0.000000000              -0.113053931               0.313636532               0.000000000              -0.122359690               0.336931966               0.000000000              -0.131665448               0.360227399               0.000000000              -0.140971207               0.383522833               0.000000000              -0.150276966               0.406818266               0.000000000              -0.159582724               0.430113700               0.000000000              -0.168888483               0.453409133               0.000000000              -0.178194241               0.476704567               0.000000000              -0.187500000               0.500000000               0.000000000              -0.025947013               0.130444442               0.000000000              -0.032137825               0.153541665               0.000000000              -0.038328636               0.176638887               0.000000000              -0.044519448               0.199736109               0.000000000              -0.050710260               0.222833332               0.000000000              -0.056901071               0.245930554               0.000000000              -0.063091883               0.269027776               0.000000000              -0.069282695               0.292124999               0.000000000              -0.075473506               0.315222221               0.000000000              -0.081664318               0.338319444               0.000000000              -0.087855130               0.361416666               0.000000000              -0.094045942               0.384513888               0.000000000              -0.100236753               0.407611111               0.000000000              -0.106427565               0.430708333               0.000000000              -0.112618377               0.453805555               0.000000000              -0.118809188               0.476902778               0.000000000              -0.125000000               0.500000000               0.000000000              -0.013036280               0.132359569               0.000000000              -0.016127762               0.155337096               0.000000000              -0.019219245               0.178314623               0.000000000              -0.022310727               0.201292150               0.000000000              -0.025402210               0.224269676               0.000000000              -0.028493692               0.247247203               0.000000000              -0.031585175               0.270224730               0.000000000              -0.034676657               0.293202257               0.000000000              -0.037768140               0.316179784               0.000000000              -0.040859622               0.339157311               0.000000000              -0.043951105               0.362134838               0.000000000              -0.047042587               0.385112365               0.000000000              -0.050134070               0.408089892               0.000000000              -0.053225552               0.431067419               0.000000000              -0.056317035               0.454044946               0.000000000              -0.059408517               0.477022473               0.000000000              -0.062500000               0.500000000               0.000000000               0.000000000               0.133000000               0.000000000               0.000000000               0.155937500               0.000000000               0.000000000               0.178875000               0.000000000               0.000000000               0.201812500               0.000000000               0.000000000               0.224750000               0.000000000               0.000000000               0.247687500               0.000000000               0.000000000               0.270625000               0.000000000               0.000000000               0.293562500               0.000000000               0.000000000               0.316500000               0.000000000               0.000000000               0.339437500               0.000000000               0.000000000               0.362375000               0.000000000               0.000000000               0.385312500               0.000000000               0.000000000               0.408250000               0.000000000               0.000000000               0.431187500               0.000000000               0.000000000               0.454125000               0.000000000               0.000000000               0.477062500               0.000000000               0.000000000               0.500000000               0.000000000 </DataArray>
</Points>
<Cells>
<DataArray type="Int32"                                    Name="connectivity"                                                      NumberOfComponents=" 1" format="ascii">
         0          1         18         17          1          2         19         18          2          3         20         19          3          4         21         20          4          5         22         21          5          6         23         22          6          7         24         23          7          8         25         24          8          9         26         25          9         10         27         26         10         11         28         27         11         12         29         28         12         13         30         29         13         14         31         30         14         15         32         31         15         16         33         32         17         18         35         34         18         19         36         35         19         20         37         36         20         21         38         37         21         22         39         38         22         23         40         39         23         24         41         40         24         25         42         41         25         26         43         42         26         27         44         43         27         28         45         44         28         29         46         45         29         30         47         46         30         31         48         47         31         32         49         48         32         33         50         49         34         35         52         51         35         36         53         52         36         37         54         53         37         38         55         54         38         39         56         55         39         40         57         56         40         41         58         57         41         42         59         58         42         43         60         59         43         44         61         60         44         45         62         61         45         46         63         62         46         47         64         63         47         48         65         64         48         49         66         65         49         50         67         66         51         52         69         68         52         53         70         69         53         54         71         70         54         55         72         71         55         56         73         72         56         57         74         73         57         58         75         74         58         59         76         75         59         60         77         76         60         61         78         77         61         62         79         78         62         63         80         79         63         64         81         80         64         65         82         81         65         66         83         82         66         67         84         83         68         69         86         85         69         70         87         86         70         71         88         87         71         72         89         88         72         73         90         89         73         74         91         90         74         75         92         91         75         76         93         92         76         77         94         93         77         78         95         94         78         79         96         95         79         80         97         96         80         81         98         97         81         82         99         98         82         83        100         99         83         84        101        100         85         86        103        102         86         87        104        103         87         88        105        104         88         89        106        105         89         90        107        106         90         91        108        107         91         92        109        108         92         93        110        109         93         94        111        110         94         95        112        111         95         96        113        112         96         97        114        113         97         98        115        114         98         99        116        115         99        100        117        116        100        101        118        117        102        103        120        119        103        104        121        120        104        105        122        121        105        106        123        122        106        107        124        123        107        108        125        124        108        109        126        125        109        110        127        126        110        111        128        127        111        112        129        128        112        113        130        129        113        114        131        130        114        115        132        131        115        116        133        132        116        117        134        133        117        118        135        134        119        120        137        136        120        121        138        137        121        122        139        138        122        123        140        139        123        124        141        140        124        125        142        141        125        126        143        142        126        127        144        143        127        128        145        144        128        129        146        145        129        130        147        146        130        131        148        147        131        132        149        148        132        133        150        149        133        134        151        150        134        135        152        151        136        137        154        153        137        138        155        154        138        139        156        155        139        140        157        156        140        141        158        157        141        142        159        158        142        143        160        159        143        144        161        160        144        145        162        161        145        146        163        162        146        147        164        163        147        148        165        164        148        149        166        165        149        150        167        166        150        151        168        167        151        152        169        168        153        154        171        170        154        155        172        171        155        156        173        172        156        157        174        173        157        158        175        174        158        159        176        175        159        160        177        176        160        161        178        177        161        162        179        178        162        163        180        179        163        164        181        180        164        165        182        181        165        166        183        182        166        167        184        183        167        168        185        184        168        169        186        185        170        171        188        187        171        172        189        188        172        173        190        189        173        174        191        190        174        175        192        191        175        176        193        192        176        177        194        193        177        178        195        194        178        179        196        195        179        180        197        196        180        181        198        197        181        182        199        198        182        183        200        199        183        184        201        200        184        185        202        201        185        186        203        202        187        188        205        204        188        189        206        205        189        190        207        206        190        191        208        207        191        192        209        208        192        193        210        209        193        194        211        210        194        195        212        211        195        196        213        212        196        197        214        213        197        198        215        214        198        199        216        215        199        200        217        216        200        201        218        217        201        202        219        218        202        203        220        219        204        205        222        221        205        206        223        222        206        207        224        223        207        208        225        224        208        209        226        225        209        210        227        226        210        211        228        227        211        212        229        228        212        213        230        229        213        214        231        230        214        215        232        231        215        216        233        232        216        217        234        233        217        218        235        234        218        219        236        235        219        220        237        236        221        222        239        238        222        223        240        239        223        224        241        240        224        225        242        241        225        226        243        242        226        227        244        243        227        228        245        244        228        229        246        245        229        230        247        246        230        231        248        247        231        232        249        248        232        233        250        249        233        234        251        250        234        235        252        251        235        236        253        252        236        237        254        253        238        239        256        255        239        240        257        256        240        241        258        257        241        242        259        258        242        243        260        259        243        244        261        260        244        245        262        261        245        246        263        262        246        247        264        263        247        248        265        264        248        249        266        265        249        250        267        266        250        251        268        267        251        252        269        268        252        253        270        269        253        254        271        270        255        256        273        272        256        257        274        273        257        258        275        274        258        259        276        275        259        260        277        276        260        261        278        277        261        262        279        278        262        263        280        279        263        264        281        280        264        265        282        281        265        266        283        282        266        267        284        283        267        268        285        284        268        269        286        285        269        270        287        286        270        271        288        287        306        307          1          0        307        308          2          1        308        309          3          2        309        310          4          3        310        311          5          4        311        312          6          5        312        313          7          6        313        314          8          7        314        315          9          8        315        316         10          9        316        317         11         10        317        318         12         11        318        319         13         12        319        320         14         13        320        321         15         14        321        322         16         15        323        324        307        306        324        325        308        307        325        326        309        308        326        327        310        309        327        328        311        310        328        329        312        311        329        330        313        312        330        331        314        313        331        332        315        314        332        333        316        315        333        334        317        316        334        335        318        317        335        336        319        318        336        337        320        319        337        338        321        320        338        339        322        321        340        341        324        323        341        342        325        324        342        343        326        325        343        344        327        326        344        345        328        327        345        346        329        328        346        347        330        329        347        348        331        330        348        349        332        331        349        350        333        332        350        351        334        333        351        352        335        334        352        353        336        335        353        354        337        336        354        355        338        337        355        356        339        338        357        358        341        340        358        359        342        341        359        360        343        342        360        361        344        343        361        362        345        344        362        363        346        345        363        364        347        346        364        365        348        347        365        366        349        348        366        367        350        349        367        368        351        350        368        369        352        351        369        370        353        352        370        371        354        353        371        372        355        354        372        373        356        355        374        375        358        357        375        376        359        358        376        377        360        359        377        378        361        360        378        379        362        361        379        380        363        362        380        381        364        363        381        382        365        364        382        383        366        365        383        384        367        366        384        385        368        367        385        386        369        368        386        387        370        369        387        388        371        370        388        389        372        371        389        390        373        372        391        392        375        374        392        393        376        375        393        394        377        376        394        395        378        377        395        396        379        378        396        397        380        379        397        398        381        380        398        399        382        381        399        400        383        382        400        401        384        383        401        402        385        384        402        403        386        385        403        404        387        386        404        405        388        387        405        406        389        388        406        407        390        389        408        409        392        391        409        410        393        392        410        411        394        393        411        412        395        394        412        413        396        395        413        414        397        396        414        415        398        397        415        416        399        398        416        417        400        399        417        418        401        400        418        419        402        401        419        420        403        402        420        421        404        403        421        422        405        404        422        423        406        405        423        424        407        406        425        426        409        408        426        427        410        409        427        428        411        410        428        429        412        411        429        430        413        412        430        431        414        413        431        432        415        414        432        433        416        415        433        434        417        416        434        435        418        417        435        436        419        418        436        437        420        419        437        438        421        420        438        439        422        421        439        440        423        422        440        441        424        423        442        443        426        425        443        444        427        426        444        445        428        427        445        446        429        428        446        447        430        429        447        448        431        430        448        449        432        431        449        450        433        432        450        451        434        433        451        452        435        434        452        453        436        435        453        454        437        436        454        455        438        437        455        456        439        438        456        457        440        439        457        458        441        440        459        460        443        442        460        461        444        443        461        462        445        444        462        463        446        445        463        464        447        446        464        465        448        447        465        466        449        448        466        467        450        449        467        468        451        450        468        469        452        451        469        470        453        452        470        471        454        453        471        472        455        454        472        473        456        455        473        474        457        456        474        475        458        457        476        477        460        459        477        478        461        460        478        479        462        461        479        480        463        462        480        481        464        463        481        482        465        464        482        483        466        465        483        484        467        466        484        485        468        467        485        486        469        468        486        487        470        469        487        488        471        470        488        489        472        471        489        490        473        472        490        491        474        473        491        492        475        474        493        494        477        476        494        495        478        477        495        496        479        478        496        497        480        479        497        498        481        480        498        499        482        481        499        500        483        482        500        501        484        483        501        502        485        484        502        503        486        485        503        504        487        486        504        505        488        487        505        506        489        488        506        507        490        489        507        508        491        490        508        509        492        491        510        511        494        493        511        512        495        494        512        513        496        495        513        514        497        496        514        515        498        497        515        516        499        498        516        517        500        499        517        518        501        500        518        519        502        501        519        520        503        502        520        521        504        503        521        522        505        504        522        523        506        505        523        524        507        506        524        525        508        507        525        526        509        508        527        528        511        510        528        529        512        511        529        530        513        512        530        531        514        513        531        532        515        514        532        533        516        515        533        534        517        516        534        535        518        517        535        536        519        518        536        537        520        519        537        538        521        520        538        539        522        521        539        540        523        522        540        541        524        523        541        542        525        524        542        543        526        525        544        545        528        527        545        546        529        528        546        547        530        529        547        548        531        530        548        549        532        531        549        550        533        532        550        551        534        533        551        552        535        534        552        553        536        535        553        554        537        536        554        555        538        537        555        556        539        538        556        557        540        539        557        558        541        540        558        559        542        541        559        560        543        542        561        562        545        544        562        563        546        545        563        564        547        546        564        565        548        547        565        566        549        548        566        567        550        549        567        568        551        550        568        569        552        551        569        570        553        552        570        571        554        553        571        572        555        554        572        573        556        555        573        574        557        556        574        575        558        557        575        576        559        558        576        577        560        559        578        579        596        595        579        580        597        596        580        581        598        597        581        582        599        598        582        583        600        599        583        584        601        600        584        585        602        601        585        586        603        602        586        587        604        603        587        588        605        604        588        589        606        605        589        590        607        606        590        591        608        607        591        592        609        608        592        593        610        609        593        594        611        610        595        596        613        612        596        597        614        613        597        598        615        614        598        599        616        615        599        600        617        616        600        601        618        617        601        602        619        618        602        603        620        619        603        604        621        620        604        605        622        621        605        606        623        622        606        607        624        623        607        608        625        624        608        609        626        625        609        610        627        626        610        611        628        627        612        613        630        629        613        614        631        630        614        615        632        631        615        616        633        632        616        617        634        633        617        618        635        634        618        619        636        635        619        620        637        636        620        621        638        637        621        622        639        638        622        623        640        639        623        624        641        640        624        625        642        641        625        626        643        642        626        627        644        643        627        628        645        644        629        630        647        646        630        631        648        647        631        632        649        648        632        633        650        649        633        634        651        650        634        635        652        651        635        636        653        652        636        637        654        653        637        638        655        654        638        639        656        655        639        640        657        656        640        641        658        657        641        642        659        658        642        643        660        659        643        644        661        660        644        645        662        661        646        647        664        663        647        648        665        664        648        649        666        665        649        650        667        666        650        651        668        667        651        652        669        668        652        653        670        669        653        654        671        670        654        655        672        671        655        656        673        672        656        657        674        673        657        658        675        674        658        659        676        675        659        660        677        676        660        661        678        677        661        662        679        678        663        664        681        680        664        665        682        681        665        666        683        682        666        667        684        683        667        668        685        684        668        669        686        685        669        670        687        686        670        671        688        687        671        672        689        688        672        673        690        689        673        674        691        690        674        675        692        691        675        676        693        692        676        677        694        693        677        678        695        694        678        679        696        695        680        681        698        697        681        682        699        698        682        683        700        699        683        684        701        700        684        685        702        701        685        686        703        702        686        687        704        703        687        688        705        704        688        689        706        705        689        690        707        706        690        691        708        707        691        692        709        708        692        693        710        709        693        694        711        710        694        695        712        711        695        696        713        712        697        698        715        714        698        699        716        715        699        700        717        716        700        701        718        717        701        702        719        718        702        703        720        719        703        704        721        720        704        705        722        721        705        706        723        722        706        707        724        723        707        708        725        724        708        709        726        725        709        710        727        726        710        711        728        727        711        712        729        728        712        713        730        729        714        715        732        731        715        716        733        732        716        717        734        733        717        718        735        734        718        719        736        735        719        720        737        736        720        721        738        737        721        722        739        738        722        723        740        739        723        724        741        740        724        725        742        741        725        726        743        742        726        727        744        743        727        728        745        744        728        729        746        745        729        730        747        746        731        732        749        748        732        733        750        749        733        734        751        750        734        735        752        751        735        736        753        752        736        737        754        753        737        738        755        754        738        739        756        755        739        740        757        756        740        741        758        757        741        742        759        758        742        743        760        759        743        744        761        760        744        745        762        761        745        746        763        762        746        747        764        763        748        749        766        765        749        750        767        766        750        751        768        767        751        752        769        768        752        753        770        769        753        754        771        770        754        755        772        771        755        756        773        772        756        757        774        773        757        758        775        774        758        759        776        775        759        760        777        776        760        761        778        777        761        762        779        778        762        763        780        779        763        764        781        780        765        766        783        782        766        767        784        783        767        768        785        784        768        769        786        785        769        770        787        786        770        771        788        787        771        772        789        788        772        773        790        789        773        774        791        790        774        775        792        791        775        776        793        792        776        777        794        793        777        778        795        794        778        779        796        795        779        780        797        796        780        781        798        797        782        783        800        799        783        784        801        800        784        785        802        801        785        786        803        802        786        787        804        803        787        788        805        804        788        789        806        805        789        790        807        806        790        791        808        807        791        792        809        808        792        793        810        809        793        794        811        810        794        795        812        811        795        796        813        812        796        797        814        813        797        798        815        814        799        800        817        816        800        801        818        817        801        802        819        818        802        803        820        819        803        804        821        820        804        805        822        821        805        806        823        822        806        807        824        823        807        808        825        824        808        809        826        825        809        810        827        826        810        811        828        827        811        812        829        828        812        813        830        829        813        814        831        830        814        815        832        831        816        817        834        833        817        818        835        834        818        819        836        835        819        820        837        836        820        821        838        837        821        822        839        838        822        823        840        839        823        824        841        840        824        825        842        841        825        826        843        842        826        827        844        843        827        828        845        844        828        829        846        845        829        830        847        846        830        831        848        847        831        832        849        848        833        834        562        561        834        835        563        562        835        836        564        563        836        837        565        564        837        838        566        565        838        839        567        566        839        840        568        567        840        841        569        568        841        842        570        569        842        843        571        570        843        844        572        571        844        845        573        572        845        846        574        573        846        847        575        574        847        848        576        575        848        849        577        576        884        885        579        578        885        886        580        579        886        887        581        580        887        888        582        581        888        889        583        582        889        890        584        583        890        891        585        584        891        892        586        585        892        893        587        586        893        894        588        587        894        895        589        588        895        896        590        589        896        897        591        590        897        898        592        591        898        899        593        592        899        900        594        593        901        902        885        884        902        903        886        885        903        904        887        886        904        905        888        887        905        906        889        888        906        907        890        889        907        908        891        890        908        909        892        891        909        910        893        892        910        911        894        893        911        912        895        894        912        913        896        895        913        914        897        896        914        915        898        897        915        916        899        898        916        917        900        899        918        919        902        901        919        920        903        902        920        921        904        903        921        922        905        904        922        923        906        905        923        924        907        906        924        925        908        907        925        926        909        908        926        927        910        909        927        928        911        910        928        929        912        911        929        930        913        912        930        931        914        913        931        932        915        914        932        933        916        915        933        934        917        916        935        936        919        918        936        937        920        919        937        938        921        920        938        939        922        921        939        940        923        922        940        941        924        923        941        942        925        924        942        943        926        925        943        944        927        926        944        945        928        927        945        946        929        928        946        947        930        929        947        948        931        930        948        949        932        931        949        950        933        932        950        951        934        933        952        953        936        935        953        954        937        936        954        955        938        937        955        956        939        938        956        957        940        939        957        958        941        940        958        959        942        941        959        960        943        942        960        961        944        943        961        962        945        944        962        963        946        945        963        964        947        946        964        965        948        947        965        966        949        948        966        967        950        949        967        968        951        950        969        970        953        952        970        971        954        953        971        972        955        954        972        973        956        955        973        974        957        956        974        975        958        957        975        976        959        958        976        977        960        959        977        978        961        960        978        979        962        961        979        980        963        962        980        981        964        963        981        982        965        964        982        983        966        965        983        984        967        966        984        985        968        967        986        987        970        969        987        988        971        970        988        989        972        971        989        990        973        972        990        991        974        973        991        992        975        974        992        993        976        975        993        994        977        976        994        995        978        977        995        996        979        978        996        997        980        979        997        998        981        980        998        999        982        981        999       1000        983        982       1000       1001        984        983       1001       1002        985        984       1003       1004        987        986       1004       1005        988        987       1005       1006        989        988       1006       1007        990        989       1007       1008        991        990       1008       1009        992        991       1009       1010        993        992       1010       1011        994        993       1011       1012        995        994       1012       1013        996        995       1013       1014        997        996       1014       1015        998        997       1015       1016        999        998       1016       1017       1000        999       1017       1018       1001       1000       1018       1019       1002       1001       1020       1021       1004       1003       1021       1022       1005       1004       1022       1023       1006       1005       1023       1024       1007       1006       1024       1025       1008       1007       1025       1026       1009       1008       1026       1027       1010       1009       1027       1028       1011       1010       1028       1029       1012       1011       1029       1030       1013       1012       1030       1031       1014       1013       1031       1032       1015       1014       1032       1033       1016       1015       1033       1034       1017       1016       1034       1035       1018       1017       1035       1036       1019       1018       1037       1038       1021       1020       1038       1039       1022       1021       1039       1040       1023       1022       1040       1041       1024       1023       1041       1042       1025       1024       1042       1043       1026       1025       1043       1044       1027       1026       1044       1045       1028       1027       1045       1046       1029       1028       1046       1047       1030       1029       1047       1048       1031       1030       1048       1049       1032       1031       1049       1050       1033       1032       1050       1051       1034       1033       1051       1052       1035       1034       1052       1053       1036       1035       1054       1055       1038       1037       1055       1056       1039       1038       1056       1057       1040       1039       1057       1058       1041       1040       1058       1059       1042       1041       1059       1060       1043       1042       1060       1061       1044       1043       1061       1062       1045       1044       1062       1063       1046       1045       1063       1064       1047       1046       1064       1065       1048       1047       1065       1066       1049       1048       1066       1067       1050       1049       1067       1068       1051       1050       1068       1069       1052       1051       1069       1070       1053       1052       1071       1072       1055       1054       1072       1073       1056       1055       1073       1074       1057       1056       1074       1075       1058       1057       1075       1076       1059       1058       1076       1077       1060       1059       1077       1078       1061       1060       1078       1079       1062       1061       1079       1080       1063       1062       1080       1081       1064       1063       1081       1082       1065       1064       1082       1083       1066       1065       1083       1084       1067       1066       1084       1085       1068       1067       1085       1086       1069       1068       1086       1087       1070       1069       1088       1089       1072       1071       1089       1090       1073       1072       1090       1091       1074       1073       1091       1092       1075       1074       1092       1093       1076       1075       1093       1094       1077       1076       1094       1095       1078       1077       1095       1096       1079       1078       1096       1097       1080       1079       1097       1098       1081       1080       1098       1099       1082       1081       1099       1100       1083       1082       1100       1101       1084       1083       1101       1102       1085       1084       1102       1103       1086       1085       1103       1104       1087       1086       1105       1106       1089       1088       1106       1107       1090       1089       1107       1108       1091       1090       1108       1109       1092       1091       1109       1110       1093       1092       1110       1111       1094       1093       1111       1112       1095       1094       1112       1113       1096       1095       1113       1114       1097       1096       1114       1115       1098       1097       1115       1116       1099       1098       1116       1117       1100       1099       1117       1118       1101       1100       1118       1119       1102       1101       1119       1120       1103       1102       1120       1121       1104       1103       1122       1123       1106       1105       1123       1124       1107       1106       1124       1125       1108       1107       1125       1126       1109       1108       1126       1127       1110       1109       1127       1128       1111       1110       1128       1129       1112       1111       1129       1130       1113       1112       1130       1131       1114       1113       1131       1132       1115       1114       1132       1133       1116       1115       1133       1134       1117       1116       1134       1135       1118       1117       1135       1136       1119       1118       1136       1137       1120       1119       1137       1138       1121       1120        272        273       1123       1122        273        274       1124       1123        274        275       1125       1124        275        276       1126       1125        276        277       1127       1126        277        278       1128       1127        278        279       1129       1128        279        280       1130       1129        280        281       1131       1130        281        282       1132       1131        282        283       1133       1132        283        284       1134       1133        284        285       1135       1134        285        286       1136       1135        286        287       1137       1136        287        288       1138       1137 </DataArray>
<DataArray type="Int32"                                    Name="offsets"                                                      NumberOfComponents=" 1" format="ascii">
         4          8         12         16         20         24         28         32         36         40         44         48         52         56         60         64         68         72         76         80         84         88         92         96        100        104        108        112        116        120        124        128        132        136        140        144        148        152        156        160        164        168        172        176        180        184        188        192        196        200        204        208        212        216        220        224        228        232        236        240        244        248        252        256        260        264        268        272        276        280        284        288        292        296        300        304        308        312        316        320        324        328        332        336        340        344        348        352        356        360        364        368        372        376        380        384        388        392        396        400        404        408        412        416        420        424        428        432        436        440        444        448        452        456        460        464        468        472        476        480        484        488        492        496        500        504        508        512        516        520        524        528        532        536        540        544        548        552        556        560        564        568        572        576        580        584        588        592        596        600        604        608        612        616        620        624        628        632        636        640        644        648        652        656        660        664        668        672        676        680        684        688        692        696        700        704        708        712        716        720        724        728        732        736        740        744        748        752        756        760        764        768        772        776        780        784        788        792        796        800        804        808        812        816        820        824        828        832        836        840        844        848        852        856        860        864        868        872        876        880        884        888        892        896        900        904        908        912        916        920        924        928        932        936        940        944        948        952        956        960        964        968        972        976        980        984        988        992        996       1000       1004       1008       1012       1016       1020       1024       1028       1032       1036       1040       1044       1048       1052       1056       1060       1064       1068       1072       1076       1080       1084       1088       1092       1096       1100       1104       1108       1112       1116       1120       1124       1128       1132       1136       1140       1144       1148       1152       1156       1160       1164       1168       1172       1176       1180       1184       1188       1192       1196       1200       1204       1208       1212       1216       1220       1224       1228       1232       1236       1240       1244       1248       1252       1256       1260       1264       1268       1272       1276       1280       1284       1288       1292       1296       1300       1304       1308       1312       1316       1320       1324       1328       1332       1336       1340       1344       1348       1352       1356       1360       1364       1368       1372       1376       1380       1384       1388       1392       1396       1400       1404       1408       1412       1416       1420       1424       1428       1432       1436       1440       1444       1448       1452       1456       1460       1464       1468       1472       1476       1480       1484       1488       1492       1496       1500       1504       1508       1512       1516       1520       1524       1528       1532       1536       1540       1544       1548       1552       1556       1560       1564       1568       1572       1576       1580       1584       1588       1592       1596       1600       1604       1608       1612       1616       1620       1624       1628       1632       1636       1640       1644       1648       1652       1656       1660       1664       1668       1672       1676       1680       1684       1688       1692       1696       1700       1704       1708       1712       1716       1720       1724       1728       1732       1736       1740       1744       1748       1752       1756       1760       1764       1768       1772       1776       1780       1784       1788       1792       1796       1800       1804       1808       1812       1816       1820       1824       1828       1832       1836       1840       1844       1848       1852       1856       1860       1864       1868       1872       1876       1880       1884       1888       1892       1896       1900       1904       1908       1912       1916       1920       1924       1928       1932       1936       1940       1944       1948       1952       1956       1960       1964       1968       1972       1976       1980       1984       1988       1992       1996       2000       2004       2008       2012       2016       2020       2024       2028       2032       2036       2040       2044       2048       2052       2056       2060       2064       2068       2072       2076       2080       2084       2088       2092       2096       2100       2104       2108       2112       2116       2120       2124       2128       2132       2136       2140       2144       2148       2152       2156       2160       2164       2168       2172       2176       2180       2184       2188       2192       2196       2200       2204       2208       2212       2216       2220       2224       2228       2232       2236       2240       2244       2248       2252       2256       2260       2264       2268       2272       2276       2280       2284       2288       2292       2296       2300       2304       2308       2312       2316       2320       2324       2328       2332       2336       2340       2344       2348       2352       2356       2360       2364       2368       2372       2376       2380       2384       2388       2392       2396       2400       2404       2408       2412       2416       2420       2424       2428       2432       2436       2440       2444       2448       2452       2456       2460       2464       2468       2472       2476       2480       2484       2488       2492       2496       2500       2504       2508       2512       2516       2520       2524       2528       2532       2536       2540       2544       2548       2552       2556       2560       2564       2568       2572       2576       2580       2584       2588       2592       2596       2600       2604       2608       2612       2616       2620       2624       2628       2632       2636       2640       2644       2648       2652       2656       2660       2664       2668       2672       2676       2680       2684       2688       2692       2696       2700       2704       2708       2712       2716       2720       2724       2728       2732       2736       2740       2744       2748       2752       2756       2760       2764       2768       2772       2776       2780       2784       2788       2792       2796       2800       2804       2808       2812       2816       2820       2824       2828       2832       2836       2840       2844       2848       2852       2856       2860       2864       2868       2872       2876       2880       2884       2888       2892       2896       2900       2904       2908       2912       2916       2920       2924       2928       2932       2936       2940       2944       2948       2952       2956       2960       2964       2968       2972       2976       2980       2984       2988       2992       2996       3000       3004       3008       3012       3016       3020       3024       3028       3032       3036       3040       3044       3048       3052       3056       3060       3064       3068       3072       3076       3080       3084       3088       3092       3096       3100       3104       3108       3112       3116       3120       3124       3128       3132       3136       3140       3144       3148       3152       3156       3160       3164       3168       3172       3176       3180       3184       3188       3192       3196       3200       3204       3208       3212       3216       3220       3224       3228       3232       3236       3240       3244       3248       3252       3256       3260       3264       3268       3272       3276       3280       3284       3288       3292       3296       3300       3304       3308       3312       3316       3320       3324       3328       3332       3336       3340       3344       3348       3352       3356       3360       3364       3368       3372       3376       3380       3384       3388       3392       3396       3400       3404       3408       3412       3416       3420       3424       3428       3432       3436       3440       3444       3448       3452       3456       3460       3464       3468       3472       3476       3480       3484       3488       3492       3496       3500       3504       3508       3512       3516       3520       3524       3528       3532       3536       3540       3544       3548       3552       3556       3560       3564       3568       3572       3576       3580       3584       3588       3592       3596       3600       3604       3608       3612       3616       3620       3624       3628       3632       3636       3640       3644       3648       3652       3656       3660       3664       3668       3672       3676       3680       3684       3688       3692       3696       3700       3704       3708       3712       3716       3720       3724       3728       3732       3736       3740       3744       3748       3752       3756       3760       3764       3768       3772       3776       3780       3784       3788       3792       3796       3800       3804       3808       3812       3816       3820       3824       3828       3832       3836       3840       3844       3848       3852       3856       3860       3864       3868       3872       3876       3880       3884       3888       3892       3896       3900       3904       3908       3912       3916       3920       3924       3928       3932       3936       3940       3944       3948       3952       3956       3960       3964       3968       3972       3976       3980       3984       3988       3992       3996       4000       4004       4008       4012       4016       4020       4024       4028       4032       4036       4040       4044       4048       4052       4056       4060       4064       4068       4072       4076       4080       4084       4088       4092       4096 </DataArray>
<DataArray type="UInt8"                                    Name="types"                                                      NumberOfComponents=" 1" format="ascii">
         9          9          9          9          9          9          9          9          9          9          9          9          9          9          9          9          9          9          9          9          9          9          9          9          9          9          9          9          9          9          9          9          9          9          9          9          9          9          9          9          9          9          9          9          9          9          9          9          9          9          9          9          9          9          9          9          9          9          9          9          9          9          9          9          9          9          9          9          9          9          9          9          9          9          9          9          9          9          9          9          9          9          9          9          9          9          9          9          9          9          9          9          9          9          9          9          9          9          9          9          9          9          9          9          9          9          9          9          9          9          9          9          9          9          9          9          9          9          9          9          9          9          9          9          9          9          9          9          9          9          9          9          9          9          9          9          9          9          9          9          9          9          9          9          9          9          9          9          9          9          9          9          9          9          9          9          9          9          9          9          9          9          9          9          9          9          9          9          9          9          9          9          9          9          9          9          9          9          9          9          9          9          9          9          9          9          9          9          9          9          9          9          9          9          9          9          9          9          9          9          9          9          9          9          9          9          9          9          9          9          9          9          9          9          9          9          9          9          9          9          9          9          9          9          9          9          9          9          9          9          9          9          9          9          9          9          9          9          9          9          9          9          9          9          9          9          9          9          9          9          9          9          9          9          9          9          9          9          9          9          9          9          9          9          9          9          9          9          9          9          9          9          9          9          9          9          9          9          9          9          9          9          9          9          9          9          9          9          9          9          9          9          9          9          9          9          9          9          9          9          9          9          9          9          9          9          9          9          9          9          9          9          9          9          9          9          9          9          9          9          9          9          9          9          9          9          9          9          9          9          9          9          9          9          9          9          9          9          9          9          9          9          9          9          9          9          9          9          9          9          9          9          9          9          9          9          9          9          9          9          9          9          9          9          9          9          9          9          9          9          9          9          9          9          9          9          9          9          9          9          9          9          9          9          9          9          9          9          9          9          9          9          9          9          9          9          9          9          9          9          9          9          9          9          9          9          9          9          9          9          9          9          9          9          9          9          9          9          9          9          9          9          9          9          9          9          9          9          9          9          9          9          9          9          9          9          9          9          9          9          9          9          9          9          9          9          9          9          9          9          9          9          9          9          9          9          9          9          9          9          9          9          9          9          9          9          9          9          9          9          9          9          9          9          9          9          9          9          9          9          9          9          9          9          9          9          9          9          9          9          9          9          9          9          9          9          9          9          9          9          9          9          9          9          9          9          9          9          9          9          9          9          9          9          9          9          9          9          9          9          9          9          9          9          9          9          9          9          9          9          9          9          9          9          9          9          9          9          9          9          9          9          9          9          9          9          9          9          9          9          9          9          9          9          9          9          9          9          9          9          9          9          9          9          9          9          9          9          9          9          9          9          9          9          9          9          9          9          9          9          9          9          9          9          9          9          9          9          9          9          9          9          9          9          9          9          9          9          9          9          9          9          9          9          9          9          9          9          9          9          9          9          9          9          9          9          9          9          9          9          9          9          9          9          9          9          9          9          9          9          9          9          9          9          9          9          9          9          9          9          9          9          9          9          9          9          9          9          9          9          9          9          9          9          9          9          9          9          9          9          9          9          9          9          9          9          9          9          9          9          9          9          9          9          9          9          9          9          9          9          9          9          9          9          9          9          9          9          9          9          9          9          9          9          9          9          9          9          9          9          9          9          9          9          9          9          9          9          9          9          9          9          9          9          9          9          9          9          9          9          9          9          9          9          9          9          9          9          9          9          9          9          9          9          9          9          9          9          9          9          9          9          9          9          9          9          9          9          9          9          9          9          9          9          9          9          9          9          9          9          9          9          9          9          9          9          9          9          9          9          9          9          9          9          9          9          9          9          9          9          9          9          9          9          9          9          9          9          9          9          9          9          9          9          9          9          9          9          9          9          9          9          9          9          9          9          9          9          9          9          9          9          9          9          9          9          9          9          9          9          9          9          9          9          9          9          9          9          9          9          9          9          9          9          9          9          9          9          9          9          9          9          9          9          9          9          9          9          9          9          9          9          9          9          9          9          9          9          9          9          9          9          9          9          9          9          9          9          9          9          9          9          9          9          9          9          9          9          9          9          9          9          9          9          9          9          9          9          9          9          9          9          9          9          9          9          9          9          9          9          9          9          9          9          9          9          9          9          9          9          9          9          9          9          9          9          9          9          9          9          9          9          9          9          9          9          9          9          9          9          9          9          9          9          9          9          9          9          9          9          9          9          9          9          9          9          9          9          9          9          9          9          9          9          9          9          9          9          9          9          9          9          9          9          9          9          9          9          9          9          9          9          9          9          9          9          9          9          9          9          9          9          9          9          9          9          9          9          9          9          9          9          9          9          9          9          9          9          9          9          9          9          9          9          9          9          9          9          9          9          9          9          9          9          9          9          9          9          9          9          9          9          9          9 </DataArray>
</Cells>
<CellData>
<DataArray type="Int32"                                    Name="material"                                                      NumberOfComponents=" 1" format="ascii">
         1          1          1          1          1          1          1          1          1          1          1          1          1          1          1          1          1          1          1          1          1          1          1          1          1          1          1          1          1          1          1          1          1          1          1          1          1          1          1          1          1          1          1          1          1          1          1          1          1          1          1          1          1          1          1          1          1          1          1          1          1          1          1          1          1          1          1          1          1          1          1          1          1          1          1          1          1          1          1          1          1          1          1          1          1          1          1          1          1          1          1          1          1          1          1          1          1          1          1          1          1          1          1          1          1          1          1          1          1          1          1          1          1          1          1          1          1          1          1          1          1          1          1          1          1          1          1          1          1          1          1          1          1          1          1          1          1          1          1          1          1          1          1          1          1          1          1          1          1          1          1          1          1          1          1          1          1          1          1          1          1          1          1          1          1          1          1          1          1          1          1          1          1          1          1          1          1          1          1          1          1          1          1          1          1          1          1          1          1          1          1          1          1          1          1          1          1          1          1          1          1          1          1          1          1          1          1          1          1          1          1          1          1          1          1          1          1          1          1          1          1          1          1          1          1          1          1          1          1          1          1          1          1          1          1          1          1          1          1          1          1          1          1          1          1          1          1          1          1          1          1          1          1          1          1          1          1          1          1          1          1          1          1          1          1          1          1          1          1          1          1          1          1          1          1          1          1          1          1          1          1          1          1          1          1          1          1          1          1          1          1          1          1          1          1          1          1          1          1          1          1          1          1          1          1          1          1          1          1          1          1          1          1          1          1          1          1          1          1          1          1          1          1          1          1          1          1          1          1          1          1          1          1          1          1          1          1          1          1          1          1          1          1          1          1          1          1          1          1          1          1          1          1          1          1          1          1          1          1          1          1          1          1          1          1          1          1          1          1          1          1          1          1          1          1          1          1          1          1          1          1          1          1          1          1          1          1          1          1          1          1          1          1          1          1          1          1          1          1          1          1          1          1          1          1          1          1          1          1          1          1          1          1          1          1          1          1          1          1          1          1          1          1          1          1          1          1          1          1          1          1          1          1          1          1          1          1          1          1          1          1          1          1          1          1          1          1          1          1          1          1          1          1          1          1          1          1          1          1          1          1          1          1          1          1          1          1          1          1          1          1          1          1          1          1          1          1          1          1          1          1          1          1          1          1          1          1          1          1          1          1          1          1          1          1          1          1          1          1          1          1          1          1          1          1          1          1          1          1          1          1          1          1          1          1          1          1          1          1          1          1          1          1          1          1          1          1          1          1          1          1          1          1          1          1          1          1          1          1          1          1          1          1          1          1          1          1          1          1          1          1          1          1          1          1          1          1          1          1          1          1          1          1          1          1          1          1          1          1          1          1          1          1          1          1          1          1          1          1          1          1          1          1          1          1          1          1          1          1          1          1          1          1          1          1          1          1          1          1          1          1          1          1          1          1          1          1          1          1          1          1          1          1          1          1          1          1          1          1          1          1          1          1          1          1          1          1          1          1          1          1          1          1          1          1          1          1          1          1          1          1          1          1          1          1          1          1          1          1          1          1          1          1          1          1          1          1          1          1          1          1          1          1          1          1          1          1          1          1          1          1          1          1          1          1          1          1          1          1          1          1          1          1          1          1          1          1          1          1          1          1          1          1          1          1          1          1          1          1          1          1          1          1          1          1          1          1          1          1          1          1          1          1          1          1          1          1          1          1          1          1          1          1          1          1          1          1          1          1          1          1          1          1          1          1          1          1          1          1          1          1          1          1          1          1          1          1          1          1          1          1          1          1          1          1          1          1          1          1          1          1          1          1          1          1          1          1          1          1          1          1          1          1          1          1          1          1          1          1          1          1          1          1          1          1          1          1          1          1          1          1          1          1          1          1          1          1          1          1          1          1          1          1          1          1          1          1          1          1          1          1          1          1          1          1          1          1          1          1          1          1          1          1          1          1          1          1          1          1          1          1          1          1          1          1          1          1          1          1          1          1          1          1          1          1          1          1          1          1          1          1          1          1          1          1          1          1          1          1          1          1          1          1          1          1          1          1          1          1          1          1          1          1          1          1          1          1          1          1          1          1          1          1          1          1          1          1          1          1          1          1          1          1          1          1          1          1          1          1          1          1          1          1          1          1          1          1          1          1          1          1          1          1          1          1          1          1          1          1          1          1          1          1          1          1          1          1          1          1          1          1          1          1          1          1          1          1          1          1          1          1          1          1          1          1          1          1          1          1          1          1          1          1          1          1          1          1          1          1          1          1          1          1          1          1          1          1          1          1          1          1          1          1          1          1          1          1          1          1          1          1          1          1          1          1          1          1          1          1          1          1          1          1          1          1          1          1          1          1          1          1          1          1          1          1          1          1          1          1          1          1          1          1          1          1          1          1          1          1          1          1          1          1          1 </DataArray>
</CellData>
<PointData>
<DataArray type="Float64"                                    Name="u"                                                      NumberOfComponents=" 3" format="ascii">
             -0.000919083               0.000000000               0.999999986              -0.000968513               0.000000000               0.999999986              -0.000989457               0.000000000               0.999999986              -0.001001320               0.000000000               0.999999986              -0.001010963               0.000000000               0.999999986              -0.001020755              -0.000000000               0.999999986              -0.001031287               0.000000000               0.999999986              -0.001042330               0.000000000               0.999999986              -0.001053847               0.000000000               0.999999986              -0.001065533               0.000000000               0.999999986              -0.001077157              -0.000000000               0.999999986              -0.001088406               0.000000000               0.999999986              -0.001098774              -0.000000000               0.999999986              -0.001107794               0.000000000               0.999999986              -0.001115104               0.000000000               0.999999986              -0.001120311               0.000000000               0.999999986              -0.001122551               0.000000000               0.999999986              -0.000913896               0.000129477               0.999999986              -0.000959021               0.000102248               0.999999986              -0.000977204               0.000089803               0.999999986              -0.000987242               0.000084584               0.999999986              -0.000995553               0.000082700               0.999999986              -0.001004284               0.000082197               0.999999986              -0.001013833               0.000082042               0.999999986              -0.001024029               0.000081612               0.999999986              -0.001034616               0.000080756               0.999999986              -0.001045266               0.000079011               0.999999986              -0.001055571               0.000075963               0.999999986              -0.001065115               0.000070993               0.999999986              -0.001073477               0.000063943               0.999999986              -0.001080328               0.000054303               0.999999986              -0.001085331               0.000041549               0.999999986              -0.001087959               0.000024909               0.999999986              -0.001087660               0.000002894               0.999999986              -0.000898377               0.000257740               0.999999986              -0.000930931               0.000204133               0.999999986              -0.000941330               0.000180623               0.999999986              -0.000946374               0.000171234               0.999999986              -0.000951212               0.000168341               0.999999986              -0.000957241               0.000168107               0.999999986              -0.000964376               0.000168305               0.999999986              -0.000972094               0.000167975               0.999999986              -0.000979835               0.000166334               0.999999986              -0.000987004               0.000162933               0.999999986              -0.000993135               0.000156762               0.999999986              -0.000997757               0.000147097               0.999999986              -0.001000480               0.000133345               0.999999986              -0.001001033               0.000115057               0.999999986              -0.000999108               0.000091354               0.999999986              -0.000994687               0.000061123               0.999999986              -0.000987789               0.000022265               0.999999986              -0.000872864               0.000383529               0.999999986              -0.000885766               0.000305451               0.999999986              -0.000885011               0.000273313               0.999999986              -0.000883385               0.000261623               0.999999986              -0.000883778               0.000259102               0.999999986              -0.000886275               0.000260100               0.999999986              -0.000889926               0.000261515               0.999999986              -0.000893865               0.000261578               0.999999986              -0.000897145               0.000259501               0.999999986              -0.000898924               0.000254386               0.999999986              -0.000898618               0.000245236               0.999999986              -0.000895764               0.000231168               0.999999986              -0.000890129               0.000211766               0.999999986              -0.000881564               0.000186531               0.999999986              -0.000870264               0.000155135               0.999999986              -0.000856678               0.000116921               0.999999986              -0.000841371               0.000070620               0.999999986              -0.000838044               0.000505659               0.999999986              -0.000826043               0.000406195               0.999999986              -0.000812819               0.000368438               0.999999986              -0.000804610               0.000356531               0.999999986              -0.000800818               0.000355719               0.999999986              -0.000799759               0.000358710               0.999999986              -0.000799637               0.000361592               0.999999986              -0.000799041               0.000362427               0.999999986              -0.000796699               0.000359874               0.999999986              -0.000791807               0.000353062               0.999999986              -0.000783669               0.000341029               0.999999986              -0.000772093               0.000323219               0.999999986              -0.000757037               0.000299333               0.999999986              -0.000738871               0.000269513               0.999999986              -0.000718131               0.000234053               0.999999986              -0.000695467               0.000193070               0.999999986              -0.000671845               0.000146705               0.999999986              -0.000794655               0.000623072               0.999999986              -0.000754794               0.000506515               0.999999986              -0.000730078               0.000466067               0.999999986              -0.000716731               0.000455672               0.999999986              -0.000709941               0.000457354               0.999999986              -0.000706008               0.000462667               0.999999986              -0.000702259               0.000467107               0.999999986              -0.000696747               0.000468489               0.999999986              -0.000688182               0.000465449               0.999999986              -0.000675724               0.000456993               0.999999986              -0.000658969               0.000442412               0.999999986              -0.000638084               0.000421551               0.999999986              -0.000613472               0.000394657               0.999999986              -0.000585864               0.000362651               0.999999986              -0.000556000               0.000325992               0.999999986              -0.000524577               0.000285731               0.999999986              -0.000492420               0.000242814               0.999999986              -0.000743595               0.000734636               0.999999986              -0.000675567               0.000606387               0.999999986              -0.000642117               0.000565883               0.999999986              -0.000626142               0.000557953               0.999999986              -0.000618026               0.000562392               0.999999986              -0.000612028               0.000569744               0.999999986              -0.000604734               0.000575402               0.999999986              -0.000593990               0.000577001               0.999999986              -0.000578600               0.000573204               0.999999986              -0.000557907               0.000563025               0.999999986              -0.000532084               0.000546355               0.999999986              -0.000501597               0.000523195               0.999999986              -0.000467259               0.000494839               0.999999986              -0.000429870               0.000462465               0.999999986              -0.000390372               0.000426955               0.999999986              -0.000349513               0.000389397               0.999999986              -0.000308027               0.000350651               0.999999986              -0.000685796               0.000839206               0.999999986              -0.000592165               0.000705554               0.999999986              -0.000553972               0.000666881               0.999999986              -0.000538267               0.000661505               0.999999986              -0.000530107               0.000668311               0.999999986              -0.000522333               0.000677366               0.999999986              -0.000511301               0.000683827               0.999999986              -0.000494833               0.000685348               0.999999986              -0.000471950               0.000680540               0.999999986              -0.000442501               0.000668630               0.999999986              -0.000406839               0.000650115               0.999999986              -0.000365833               0.000625904               0.999999986              -0.000320639               0.000597577               0.999999986              -0.000272503               0.000566505               0.999999986              -0.000222354               0.000533434               0.999999986              -0.000170969               0.000499328               0.999999986              -0.000119104               0.000464644               0.999999986              -0.000623221               0.000934754               0.999999986              -0.000507528               0.000803929               0.999999986              -0.000470040               0.000767444               0.999999986              -0.000456531               0.000764210               0.999999986              -0.000449000               0.000772805               0.999999986              -0.000439420               0.000783176               0.999999986              -0.000424165               0.000790215               0.999999986              -0.000401327               0.000791344               0.999999986              -0.000370018               0.000785257               0.999999986              -0.000330463               0.000771890               0.999999986              -0.000283534               0.000752389               0.999999986              -0.000230536               0.000728289               0.999999986              -0.000173380               0.000701096               0.999999986              -0.000113439               0.000672082               0.999999986              -0.000051858               0.000641971               0.999999986               0.000010434               0.000611465               0.999999986               0.000072865               0.000580853               0.999999986              -0.000558456               0.001025138               0.999999986              -0.000436401               0.000914455               0.999999986              -0.000396550               0.000874727               0.999999986              -0.000382826               0.000867195               0.999999986              -0.000376193               0.000873157               0.999999986              -0.000368740               0.000883852               0.999999986              -0.000356867               0.000894159               0.999999986              -0.000338637               0.000901078               0.999999986              -0.000312734               0.000902881               0.999999986              -0.000278911               0.000898812               0.999999986              -0.000237288               0.000889328               0.999999986              -0.000188602               0.000875269               0.999999986              -0.000134238               0.000857995               0.999999986              -0.000075637               0.000838370               0.999999986              -0.000014244               0.000817451               0.999999986               0.000048672               0.000795720               0.999999986               0.000112052               0.000773805               0.999999986              -0.000487997               0.001107432               0.999999986              -0.000367920               0.001021286               0.999999986              -0.000325890               0.000984801               0.999999986              -0.000311071               0.000975337               0.999999986              -0.000304412               0.000979817               0.999999986              -0.000298202               0.000990793               0.999999986              -0.000288851               0.001003918               0.999999986              -0.000274528               0.001015982               0.999999986              -0.000253626               0.001024921               0.999999986              -0.000225567               0.001029639               0.999999986              -0.000189841               0.001029699               0.999999986              -0.000146384               0.001025596               0.999999986              -0.000096016               0.001018005               0.999999986              -0.000039953               0.001007806               0.999999986               0.000020493               0.000995673               0.999999986               0.000084012               0.000982343               0.999999986               0.000149368               0.000968489               0.999999986              -0.000413316               0.001179575               0.999999986              -0.000302048               0.001121099               0.999999986              -0.000259740               0.001092452               0.999999986              -0.000243530               0.001084429               0.999999986              -0.000236298               0.001089137               0.999999986              -0.000230458               0.001101120               0.999999986              -0.000222846               0.001116737               0.999999986              -0.000211549               0.001133323               0.999999986              -0.000195164               0.001148740               0.999999986              -0.000172626               0.001161652               0.999999986              -0.000142907               0.001171202               0.999999986              -0.000105589               0.001177094               0.999999986              -0.000060738               0.001179557               0.999999986              -0.000008961               0.001178971               0.999999986               0.000048895               0.001175899               0.999999986               0.000112176               0.001171118               0.999999986               0.000179730               0.001165233               0.999999986              -0.000335051               0.001240381               0.999999986              -0.000238658               0.001209907               0.999999986              -0.000198909               0.001192173               0.999999986              -0.000182220               0.001188372               0.999999986              -0.000174345               0.001195229               0.999999986              -0.000168617               0.001209205               0.999999986              -0.000162193               0.001227603               0.999999986              -0.000153287               0.001248166               0.999999986              -0.000140627               0.001269353               0.999999986              -0.000123035               0.001289618               0.999999986              -0.000099435               0.001308040               0.999999986              -0.000068905               0.001323852               0.999999986              -0.000031171               0.001336701               0.999999986               0.000014043               0.001346575               0.999999986               0.000066972               0.001353536               0.999999986               0.000127299               0.001357870               0.999999986               0.000195090               0.001360378               0.999999986              -0.000253895               0.001288812               0.999999986              -0.000177339               0.001283757               0.999999986              -0.000143399               0.001278218               0.999999986              -0.000127987               0.001280430               0.999999986              -0.000120223               0.001290744               0.999999986              -0.000114897               0.001307526               0.999999986              -0.000109545               0.001328996               0.999999986              -0.000102716               0.001353454               0.999999986              -0.000093158               0.001379595               0.999999986              -0.000080015               0.001406288               0.999999986              -0.000062278               0.001432471               0.999999986              -0.000039121               0.001457248               0.999999986              -0.000009584               0.001479996               0.999999986               0.000026905               0.001500330               0.999999986               0.000071165               0.001517875               0.999999986               0.000124112               0.001532432               0.999999986               0.000186810               0.001544261               0.999999986              -0.000170549               0.001324040               0.999999986              -0.000117499               0.001339200               0.999999986              -0.000092644               0.001344761               0.999999986              -0.000080643               0.001353297               0.999999986              -0.000074255               0.001367591               0.999999986              -0.000069983               0.001387459               0.999999986              -0.000066037               0.001411872               0.999999986              -0.000061233               0.001439738               0.999999986              -0.000054711               0.001469977               0.999999986              -0.000045856               0.001501718               0.999999986              -0.000033869               0.001534047               0.999999986              -0.000018066               0.001566222               0.999999986               0.000002300               0.001597388               0.999999986               0.000027995               0.001626758               0.999999986               0.000060032               0.001653912               0.999999986               0.000099671               0.001678274               0.999999986               0.000148768               0.001699245               0.999999986              -0.000085665               0.001345444               0.999999986              -0.000058555               0.001373579               0.999999986              -0.000045423               0.001386904               0.999999986              -0.000038776               0.001400271               0.999999986              -0.000035189               0.001417798               0.999999986              -0.000032716               0.001440154               0.999999986              -0.000030596               0.001466965               0.999999986              -0.000028066               0.001497332               0.999999986              -0.000024729               0.001530361               0.999999986              -0.000020237               0.001565354               0.999999986              -0.000014066               0.001601586               0.999999986              -0.000005868               0.001638416               0.999999986               0.000004467               0.001674940               0.999999986               0.000017575               0.001710387               0.999999986               0.000034437               0.001744082               0.999999986               0.000055759               0.001775241               0.999999986               0.000082667               0.001802957               0.999999986               0.000000000               0.001352564               0.999999986               0.000000000               0.001385176               0.999999986               0.000000000               0.001401364               0.999999986              -0.000000000               0.001416509               0.999999986               0.000000000               0.001435281               0.999999986               0.000000000               0.001458653               0.999999986               0.000000000               0.001486331               0.999999986               0.000000000               0.001517666               0.999999986              -0.000000000               0.001551804               0.999999986               0.000000000               0.001588033               0.999999986               0.000000000               0.001625550               0.999999986              -0.000000000               0.001663738               0.999999986              -0.000000000               0.001702005               0.999999986               0.000000000               0.001739653               0.999999986               0.000000000               0.001775664               0.999999986               0.000000000               0.001809151               0.999999986              -0.000000000               0.001839328               0.999999986              -0.000919083               0.000000000               0.999999986              -0.000968513               0.000000000               0.999999986              -0.000989457               0.000000000               0.999999986              -0.001001320               0.000000000               0.999999986              -0.001010963               0.000000000               0.999999986              -0.001020755              -0.000000000               0.999999986              -0.001031287               0.000000000               0.999999986              -0.001042330               0.000000000               0.999999986              -0.001053847               0.000000000               0.999999986              -0.001065533               0.000000000               0.999999986              -0.001077157              -0.000000000               0.999999986              -0.001088406               0.000000000               0.999999986              -0.001098774              -0.000000000               0.999999986              -0.001107794               0.000000000               0.999999986              -0.001115104               0.000000000               0.999999986              -0.001120311               0.000000000               0.999999986              -0.001122551               0.000000000               0.999999986              -0.000913896              -0.000129477               0.999999986              -0.000959021              -0.000102248               0.999999986              -0.000977204              -0.000089803               0.999999986              -0.000987242              -0.000084584               0.999999986              -0.000995553              -0.000082700               0.999999986              -0.001004284              -0.000082197               0.999999986              -0.001013833              -0.000082042               0.999999986              -0.001024029              -0.000081612               0.999999986              -0.001034616              -0.000080756               0.999999986              -0.001045266              -0.000079011               0.999999986              -0.001055571              -0.000075963               0.999999986              -0.001065115              -0.000070993               0.999999986              -0.001073477              -0.000063943               0.999999986              -0.001080328              -0.000054303               0.999999986              -0.001085331              -0.000041549               0.999999986              -0.001087959              -0.000024909               0.999999986              -0.001087660              -0.000002894               0.999999986              -0.000898377              -0.000257740               0.999999986              -0.000930931              -0.000204133               0.999999986              -0.000941330              -0.000180623               0.999999986              -0.000946374              -0.000171234               0.999999986              -0.000951212              -0.000168341               0.999999986              -0.000957241              -0.000168107               0.999999986              -0.000964376              -0.000168305               0.999999986              -0.000972094              -0.000167975               0.999999986              -0.000979835              -0.000166334               0.999999986              -0.000987004              -0.000162933               0.999999986              -0.000993135              -0.000156762               0.999999986              -0.000997757              -0.000147097               0.999999986              -0.001000480              -0.000133345               0.999999986              -0.001001033              -0.000115057               0.999999986              -0.000999108              -0.000091354               0.999999986              -0.000994687              -0.000061123               0.999999986              -0.000987789              -0.000022265               0.999999986              -0.000872864              -0.000383529               0.999999986              -0.000885766              -0.000305451               0.999999986              -0.000885011              -0.000273313               0.999999986              -0.000883385              -0.000261623               0.999999986              -0.000883778              -0.000259102               0.999999986              -0.000886275              -0.000260100               0.999999986              -0.000889926              -0.000261515               0.999999986              -0.000893865              -0.000261578               0.999999986              -0.000897145              -0.000259501               0.999999986              -0.000898924              -0.000254386               0.999999986              -0.000898618              -0.000245236               0.999999986              -0.000895764              -0.000231168               0.999999986              -0.000890129              -0.000211766               0.999999986              -0.000881564              -0.000186531               0.999999986              -0.000870264              -0.000155135               0.999999986              -0.000856678              -0.000116921               0.999999986              -0.000841371              -0.000070620               0.999999986              -0.000838044              -0.000505659               0.999999986              -0.000826043              -0.000406195               0.999999986              -0.000812819              -0.000368438               0.999999986              -0.000804610              -0.000356531               0.999999986              -0.000800818              -0.000355719               0.999999986              -0.000799759              -0.000358710               0.999999986              -0.000799637              -0.000361592               0.999999986              -0.000799041              -0.000362427               0.999999986              -0.000796699              -0.000359874               0.999999986              -0.000791807              -0.000353062               0.999999986              -0.000783669              -0.000341029               0.999999986              -0.000772093              -0.000323219               0.999999986              -0.000757037              -0.000299333               0.999999986              -0.000738871              -0.000269513               0.999999986              -0.000718131              -0.000234053               0.999999986              -0.000695467              -0.000193070               0.999999986              -0.000671845              -0.000146705               0.999999986              -0.000794655              -0.000623072               0.999999986              -0.000754794              -0.000506515               0.999999986              -0.000730078              -0.000466067               0.999999986              -0.000716731              -0.000455672               0.999999986              -0.000709941              -0.000457354               0.999999986              -0.000706008              -0.000462667               0.999999986              -0.000702259              -0.000467107               0.999999986              -0.000696747              -0.000468489               0.999999986              -0.000688182              -0.000465449               0.999999986              -0.000675724              -0.000456993               0.999999986              -0.000658969              -0.000442412               0.999999986              -0.000638084              -0.000421551               0.999999986              -0.000613472              -0.000394657               0.999999986              -0.000585864              -0.000362651               0.999999986              -0.000556000              -0.000325992               0.999999986              -0.000524577              -0.000285731               0.999999986              -0.000492420              -0.000242814               0.999999986              -0.000743595              -0.000734636               0.999999986              -0.000675567              -0.000606387               0.999999986              -0.000642117              -0.000565883               0.999999986              -0.000626142              -0.000557953               0.999999986              -0.000618026              -0.000562392               0.999999986              -0.000612028              -0.000569744               0.999999986              -0.000604734              -0.000575402               0.999999986              -0.000593990              -0.000577001               0.999999986              -0.000578600              -0.000573204               0.999999986              -0.000557907              -0.000563025               0.999999986              -0.000532084              -0.000546355               0.999999986              -0.000501597              -0.000523195               0.999999986              -0.000467259              -0.000494839               0.999999986              -0.000429870              -0.000462465               0.999999986              -0.000390372              -0.000426955               0.999999986              -0.000349513              -0.000389397               0.999999986              -0.000308027              -0.000350651               0.999999986              -0.000685796              -0.000839206               0.999999986              -0.000592165              -0.000705554               0.999999986              -0.000553972              -0.000666881               0.999999986              -0.000538267              -0.000661505               0.999999986              -0.000530107              -0.000668311               0.999999986              -0.000522333              -0.000677366               0.999999986              -0.000511301              -0.000683827               0.999999986              -0.000494833              -0.000685348               0.999999986              -0.000471950              -0.000680540               0.999999986              -0.000442501              -0.000668630               0.999999986              -0.000406839              -0.000650115               0.999999986              -0.000365833              -0.000625904               0.999999986              -0.000320639              -0.000597577               0.999999986              -0.000272503              -0.000566505               0.999999986              -0.000222354              -0.000533434               0.999999986              -0.000170969              -0.000499328               0.999999986              -0.000119104              -0.000464644               0.999999986              -0.000623221              -0.000934754               0.999999986              -0.000507528              -0.000803929               0.999999986              -0.000470040              -0.000767444               0.999999986              -0.000456531              -0.000764210               0.999999986              -0.000449000              -0.000772805               0.999999986              -0.000439420              -0.000783176               0.999999986              -0.000424165              -0.000790215               0.999999986              -0.000401327              -0.000791344               0.999999986              -0.000370018              -0.000785257               0.999999986              -0.000330463              -0.000771890               0.999999986              -0.000283534              -0.000752389               0.999999986              -0.000230536              -0.000728289               0.999999986              -0.000173380              -0.000701096               0.999999986              -0.000113439              -0.000672082               0.999999986              -0.000051858              -0.000641971               0.999999986               0.000010434              -0.000611465               0.999999986               0.000072865              -0.000580853               0.999999986              -0.000558456              -0.001025138               0.999999986              -0.000436401              -0.000914455               0.999999986              -0.000396550              -0.000874727               0.999999986              -0.000382826              -0.000867195               0.999999986              -0.000376193              -0.000873157               0.999999986              -0.000368740              -0.000883852               0.999999986              -0.000356867              -0.000894159               0.999999986              -0.000338637              -0.000901078               0.999999986              -0.000312734              -0.000902881               0.999999986              -0.000278911              -0.000898812               0.999999986              -0.000237288              -0.000889328               0.999999986              -0.000188602              -0.000875269               0.999999986              -0.000134238              -0.000857995               0.999999986              -0.000075637              -0.000838370               0.999999986              -0.000014244              -0.000817451               0.999999986               0.000048672              -0.000795720               0.999999986               0.000112052              -0.000773805               0.999999986              -0.000487997              -0.001107432               0.999999986              -0.000367920              -0.001021286               0.999999986              -0.000325890              -0.000984801               0.999999986              -0.000311071              -0.000975337               0.999999986              -0.000304412              -0.000979817               0.999999986              -0.000298202              -0.000990793               0.999999986              -0.000288851              -0.001003918               0.999999986              -0.000274528              -0.001015982               0.999999986              -0.000253626              -0.001024921               0.999999986              -0.000225567              -0.001029639               0.999999986              -0.000189841              -0.001029699               0.999999986              -0.000146384              -0.001025596               0.999999986              -0.000096016              -0.001018005               0.999999986              -0.000039953              -0.001007806               0.999999986               0.000020493              -0.000995673               0.999999986               0.000084012              -0.000982343               0.999999986               0.000149368              -0.000968489               0.999999986              -0.000413316              -0.001179575               0.999999986              -0.000302048              -0.001121099               0.999999986              -0.000259740              -0.001092452               0.999999986              -0.000243530              -0.001084429               0.999999986              -0.000236298              -0.001089137               0.999999986              -0.000230458              -0.001101120               0.999999986              -0.000222846              -0.001116737               0.999999986              -0.000211549              -0.001133323               0.999999986              -0.000195164              -0.001148740               0.999999986              -0.000172626              -0.001161652               0.999999986              -0.000142907              -0.001171202               0.999999986              -0.000105589              -0.001177094               0.999999986              -0.000060738              -0.001179557               0.999999986              -0.000008961              -0.001178971               0.999999986               0.000048895              -0.001175899               0.999999986               0.000112176              -0.001171118               0.999999986               0.000179730              -0.001165233               0.999999986              -0.000335051              -0.001240381               0.999999986              -0.000238658              -0.001209907               0.999999986              -0.000198909              -0.001192173               0.999999986              -0.000182220              -0.001188372               0.999999986              -0.000174345              -0.001195229               0.999999986              -0.000168617              -0.001209205               0.999999986              -0.000162193              -0.001227603               0.999999986              -0.000153287              -0.001248166               0.999999986              -0.000140627              -0.001269353               0.999999986              -0.000123035              -0.001289618               0.999999986              -0.000099435              -0.001308040               0.999999986              -0.000068905              -0.001323852               0.999999986              -0.000031171              -0.001336701               0.999999986               0.000014043              -0.001346575               0.999999986               0.000066972              -0.001353536               0.999999986               0.000127299              -0.001357870               0.999999986               0.000195090              -0.001360378               0.999999986              -0.000253895              -0.001288812               0.999999986              -0.000177339              -0.001283757               0.999999986              -0.000143399              -0.001278218               0.999999986              -0.000127987              -0.001280430               0.999999986              -0.000120223              -0.001290744               0.999999986              -0.000114897              -0.001307526               0.999999986              -0.000109545              -0.001328996               0.999999986              -0.000102716              -0.001353454               0.999999986              -0.000093158              -0.001379595               0.999999986              -0.000080015              -0.001406288               0.999999986              -0.000062278              -0.001432471               0.999999986              -0.000039121              -0.001457248               0.999999986              -0.000009584              -0.001479996               0.999999986               0.000026905              -0.001500330               0.999999986               0.000071165              -0.001517875               0.999999986               0.000124112              -0.001532432               0.999999986               0.000186810              -0.001544261               0.999999986              -0.000170549              -0.001324040               0.999999986              -0.000117499              -0.001339200               0.999999986              -0.000092644              -0.001344761               0.999999986              -0.000080643              -0.001353297               0.999999986              -0.000074255              -0.001367591               0.999999986              -0.000069983              -0.001387459               0.999999986              -0.000066037              -0.001411872               0.999999986              -0.000061233              -0.001439738               0.999999986              -0.000054711              -0.001469977               0.999999986              -0.000045856              -0.001501718               0.999999986              -0.000033869              -0.001534047               0.999999986              -0.000018066              -0.001566222               0.999999986               0.000002300              -0.001597388               0.999999986               0.000027995              -0.001626758               0.999999986               0.000060032              -0.001653912               0.999999986               0.000099671              -0.001678274               0.999999986               0.000148768              -0.001699245               0.999999986              -0.000085665              -0.001345444               0.999999986              -0.000058555              -0.001373579               0.999999986              -0.000045423              -0.001386904               0.999999986              -0.000038776              -0.001400271               0.999999986              -0.000035189              -0.001417798               0.999999986              -0.000032716              -0.001440154               0.999999986              -0.000030596              -0.001466965               0.999999986              -0.000028066              -0.001497332               0.999999986              -0.000024729              -0.001530361               0.999999986              -0.000020237              -0.001565354               0.999999986              -0.000014066              -0.001601586               0.999999986              -0.000005868              -0.001638416               0.999999986               0.000004467              -0.001674940               0.999999986               0.000017575              -0.001710387               0.999999986               0.000034437              -0.001744082               0.999999986               0.000055759              -0.001775241               0.999999986               0.000082667              -0.001802957               0.999999986              -0.000000000              -0.001352564               0.999999986               0.000000000              -0.001385176               0.999999986              -0.000000000              -0.001401364               0.999999986              -0.000000000              -0.001416509               0.999999986               0.000000000              -0.001435281               0.999999986              -0.000000000              -0.001458653               0.999999986              -0.000000000              -0.001486331               0.999999986               0.000000000              -0.001517666               0.999999986              -0.000000000              -0.001551804               0.999999986              -0.000000000              -0.001588033               0.999999986               0.000000000              -0.001625550               0.999999986               0.000000000              -0.001663738               0.999999986               0.000000000              -0.001702005               0.999999986              -0.000000000              -0.001739653               0.999999986               0.000000000              -0.001775664               0.999999986               0.000000000              -0.001809151               0.999999986              -0.000000000              -0.001839328               0.999999986               0.000919083               0.000000000               0.999999986               0.000968513               0.000000000               0.999999986               0.000989457              -0.000000000               0.999999986               0.001001320              -0.000000000               0.999999986               0.001010963               0.000000000               0.999999986               0.001020755              -0.000000000               0.999999986               0.001031287               0.000000000               0.999999986               0.001042330               0.000000000               0.999999986               0.001053847              -0.000000000               0.999999986               0.001065533              -0.000000000               0.999999986               0.001077157               0.000000000               0.999999986               0.001088406              -0.000000000               0.999999986               0.001098774               0.000000000               0.999999986               0.001107794              -0.000000000               0.999999986               0.001115104               0.000000000               0.999999986               0.001120311              -0.000000000               0.999999986               0.001122551              -0.000000000               0.999999986               0.000913896              -0.000129477               0.999999986               0.000959021              -0.000102248               0.999999986               0.000977204              -0.000089803               0.999999986               0.000987242              -0.000084584               0.999999986               0.000995553              -0.000082700               0.999999986               0.001004284              -0.000082197               0.999999986               0.001013833              -0.000082042               0.999999986               0.001024029              -0.000081612               0.999999986               0.001034616              -0.000080756               0.999999986               0.001045266              -0.000079011               0.999999986               0.001055571              -0.000075963               0.999999986               0.001065115              -0.000070993               0.999999986               0.001073477              -0.000063943               0.999999986               0.001080328              -0.000054303               0.999999986               0.001085331              -0.000041549               0.999999986               0.001087959              -0.000024909               0.999999986               0.001087660              -0.000002894               0.999999986               0.000898377              -0.000257740               0.999999986               0.000930931              -0.000204133               0.999999986               0.000941330              -0.000180623               0.999999986               0.000946374              -0.000171234               0.999999986               0.000951212              -0.000168341               0.999999986               0.000957241              -0.000168107               0.999999986               0.000964376              -0.000168305               0.999999986               0.000972094              -0.000167975               0.999999986               0.000979835              -0.000166334               0.999999986               0.000987004              -0.000162933               0.999999986               0.000993135              -0.000156762               0.999999986               0.000997757              -0.000147097               0.999999986               0.001000480              -0.000133345               0.999999986               0.001001033              -0.000115057               0.999999986               0.000999108              -0.000091354               0.999999986               0.000994687              -0.000061123               0.999999986               0.000987789              -0.000022265               0.999999986               0.000872864              -0.000383529               0.999999986               0.000885766              -0.000305451               0.999999986               0.000885011              -0.000273313               0.999999986               0.000883385              -0.000261623               0.999999986               0.000883778              -0.000259102               0.999999986               0.000886275              -0.000260100               0.999999986               0.000889926              -0.000261515               0.999999986               0.000893865              -0.000261578               0.999999986               0.000897145              -0.000259501               0.999999986               0.000898924              -0.000254386               0.999999986               0.000898618              -0.000245236               0.999999986               0.000895764              -0.000231168               0.999999986               0.000890129              -0.000211766               0.999999986               0.000881564              -0.000186531               0.999999986               0.000870264              -0.000155135               0.999999986               0.000856678              -0.000116921               0.999999986               0.000841371              -0.000070620               0.999999986               0.000838044              -0.000505659               0.999999986               0.000826043              -0.000406195               0.999999986               0.000812819              -0.000368438               0.999999986               0.000804610              -0.000356531               0.999999986               0.000800818              -0.000355719               0.999999986               0.000799759              -0.000358710               0.999999986               0.000799637              -0.000361592               0.999999986               0.000799041              -0.000362427               0.999999986               0.000796699              -0.000359874               0.999999986               0.000791807              -0.000353062               0.999999986               0.000783669              -0.000341029               0.999999986               0.000772093              -0.000323219               0.999999986               0.000757037              -0.000299333               0.999999986               0.000738871              -0.000269513               0.999999986               0.000718131              -0.000234053               0.999999986               0.000695467              -0.000193070               0.999999986               0.000671845              -0.000146705               0.999999986               0.000794655              -0.000623072               0.999999986               0.000754794              -0.000506515               0.999999986               0.000730078              -0.000466067               0.999999986               0.000716731              -0.000455672               0.999999986               0.000709941              -0.000457354               0.999999986               0.000706008              -0.000462667               0.999999986               0.000702259              -0.000467107               0.999999986               0.000696747              -0.000468489               0.999999986               0.000688182              -0.000465449               0.999999986               0.000675724              -0.000456993               0.999999986               0.000658969              -0.000442412               0.999999986               0.000638084              -0.000421551               0.999999986               0.000613472              -0.000394657               0.999999986               0.000585864              -0.000362651               0.999999986               0.000556000              -0.000325992               0.999999986               0.000524577              -0.000285731               0.999999986               0.000492420              -0.000242814               0.999999986               0.000743595              -0.000734636               0.999999986               0.000675567              -0.000606387               0.999999986               0.000642117              -0.000565883               0.999999986               0.000626142              -0.000557953               0.999999986               0.000618026              -0.000562392               0.999999986               0.000612028              -0.000569744               0.999999986               0.000604734              -0.000575402               0.999999986               0.000593990              -0.000577001               0.999999986               0.000578600              -0.000573204               0.999999986               0.000557907              -0.000563025               0.999999986               0.000532084              -0.000546355               0.999999986               0.000501597              -0.000523195               0.999999986               0.000467259              -0.000494839               0.999999986               0.000429870              -0.000462465               0.999999986               0.000390372              -0.000426955               0.999999986               0.000349513              -0.000389397               0.999999986               0.000308027              -0.000350651               0.999999986               0.000685796              -0.000839206               0.999999986               0.000592165              -0.000705554               0.999999986               0.000553972              -0.000666881               0.999999986               0.000538267              -0.000661505               0.999999986               0.000530107              -0.000668311               0.999999986               0.000522333              -0.000677366               0.999999986               0.000511301              -0.000683827               0.999999986               0.000494833              -0.000685348               0.999999986               0.000471950              -0.000680540               0.999999986               0.000442501              -0.000668630               0.999999986               0.000406839              -0.000650115               0.999999986               0.000365833              -0.000625904               0.999999986               0.000320639              -0.000597577               0.999999986               0.000272503              -0.000566505               0.999999986               0.000222354              -0.000533434               0.999999986               0.000170969              -0.000499328               0.999999986               0.000119104              -0.000464644               0.999999986               0.000623221              -0.000934754               0.999999986               0.000507528              -0.000803929               0.999999986               0.000470040              -0.000767444               0.999999986               0.000456531              -0.000764210               0.999999986               0.000449000              -0.000772805               0.999999986               0.000439420              -0.000783176               0.999999986               0.000424165              -0.000790215               0.999999986               0.000401327              -0.000791344               0.999999986               0.000370018              -0.000785257               0.999999986               0.000330463              -0.000771890               0.999999986               0.000283534              -0.000752389               0.999999986               0.000230536              -0.000728289               0.999999986               0.000173380              -0.000701096               0.999999986               0.000113439              -0.000672082               0.999999986               0.000051858              -0.000641971               0.999999986              -0.000010434              -0.000611465               0.999999986              -0.000072865              -0.000580853               0.999999986               0.000558456              -0.001025138               0.999999986               0.000436401              -0.000914455               0.999999986               0.000396550              -0.000874727               0.999999986               0.000382826              -0.000867195               0.999999986               0.000376193              -0.000873157               0.999999986               0.000368740              -0.000883852               0.999999986               0.000356867              -0.000894159               0.999999986               0.000338637              -0.000901078               0.999999986               0.000312734              -0.000902881               0.999999986               0.000278911              -0.000898812               0.999999986               0.000237288              -0.000889328               0.999999986               0.000188602              -0.000875269               0.999999986               0.000134238              -0.000857995               0.999999986               0.000075637              -0.000838370               0.999999986               0.000014244              -0.000817451               0.999999986              -0.000048672              -0.000795720               0.999999986              -0.000112052              -0.000773805               0.999999986               0.000487997              -0.001107432               0.999999986               0.000367920              -0.001021286               0.999999986               0.000325890              -0.000984801               0.999999986               0.000311071              -0.000975337               0.999999986               0.000304412              -0.000979817               0.999999986               0.000298202              -0.000990793               0.999999986               0.000288851              -0.001003918               0.999999986               0.000274528              -0.001015982               0.999999986               0.000253626              -0.001024921               0.999999986               0.000225567              -0.001029639               0.999999986               0.000189841              -0.001029699               0.999999986               0.000146384              -0.001025596               0.999999986               0.000096016              -0.001018005               0.999999986               0.000039953              -0.001007806               0.999999986              -0.000020493              -0.000995673               0.999999986              -0.000084012              -0.000982343               0.999999986              -0.000149368              -0.000968489               0.999999986               0.000413316              -0.001179575               0.999999986               0.000302048              -0.001121099               0.999999986               0.000259740              -0.001092452               0.999999986               0.000243530              -0.001084429               0.999999986               0.000236298              -0.001089137               0.999999986               0.000230458              -0.001101120               0.999999986               0.000222846              -0.001116737               0.999999986               0.000211549              -0.001133323               0.999999986               0.000195164              -0.001148740               0.999999986               0.000172626              -0.001161652               0.999999986               0.000142907              -0.001171202               0.999999986               0.000105589              -0.001177094               0.999999986               0.000060738              -0.001179557               0.999999986               0.000008961              -0.001178971               0.999999986              -0.000048895              -0.001175899               0.999999986              -0.000112176              -0.001171118               0.999999986              -0.000179730              -0.001165233               0.999999986               0.000335051              -0.001240381               0.999999986               0.000238658              -0.001209907               0.999999986               0.000198909              -0.001192173               0.999999986               0.000182220              -0.001188372               0.999999986               0.000174345              -0.001195229               0.999999986               0.000168617              -0.001209205               0.999999986               0.000162193              -0.001227603               0.999999986               0.000153287              -0.001248166               0.999999986               0.000140627              -0.001269353               0.999999986               0.000123035              -0.001289618               0.999999986               0.000099435              -0.001308040               0.999999986               0.000068905              -0.001323852               0.999999986               0.000031171              -0.001336701               0.999999986              -0.000014043              -0.001346575               0.999999986              -0.000066972              -0.001353536               0.999999986              -0.000127299              -0.001357870               0.999999986              -0.000195090              -0.001360378               0.999999986               0.000253895              -0.001288812               0.999999986               0.000177339              -0.001283757               0.999999986               0.000143399              -0.001278218               0.999999986               0.000127987              -0.001280430               0.999999986               0.000120223              -0.001290744               0.999999986               0.000114897              -0.001307526               0.999999986               0.000109545              -0.001328996               0.999999986               0.000102716              -0.001353454               0.999999986               0.000093158              -0.001379595               0.999999986               0.000080015              -0.001406288               0.999999986               0.000062278              -0.001432471               0.999999986               0.000039121              -0.001457248               0.999999986               0.000009584              -0.001479996               0.999999986              -0.000026905              -0.001500330               0.999999986              -0.000071165              -0.001517875               0.999999986              -0.000124112              -0.001532432               0.999999986              -0.000186810              -0.001544261               0.999999986               0.000170549              -0.001324040               0.999999986               0.000117499              -0.001339200               0.999999986               0.000092644              -0.001344761               0.999999986               0.000080643              -0.001353297               0.999999986               0.000074255              -0.001367591               0.999999986               0.000069983              -0.001387459               0.999999986               0.000066037              -0.001411872               0.999999986               0.000061233              -0.001439738               0.999999986               0.000054711              -0.001469977               0.999999986               0.000045856              -0.001501718               0.999999986               0.000033869              -0.001534047               0.999999986               0.000018066              -0.001566222               0.999999986              -0.000002300              -0.001597388               0.999999986              -0.000027995              -0.001626758               0.999999986              -0.000060032              -0.001653912               0.999999986              -0.000099671              -0.001678274               0.999999986              -0.000148768              -0.001699245               0.999999986               0.000085665              -0.001345444               0.999999986               0.000058555              -0.001373579               0.999999986               0.000045423              -0.001386904               0.999999986               0.000038776              -0.001400271               0.999999986               0.000035189              -0.001417798               0.999999986               0.000032716              -0.001440154               0.999999986               0.000030596              -0.001466965               0.999999986               0.000028066              -0.001497332               0.999999986               0.000024729              -0.001530361               0.999999986               0.000020237              -0.001565354               0.999999986               0.000014066              -0.001601586               0.999999986               0.000005868              -0.001638416               0.999999986              -0.000004467              -0.001674940               0.999999986              -0.000017575              -0.001710387               0.999999986              -0.000034437              -0.001744082               0.999999986              -0.000055759              -0.001775241               0.999999986              -0.000082667              -0.001802957               0.999999986              -0.000000000              -0.001352564               0.999999986               0.000000000              -0.001385176               0.999999986              -0.000000000              -0.001401364               0.999999986              -0.000000000              -0.001416509               0.999999986               0.000000000              -0.001435281               0.999999986              -0.000000000              -0.001458653               0.999999986              -0.000000000              -0.001486331               0.999999986               0.000000000              -0.001517666               0.999999986              -0.000000000              -0.001551804               0.999999986              -0.000000000              -0.001588033               0.999999986               0.000000000              -0.001625550               0.999999986               0.000000000              -0.001663738               0.999999986               0.000000000              -0.001702005               0.999999986              -0.000000000              -0.001739653               0.999999986               0.000000000              -0.001775664               0.999999986               0.000000000              -0.001809151               0.999999986              -0.000000000              -0.001839328               0.999999986               0.000919083               0.000000000               0.999999986               0.000968513               0.000000000               0.999999986               0.000989457              -0.000000000               0.999999986               0.001001320              -0.000000000               0.999999986               0.001010963               0.000000000               0.999999986               0.001020755              -0.000000000               0.999999986               0.001031287               0.000000000               0.999999986               0.001042330               0.000000000               0.999999986               0.001053847              -0.000000000               0.999999986               0.001065533              -0.000000000               0.999999986               0.001077157               0.000000000               0.999999986               0.001088406              -0.000000000               0.999999986               0.001098774               0.000000000               0.999999986               0.001107794              -0.000000000               0.999999986               0.001115104               0.000000000               0.999999986               0.001120311              -0.000000000               0.999999986               0.001122551              -0.000000000               0.999999986               0.000913896               0.000129477               0.999999986               0.000959021               0.000102248               0.999999986               0.000977204               0.000089803               0.999999986               0.000987242               0.000084584               0.999999986               0.000995553               0.000082700               0.999999986               0.001004284               0.000082197               0.999999986               0.001013833               0.000082042               0.999999986               0.001024029               0.000081612               0.999999986               0.001034616               0.000080756               0.999999986               0.001045266               0.000079011               0.999999986               0.001055571               0.000075963               0.999999986               0.001065115               0.000070993               0.999999986               0.001073477               0.000063943               0.999999986               0.001080328               0.000054303               0.999999986               0.001085331               0.000041549               0.999999986               0.001087959               0.000024909               0.999999986               0.001087660               0.000002894               0.999999986               0.000898377               0.000257740               0.999999986               0.000930931               0.000204133               0.999999986               0.000941330               0.000180623               0.999999986               0.000946374               0.000171234               0.999999986               0.000951212               0.000168341               0.999999986               0.000957241               0.000168107               0.999999986               0.000964376               0.000168305               0.999999986               0.000972094               0.000167975               0.999999986               0.000979835               0.000166334               0.999999986               0.000987004               0.000162933               0.999999986               0.000993135               0.000156762               0.999999986               0.000997757               0.000147097               0.999999986               0.001000480               0.000133345               0.999999986               0.001001033               0.000115057               0.999999986               0.000999108               0.000091354               0.999999986               0.000994687               0.000061123               0.999999986               0.000987789               0.000022265               0.999999986               0.000872864               0.000383529               0.999999986               0.000885766               0.000305451               0.999999986               0.000885011               0.000273313               0.999999986               0.000883385               0.000261623               0.999999986               0.000883778               0.000259102               0.999999986               0.000886275               0.000260100               0.999999986               0.000889926               0.000261515               0.999999986               0.000893865               0.000261578               0.999999986               0.000897145               0.000259501               0.999999986               0.000898924               0.000254386               0.999999986               0.000898618               0.000245236               0.999999986               0.000895764               0.000231168               0.999999986               0.000890129               0.000211766               0.999999986               0.000881564               0.000186531               0.999999986               0.000870264               0.000155135               0.999999986               0.000856678               0.000116921               0.999999986               0.000841371               0.000070620               0.999999986               0.000838044               0.000505659               0.999999986               0.000826043               0.000406195               0.999999986               0.000812819               0.000368438               0.999999986               0.000804610               0.000356531               0.999999986               0.000800818               0.000355719               0.999999986               0.000799759               0.000358710               0.999999986               0.000799637               0.000361592               0.999999986               0.000799041               0.000362427               0.999999986               0.000796699               0.000359874               0.999999986               0.000791807               0.000353062               0.999999986               0.000783669               0.000341029               0.999999986               0.000772093               0.000323219               0.999999986               0.000757037               0.000299333               0.999999986               0.000738871               0.000269513               0.999999986               0.000718131               0.000234053               0.999999986               0.000695467               0.000193070               0.999999986               0.000671845               0.000146705               0.999999986               0.000794655               0.000623072               0.999999986               0.000754794               0.000506515               0.999999986               0.000730078               0.000466067               0.999999986               0.000716731               0.000455672               0.999999986               0.000709941               0.000457354               0.999999986               0.000706008               0.000462667               0.999999986               0.000702259               0.000467107               0.999999986               0.000696747               0.000468489               0.999999986               0.000688182               0.000465449               0.999999986               0.000675724               0.000456993               0.999999986               0.000658969               0.000442412               0.999999986               0.000638084               0.000421551               0.999999986               0.000613472               0.000394657               0.999999986               0.000585864               0.000362651               0.999999986               0.000556000               0.000325992               0.999999986               0.000524577               0.000285731               0.999999986               0.000492420               0.000242814               0.999999986               0.000743595               0.000734636               0.999999986               0.000675567               0.000606387               0.999999986               0.000642117               0.000565883               0.999999986               0.000626142               0.000557953               0.999999986               0.000618026               0.000562392               0.999999986               0.000612028               0.000569744               0.999999986               0.000604734               0.000575402               0.999999986               0.000593990               0.000577001               0.999999986               0.000578600               0.000573204               0.999999986               0.000557907               0.000563025               0.999999986               0.000532084               0.000546355               0.999999986               0.000501597               0.000523195               0.999999986               0.000467259               0.000494839               0.999999986               0.000429870               0.000462465               0.999999986               0.000390372               0.000426955               0.999999986               0.000349513               0.000389397               0.999999986               0.000308027               0.000350651               0.999999986               0.000685796               0.000839206               0.999999986               0.000592165               0.000705554               0.999999986               0.000553972               0.000666881               0.999999986               0.000538267               0.000661505               0.999999986               0.000530107               0.000668311               0.999999986               0.000522333               0.000677366               0.999999986               0.000511301               0.000683827               0.999999986               0.000494833               0.000685348               0.999999986               0.000471950               0.000680540               0.999999986               0.000442501               0.000668630               0.999999986               0.000406839               0.000650115               0.999999986               0.000365833               0.000625904               0.999999986               0.000320639               0.000597577               0.999999986               0.000272503               0.000566505               0.999999986               0.000222354               0.000533434               0.999999986               0.000170969               0.000499328               0.999999986               0.000119104               0.000464644               0.999999986               0.000623221               0.000934754               0.999999986               0.000507528               0.000803929               0.999999986               0.000470040               0.000767444               0.999999986               0.000456531               0.000764210               0.999999986               0.000449000               0.000772805               0.999999986               0.000439420               0.000783176               0.999999986               0.000424165               0.000790215               0.999999986               0.000401327               0.000791344               0.999999986               0.000370018               0.000785257               0.999999986               0.000330463               0.000771890               0.999999986               0.000283534               0.000752389               0.999999986               0.000230536               0.000728289               0.999999986               0.000173380               0.000701096               0.999999986               0.000113439               0.000672082               0.999999986               0.000051858               0.000641971               0.999999986              -0.000010434               0.000611465               0.999999986              -0.000072865               0.000580853               0.999999986               0.000558456               0.001025138               0.999999986               0.000436401               0.000914455               0.999999986               0.000396550               0.000874727               0.999999986               0.000382826               0.000867195               0.999999986               0.000376193               0.000873157               0.999999986               0.000368740               0.000883852               0.999999986               0.000356867               0.000894159               0.999999986               0.000338637               0.000901078               0.999999986               0.000312734               0.000902881               0.999999986               0.000278911               0.000898812               0.999999986               0.000237288               0.000889328               0.999999986               0.000188602               0.000875269               0.999999986               0.000134238               0.000857995               0.999999986               0.000075637               0.000838370               0.999999986               0.000014244               0.000817451               0.999999986              -0.000048672               0.000795720               0.999999986              -0.000112052               0.000773805               0.999999986               0.000487997               0.001107432               0.999999986               0.000367920               0.001021286               0.999999986               0.000325890               0.000984801               0.999999986               0.000311071               0.000975337               0.999999986               0.000304412               0.000979817               0.999999986               0.000298202               0.000990793               0.999999986               0.000288851               0.001003918               0.999999986               0.000274528               0.001015982               0.999999986               0.000253626               0.001024921               0.999999986               0.000225567               0.001029639               0.999999986               0.000189841               0.001029699               0.999999986               0.000146384               0.001025596               0.999999986               0.000096016               0.001018005               0.999999986               0.000039953               0.001007806               0.999999986              -0.000020493               0.000995673               0.999999986              -0.000084012               0.000982343               0.999999986              -0.000149368               0.000968489               0.999999986               0.000413316               0.001179575               0.999999986               0.000302048               0.001121099               0.999999986               0.000259740               0.001092452               0.999999986               0.000243530               0.001084429               0.999999986               0.000236298               0.001089137               0.999999986               0.000230458               0.001101120               0.999999986               0.000222846               0.001116737               0.999999986               0.000211549               0.001133323               0.999999986               0.000195164               0.001148740               0.999999986               0.000172626               0.001161652               0.999999986               0.000142907               0.001171202               0.999999986               0.000105589               0.001177094               0.999999986               0.000060738               0.001179557               0.999999986               0.000008961               0.001178971               0.999999986              -0.000048895               0.001175899               0.999999986              -0.000112176               0.001171118               0.999999986              -0.000179730               0.001165233               0.999999986               0.000335051               0.001240381               0.999999986               0.000238658               0.001209907               0.999999986               0.000198909               0.001192173               0.999999986               0.000182220               0.001188372               0.999999986               0.000174345               0.001195229               0.999999986               0.000168617               0.001209205               0.999999986               0.000162193               0.001227603               0.999999986               0.000153287               0.001248166               0.999999986               0.000140627               0.001269353               0.999999986               0.000123035               0.001289618               0.999999986               0.000099435               0.001308040               0.999999986               0.000068905               0.001323852               0.999999986               0.000031171               0.001336701               0.999999986              -0.000014043               0.001346575               0.999999986              -0.000066972               0.001353536               0.999999986              -0.000127299               0.001357870               0.999999986              -0.000195090               0.001360378               0.999999986               0.000253895               0.001288812               0.999999986               0.000177339               0.001283757               0.999999986               0.000143399               0.001278218               0.999999986               0.000127987               0.001280430               0.999999986               0.000120223               0.001290744               0.999999986               0.000114897               0.001307526               0.999999986               0.000109545               0.001328996               0.999999986               0.000102716               0.001353454               0.999999986               0.000093158               0.001379595               0.999999986               0.000080015               0.001406288               0.999999986               0.000062278               0.001432471               0.999999986               0.000039121               0.001457248               0.999999986               0.000009584               0.001479996               0.999999986              -0.000026905               0.001500330               0.999999986              -0.000071165               0.001517875               0.999999986              -0.000124112               0.001532432               0.999999986              -0.000186810               0.001544261               0.999999986               0.000170549               0.001324040               0.999999986               0.000117499               0.001339200               0.999999986               0.000092644               0.001344761               0.999999986               0.000080643               0.001353297               0.999999986               0.000074255               0.001367591               0.999999986               0.000069983               0.001387459               0.999999986               0.000066037               0.001411872               0.999999986               0.000061233               0.001439738               0.999999986               0.000054711               0.001469977               0.999999986               0.000045856               0.001501718               0.999999986               0.000033869               0.001534047               0.999999986               0.000018066               0.001566222               0.999999986              -0.000002300               0.001597388               0.999999986              -0.000027995               0.001626758               0.999999986              -0.000060032               0.001653912               0.999999986              -0.000099671               0.001678274               0.999999986              -0.000148768               0.001699245               0.999999986               0.000085665               0.001345444               0.999999986               0.000058555               0.001373579               0.999999986               0.000045423               0.001386904               0.999999986               0.000038776               0.001400271               0.999999986               0.000035189               0.001417798               0.999999986               0.000032716               0.001440154               0.999999986               0.000030596               0.001466965               0.999999986               0.000028066               0.001497332               0.999999986               0.000024729               0.001530361               0.999999986               0.000020237               0.001565354               0.999999986               0.000014066               0.001601586               0.999999986               0.000005868               0.001638416               0.999999986              -0.000004467               0.001674940               0.999999986              -0.000017575               0.001710387               0.999999986              -0.000034437               0.001744082               0.999999986              -0.000055759               0.001775241               0.999999986              -0.000082667               0.001802957               0.999999986               0.000000000               0.001352564               0.999999986               0.000000000               0.001385176               0.999999986               0.000000000               0.001401364               0.999999986              -0.000000000               0.001416509               0.999999986               0.000000000               0.001435281               0.999999986               0.000000000               0.001458653               0.999999986               0.000000000               0.001486331               0.999999986               0.000000000               0.001517666               0.999999986              -0.000000000               0.001551804               0.999999986               0.000000000               0.001588033               0.999999986               0.000000000               0.001625550               0.999999986              -0.000000000               0.001663738               0.999999986              -0.000000000               0.001702005               0.999999986               0.000000000               0.001739653               0.999999986               0.000000000               0.001775664               0.999999986               0.000000000               0.001809151               0.999999986              -0.000000000               0.001839328               0.999999986 </DataArray>
<DataArray type="Float64"                                    Name="defo"                                                      NumberOfComponents=" 3" format="ascii">
             -0.000919083               0.000000000               0.999999986              -0.000968513               0.000000000               0.999999986              -0.000989457               0.000000000               0.999999986              -0.001001320               0.000000000               0.999999986              -0.001010963               0.000000000               0.999999986              -0.001020755              -0.000000000               0.999999986              -0.001031287               0.000000000               0.999999986              -0.001042330               0.000000000               0.999999986              -0.001053847               0.000000000               0.999999986              -0.001065533               0.000000000               0.999999986              -0.001077157              -0.000000000               0.999999986              -0.001088406               0.000000000               0.999999986              -0.001098774              -0.000000000               0.999999986              -0.001107794               0.000000000               0.999999986              -0.001115104               0.000000000               0.999999986              -0.001120311               0.000000000               0.999999986              -0.001122551               0.000000000               0.999999986              -0.000913896               0.000129477               0.999999986              -0.000959021               0.000102248               0.999999986              -0.000977204               0.000089803               0.999999986              -0.000987242               0.000084584               0.999999986              -0.000995553               0.000082700               0.999999986              -0.001004284               0.000082197               0.999999986              -0.001013833               0.000082042               0.999999986              -0.001024029               0.000081612               0.999999986              -0.001034616               0.000080756               0.999999986              -0.001045266               0.000079011               0.999999986              -0.001055571               0.000075963               0.999999986              -0.001065115               0.000070993               0.999999986              -0.001073477               0.000063943               0.999999986              -0.001080328               0.000054303               0.999999986              -0.001085331               0.000041549               0.999999986              -0.001087959               0.000024909               0.999999986              -0.001087660               0.000002894               0.999999986              -0.000898377               0.000257740               0.999999986              -0.000930931               0.000204133               0.999999986              -0.000941330               0.000180623               0.999999986              -0.000946374               0.000171234               0.999999986              -0.000951212               0.000168341               0.999999986              -0.000957241               0.000168107               0.999999986              -0.000964376               0.000168305               0.999999986              -0.000972094               0.000167975               0.999999986              -0.000979835               0.000166334               0.999999986              -0.000987004               0.000162933               0.999999986              -0.000993135               0.000156762               0.999999986              -0.000997757               0.000147097               0.999999986              -0.001000480               0.000133345               0.999999986              -0.001001033               0.000115057               0.999999986              -0.000999108               0.000091354               0.999999986              -0.000994687               0.000061123               0.999999986              -0.000987789               0.000022265               0.999999986              -0.000872864               0.000383529               0.999999986              -0.000885766               0.000305451               0.999999986              -0.000885011               0.000273313               0.999999986              -0.000883385               0.000261623               0.999999986              -0.000883778               0.000259102               0.999999986              -0.000886275               0.000260100               0.999999986              -0.000889926               0.000261515               0.999999986              -0.000893865               0.000261578               0.999999986              -0.000897145               0.000259501               0.999999986              -0.000898924               0.000254386               0.999999986              -0.000898618               0.000245236               0.999999986              -0.000895764               0.000231168               0.999999986              -0.000890129               0.000211766               0.999999986              -0.000881564               0.000186531               0.999999986              -0.000870264               0.000155135               0.999999986              -0.000856678               0.000116921               0.999999986              -0.000841371               0.000070620               0.999999986              -0.000838044               0.000505659               0.999999986              -0.000826043               0.000406195               0.999999986              -0.000812819               0.000368438               0.999999986              -0.000804610               0.000356531               0.999999986              -0.000800818               0.000355719               0.999999986              -0.000799759               0.000358710               0.999999986              -0.000799637               0.000361592               0.999999986              -0.000799041               0.000362427               0.999999986              -0.000796699               0.000359874               0.999999986              -0.000791807               0.000353062               0.999999986              -0.000783669               0.000341029               0.999999986              -0.000772093               0.000323219               0.999999986              -0.000757037               0.000299333               0.999999986              -0.000738871               0.000269513               0.999999986              -0.000718131               0.000234053               0.999999986              -0.000695467               0.000193070               0.999999986              -0.000671845               0.000146705               0.999999986              -0.000794655               0.000623072               0.999999986              -0.000754794               0.000506515               0.999999986              -0.000730078               0.000466067               0.999999986              -0.000716731               0.000455672               0.999999986              -0.000709941               0.000457354               0.999999986              -0.000706008               0.000462667               0.999999986              -0.000702259               0.000467107               0.999999986              -0.000696747               0.000468489               0.999999986              -0.000688182               0.000465449               0.999999986              -0.000675724               0.000456993               0.999999986              -0.000658969               0.000442412               0.999999986              -0.000638084               0.000421551               0.999999986              -0.000613472               0.000394657               0.999999986              -0.000585864               0.000362651               0.999999986              -0.000556000               0.000325992               0.999999986              -0.000524577               0.000285731               0.999999986              -0.000492420               0.000242814               0.999999986              -0.000743595               0.000734636               0.999999986              -0.000675567               0.000606387               0.999999986              -0.000642117               0.000565883               0.999999986              -0.000626142               0.000557953               0.999999986              -0.000618026               0.000562392               0.999999986              -0.000612028               0.000569744               0.999999986              -0.000604734               0.000575402               0.999999986              -0.000593990               0.000577001               0.999999986              -0.000578600               0.000573204               0.999999986              -0.000557907               0.000563025               0.999999986              -0.000532084               0.000546355               0.999999986              -0.000501597               0.000523195               0.999999986              -0.000467259               0.000494839               0.999999986              -0.000429870               0.000462465               0.999999986              -0.000390372               0.000426955               0.999999986              -0.000349513               0.000389397               0.999999986              -0.000308027               0.000350651               0.999999986              -0.000685796               0.000839206               0.999999986              -0.000592165               0.000705554               0.999999986              -0.000553972               0.000666881               0.999999986              -0.000538267               0.000661505               0.999999986              -0.000530107               0.000668311               0.999999986              -0.000522333               0.000677366               0.999999986              -0.000511301               0.000683827               0.999999986              -0.000494833               0.000685348               0.999999986              -0.000471950               0.000680540               0.999999986              -0.000442501               0.000668630               0.999999986              -0.000406839               0.000650115               0.999999986              -0.000365833               0.000625904               0.999999986              -0.000320639               0.000597577               0.999999986              -0.000272503               0.000566505               0.999999986              -0.000222354               0.000533434               0.999999986              -0.000170969               0.000499328               0.999999986              -0.000119104               0.000464644               0.999999986              -0.000623221               0.000934754               0.999999986              -0.000507528               0.000803929               0.999999986              -0.000470040               0.000767444               0.999999986              -0.000456531               0.000764210               0.999999986              -0.000449000               0.000772805               0.999999986              -0.000439420               0.000783176               0.999999986              -0.000424165               0.000790215               0.999999986              -0.000401327               0.000791344               0.999999986              -0.000370018               0.000785257               0.999999986              -0.000330463               0.000771890               0.999999986              -0.000283534               0.000752389               0.999999986              -0.000230536               0.000728289               0.999999986              -0.000173380               0.000701096               0.999999986              -0.000113439               0.000672082               0.999999986              -0.000051858               0.000641971               0.999999986               0.000010434               0.000611465               0.999999986               0.000072865               0.000580853               0.999999986              -0.000558456               0.001025138               0.999999986              -0.000436401               0.000914455               0.999999986              -0.000396550               0.000874727               0.999999986              -0.000382826               0.000867195               0.999999986              -0.000376193               0.000873157               0.999999986              -0.000368740               0.000883852               0.999999986              -0.000356867               0.000894159               0.999999986              -0.000338637               0.000901078               0.999999986              -0.000312734               0.000902881               0.999999986              -0.000278911               0.000898812               0.999999986              -0.000237288               0.000889328               0.999999986              -0.000188602               0.000875269               0.999999986              -0.000134238               0.000857995               0.999999986              -0.000075637               0.000838370               0.999999986              -0.000014244               0.000817451               0.999999986               0.000048672               0.000795720               0.999999986               0.000112052               0.000773805               0.999999986              -0.000487997               0.001107432               0.999999986              -0.000367920               0.001021286               0.999999986              -0.000325890               0.000984801               0.999999986              -0.000311071               0.000975337               0.999999986              -0.000304412               0.000979817               0.999999986              -0.000298202               0.000990793               0.999999986              -0.000288851               0.001003918               0.999999986              -0.000274528               0.001015982               0.999999986              -0.000253626               0.001024921               0.999999986              -0.000225567               0.001029639               0.999999986              -0.000189841               0.001029699               0.999999986              -0.000146384               0.001025596               0.999999986              -0.000096016               0.001018005               0.999999986              -0.000039953               0.001007806               0.999999986               0.000020493               0.000995673               0.999999986               0.000084012               0.000982343               0.999999986               0.000149368               0.000968489               0.999999986              -0.000413316               0.001179575               0.999999986              -0.000302048               0.001121099               0.999999986              -0.000259740               0.001092452               0.999999986              -0.000243530               0.001084429               0.999999986              -0.000236298               0.001089137               0.999999986              -0.000230458               0.001101120               0.999999986              -0.000222846               0.001116737               0.999999986              -0.000211549               0.001133323               0.999999986              -0.000195164               0.001148740               0.999999986              -0.000172626               0.001161652               0.999999986              -0.000142907               0.001171202               0.999999986              -0.000105589               0.001177094               0.999999986              -0.000060738               0.001179557               0.999999986              -0.000008961               0.001178971               0.999999986               0.000048895               0.001175899               0.999999986               0.000112176               0.001171118               0.999999986               0.000179730               0.001165233               0.999999986              -0.000335051               0.001240381               0.999999986              -0.000238658               0.001209907               0.999999986              -0.000198909               0.001192173               0.999999986              -0.000182220               0.001188372               0.999999986              -0.000174345               0.001195229               0.999999986              -0.000168617               0.001209205               0.999999986              -0.000162193               0.001227603               0.999999986              -0.000153287               0.001248166               0.999999986              -0.000140627               0.001269353               0.999999986              -0.000123035               0.001289618               0.999999986              -0.000099435               0.001308040               0.999999986              -0.000068905               0.001323852               0.999999986              -0.000031171               0.001336701               0.999999986               0.000014043               0.001346575               0.999999986               0.000066972               0.001353536               0.999999986               0.000127299               0.001357870               0.999999986               0.000195090               0.001360378               0.999999986              -0.000253895               0.001288812               0.999999986              -0.000177339               0.001283757               0.999999986              -0.000143399               0.001278218               0.999999986              -0.000127987               0.001280430               0.999999986              -0.000120223               0.001290744               0.999999986              -0.000114897               0.001307526               0.999999986              -0.000109545               0.001328996               0.999999986              -0.000102716               0.001353454               0.999999986              -0.000093158               0.001379595               0.999999986              -0.000080015               0.001406288               0.999999986              -0.000062278               0.001432471               0.999999986              -0.000039121               0.001457248               0.999999986              -0.000009584               0.001479996               0.999999986               0.000026905               0.001500330               0.999999986               0.000071165               0.001517875               0.999999986               0.000124112               0.001532432               0.999999986               0.000186810               0.001544261               0.999999986              -0.000170549               0.001324040               0.999999986              -0.000117499               0.001339200               0.999999986              -0.000092644               0.001344761               0.999999986              -0.000080643               0.001353297               0.999999986              -0.000074255               0.001367591               0.999999986              -0.000069983               0.001387459               0.999999986              -0.000066037               0.001411872               0.999999986              -0.000061233               0.001439738               0.999999986              -0.000054711               0.001469977               0.999999986              -0.000045856               0.001501718               0.999999986              -0.000033869               0.001534047               0.999999986              -0.000018066               0.001566222               0.999999986               0.000002300               0.001597388               0.999999986               0.000027995               0.001626758               0.999999986               0.000060032               0.001653912               0.999999986               0.000099671               0.001678274               0.999999986               0.000148768               0.001699245               0.999999986              -0.000085665               0.001345444               0.999999986              -0.000058555               0.001373579               0.999999986              -0.000045423               0.001386904               0.999999986              -0.000038776               0.001400271               0.999999986              -0.000035189               0.001417798               0.999999986              -0.000032716               0.001440154               0.999999986              -0.000030596               0.001466965               0.999999986              -0.000028066               0.001497332               0.999999986              -0.000024729               0.001530361               0.999999986              -0.000020237               0.001565354               0.999999986              -0.000014066               0.001601586               0.999999986              -0.000005868               0.001638416               0.999999986               0.000004467               0.001674940               0.999999986               0.000017575               0.001710387               0.999999986               0.000034437               0.001744082               0.999999986               0.000055759               0.001775241               0.999999986               0.000082667               0.001802957               0.999999986               0.000000000               0.001352564               0.999999986               0.000000000               0.001385176               0.999999986               0.000000000               0.001401364               0.999999986              -0.000000000               0.001416509               0.999999986               0.000000000               0.001435281               0.999999986               0.000000000               0.001458653               0.999999986               0.000000000               0.001486331               0.999999986               0.000000000               0.001517666               0.999999986              -0.000000000               0.001551804               0.999999986               0.000000000               0.001588033               0.999999986               0.000000000               0.001625550               0.999999986              -0.000000000               0.001663738               0.999999986              -0.000000000               0.001702005               0.999999986               0.000000000               0.001739653               0.999999986               0.000000000               0.001775664               0.999999986               0.000000000               0.001809151               0.999999986              -0.000000000               0.001839328               0.999999986              -0.000919083               0.000000000               0.999999986              -0.000968513               0.000000000               0.999999986              -0.000989457               0.000000000               0.999999986              -0.001001320               0.000000000               0.999999986              -0.001010963               0.000000000               0.999999986              -0.001020755              -0.000000000               0.999999986              -0.001031287               0.000000000               0.999999986              -0.001042330               0.000000000               0.999999986              -0.001053847               0.000000000               0.999999986              -0.001065533               0.000000000               0.999999986              -0.001077157              -0.000000000               0.999999986              -0.001088406               0.000000000               0.999999986              -0.001098774              -0.000000000               0.999999986              -0.001107794               0.000000000               0.999999986              -0.001115104               0.000000000               0.999999986              -0.001120311               0.000000000               0.999999986              -0.001122551               0.000000000               0.999999986              -0.000913896              -0.000129477               0.999999986              -0.000959021              -0.000102248               0.999999986              -0.000977204              -0.000089803               0.999999986              -0.000987242              -0.000084584               0.999999986              -0.000995553              -0.000082700               0.999999986              -0.001004284              -0.000082197               0.999999986              -0.001013833              -0.000082042               0.999999986              -0.001024029              -0.000081612               0.999999986              -0.001034616              -0.000080756               0.999999986              -0.001045266              -0.000079011               0.999999986              -0.001055571              -0.000075963               0.999999986              -0.001065115              -0.000070993               0.999999986              -0.001073477              -0.000063943               0.999999986              -0.001080328              -0.000054303               0.999999986              -0.001085331              -0.000041549               0.999999986              -0.001087959              -0.000024909               0.999999986              -0.001087660              -0.000002894               0.999999986              -0.000898377              -0.000257740               0.999999986              -0.000930931              -0.000204133               0.999999986              -0.000941330              -0.000180623               0.999999986              -0.000946374              -0.000171234               0.999999986              -0.000951212              -0.000168341               0.999999986              -0.000957241              -0.000168107               0.999999986              -0.000964376              -0.000168305               0.999999986              -0.000972094              -0.000167975               0.999999986              -0.000979835              -0.000166334               0.999999986              -0.000987004              -0.000162933               0.999999986              -0.000993135              -0.000156762               0.999999986              -0.000997757              -0.000147097               0.999999986              -0.001000480              -0.000133345               0.999999986              -0.001001033              -0.000115057               0.999999986              -0.000999108              -0.000091354               0.999999986              -0.000994687              -0.000061123               0.999999986              -0.000987789              -0.000022265               0.999999986              -0.000872864              -0.000383529               0.999999986              -0.000885766              -0.000305451               0.999999986              -0.000885011              -0.000273313               0.999999986              -0.000883385              -0.000261623               0.999999986              -0.000883778              -0.000259102               0.999999986              -0.000886275              -0.000260100               0.999999986              -0.000889926              -0.000261515               0.999999986              -0.000893865              -0.000261578               0.999999986              -0.000897145              -0.000259501               0.999999986              -0.000898924              -0.000254386               0.999999986              -0.000898618              -0.000245236               0.999999986              -0.000895764              -0.000231168               0.999999986              -0.000890129              -0.000211766               0.999999986              -0.000881564              -0.000186531               0.999999986              -0.000870264              -0.000155135               0.999999986              -0.000856678              -0.000116921               0.999999986              -0.000841371              -0.000070620               0.999999986              -0.000838044              -0.000505659               0.999999986              -0.000826043              -0.000406195               0.999999986              -0.000812819              -0.000368438               0.999999986              -0.000804610              -0.000356531               0.999999986              -0.000800818              -0.000355719               0.999999986              -0.000799759              -0.000358710               0.999999986              -0.000799637              -0.000361592               0.999999986              -0.000799041              -0.000362427               0.999999986              -0.000796699              -0.000359874               0.999999986              -0.000791807              -0.000353062               0.999999986              -0.000783669              -0.000341029               0.999999986              -0.000772093              -0.000323219               0.999999986              -0.000757037              -0.000299333               0.999999986              -0.000738871              -0.000269513               0.999999986              -0.000718131              -0.000234053               0.999999986              -0.000695467              -0.000193070               0.999999986              -0.000671845              -0.000146705               0.999999986              -0.000794655              -0.000623072               0.999999986              -0.000754794              -0.000506515               0.999999986              -0.000730078              -0.000466067               0.999999986              -0.000716731              -0.000455672               0.999999986              -0.000709941              -0.000457354               0.999999986              -0.000706008              -0.000462667               0.999999986              -0.000702259              -0.000467107               0.999999986              -0.000696747              -0.000468489               0.999999986              -0.000688182              -0.000465449               0.999999986              -0.000675724              -0.000456993               0.999999986              -0.000658969              -0.000442412               0.999999986              -0.000638084              -0.000421551               0.999999986              -0.000613472              -0.000394657               0.999999986              -0.000585864              -0.000362651               0.999999986              -0.000556000              -0.000325992               0.999999986              -0.000524577              -0.000285731               0.999999986              -0.000492420              -0.000242814               0.999999986              -0.000743595              -0.000734636               0.999999986              -0.000675567              -0.000606387               0.999999986              -0.000642117              -0.000565883               0.999999986              -0.000626142              -0.000557953               0.999999986              -0.000618026              -0.000562392               0.999999986              -0.000612028              -0.000569744               0.999999986              -0.000604734              -0.000575402               0.999999986              -0.000593990              -0.000577001               0.999999986              -0.000578600              -0.000573204               0.999999986              -0.000557907              -0.000563025               0.999999986              -0.000532084              -0.000546355               0.999999986              -0.000501597              -0.000523195               0.999999986              -0.000467259              -0.000494839               0.999999986              -0.000429870              -0.000462465               0.999999986              -0.000390372              -0.000426955               0.999999986              -0.000349513              -0.000389397               0.999999986              -0.000308027              -0.000350651               0.999999986              -0.000685796              -0.000839206               0.999999986              -0.000592165              -0.000705554               0.999999986              -0.000553972              -0.000666881               0.999999986              -0.000538267              -0.000661505               0.999999986              -0.000530107              -0.000668311               0.999999986              -0.000522333              -0.000677366               0.999999986              -0.000511301              -0.000683827               0.999999986              -0.000494833              -0.000685348               0.999999986              -0.000471950              -0.000680540               0.999999986              -0.000442501              -0.000668630               0.999999986              -0.000406839              -0.000650115               0.999999986              -0.000365833              -0.000625904               0.999999986              -0.000320639              -0.000597577               0.999999986              -0.000272503              -0.000566505               0.999999986              -0.000222354              -0.000533434               0.999999986              -0.000170969              -0.000499328               0.999999986              -0.000119104              -0.000464644               0.999999986              -0.000623221              -0.000934754               0.999999986              -0.000507528              -0.000803929               0.999999986              -0.000470040              -0.000767444               0.999999986              -0.000456531              -0.000764210               0.999999986              -0.000449000              -0.000772805               0.999999986              -0.000439420              -0.000783176               0.999999986              -0.000424165              -0.000790215               0.999999986              -0.000401327              -0.000791344               0.999999986              -0.000370018              -0.000785257               0.999999986              -0.000330463              -0.000771890               0.999999986              -0.000283534              -0.000752389               0.999999986              -0.000230536              -0.000728289               0.999999986              -0.000173380              -0.000701096               0.999999986              -0.000113439              -0.000672082               0.999999986              -0.000051858              -0.000641971               0.999999986               0.000010434              -0.000611465               0.999999986               0.000072865              -0.000580853               0.999999986              -0.000558456              -0.001025138               0.999999986              -0.000436401              -0.000914455               0.999999986              -0.000396550              -0.000874727               0.999999986              -0.000382826              -0.000867195               0.999999986              -0.000376193              -0.000873157               0.999999986              -0.000368740              -0.000883852               0.999999986              -0.000356867              -0.000894159               0.999999986              -0.000338637              -0.000901078               0.999999986              -0.000312734              -0.000902881               0.999999986              -0.000278911              -0.000898812               0.999999986              -0.000237288              -0.000889328               0.999999986              -0.000188602              -0.000875269               0.999999986              -0.000134238              -0.000857995               0.999999986              -0.000075637              -0.000838370               0.999999986              -0.000014244              -0.000817451               0.999999986               0.000048672              -0.000795720               0.999999986               0.000112052              -0.000773805               0.999999986              -0.000487997              -0.001107432               0.999999986              -0.000367920              -0.001021286               0.999999986              -0.000325890              -0.000984801               0.999999986              -0.000311071              -0.000975337               0.999999986              -0.000304412              -0.000979817               0.999999986              -0.000298202              -0.000990793               0.999999986              -0.000288851              -0.001003918               0.999999986              -0.000274528              -0.001015982               0.999999986              -0.000253626              -0.001024921               0.999999986              -0.000225567              -0.001029639               0.999999986              -0.000189841              -0.001029699               0.999999986              -0.000146384              -0.001025596               0.999999986              -0.000096016              -0.001018005               0.999999986              -0.000039953              -0.001007806               0.999999986               0.000020493              -0.000995673               0.999999986               0.000084012              -0.000982343               0.999999986               0.000149368              -0.000968489               0.999999986              -0.000413316              -0.001179575               0.999999986              -0.000302048              -0.001121099               0.999999986              -0.000259740              -0.001092452               0.999999986              -0.000243530              -0.001084429               0.999999986              -0.000236298              -0.001089137               0.999999986              -0.000230458              -0.001101120               0.999999986              -0.000222846              -0.001116737               0.999999986              -0.000211549              -0.001133323               0.999999986              -0.000195164              -0.001148740               0.999999986              -0.000172626              -0.001161652               0.999999986              -0.000142907              -0.001171202               0.999999986              -0.000105589              -0.001177094               0.999999986              -0.000060738              -0.001179557               0.999999986              -0.000008961              -0.001178971               0.999999986               0.000048895              -0.001175899               0.999999986               0.000112176              -0.001171118               0.999999986               0.000179730              -0.001165233               0.999999986              -0.000335051              -0.001240381               0.999999986              -0.000238658              -0.001209907               0.999999986              -0.000198909              -0.001192173               0.999999986              -0.000182220              -0.001188372               0.999999986              -0.000174345              -0.001195229               0.999999986              -0.000168617              -0.001209205               0.999999986              -0.000162193              -0.001227603               0.999999986              -0.000153287              -0.001248166               0.999999986              -0.000140627              -0.001269353               0.999999986              -0.000123035              -0.001289618               0.999999986              -0.000099435              -0.001308040               0.999999986              -0.000068905              -0.001323852               0.999999986              -0.000031171              -0.001336701               0.999999986               0.000014043              -0.001346575               0.999999986               0.000066972              -0.001353536               0.999999986               0.000127299              -0.001357870               0.999999986               0.000195090              -0.001360378               0.999999986              -0.000253895              -0.001288812               0.999999986              -0.000177339              -0.001283757               0.999999986              -0.000143399              -0.001278218               0.999999986              -0.000127987              -0.001280430               0.999999986              -0.000120223              -0.001290744               0.999999986              -0.000114897              -0.001307526               0.999999986              -0.000109545              -0.001328996               0.999999986              -0.000102716              -0.001353454               0.999999986              -0.000093158              -0.001379595               0.999999986              -0.000080015              -0.001406288               0.999999986              -0.000062278              -0.001432471               0.999999986              -0.000039121              -0.001457248               0.999999986              -0.000009584              -0.001479996               0.999999986               0.000026905              -0.001500330               0.999999986               0.000071165              -0.001517875               0.999999986               0.000124112              -0.001532432               0.999999986               0.000186810              -0.001544261               0.999999986              -0.000170549              -0.001324040               0.999999986              -0.000117499              -0.001339200               0.999999986              -0.000092644              -0.001344761               0.999999986              -0.000080643              -0.001353297               0.999999986              -0.000074255              -0.001367591               0.999999986              -0.000069983              -0.001387459               0.999999986              -0.000066037              -0.001411872               0.999999986              -0.000061233              -0.001439738               0.999999986              -0.000054711              -0.001469977               0.999999986              -0.000045856              -0.001501718               0.999999986              -0.000033869              -0.001534047               0.999999986              -0.000018066              -0.001566222               0.999999986               0.000002300              -0.001597388               0.999999986               0.000027995              -0.001626758               0.999999986               0.000060032              -0.001653912               0.999999986               0.000099671              -0.001678274               0.999999986               0.000148768              -0.001699245               0.999999986              -0.000085665              -0.001345444               0.999999986              -0.000058555              -0.001373579               0.999999986              -0.000045423              -0.001386904               0.999999986              -0.000038776              -0.001400271               0.999999986              -0.000035189              -0.001417798               0.999999986              -0.000032716              -0.001440154               0.999999986              -0.000030596              -0.001466965               0.999999986              -0.000028066              -0.001497332               0.999999986              -0.000024729              -0.001530361               0.999999986              -0.000020237              -0.001565354               0.999999986              -0.000014066              -0.001601586               0.999999986              -0.000005868              -0.001638416               0.999999986               0.000004467              -0.001674940               0.999999986               0.000017575              -0.001710387               0.999999986               0.000034437              -0.001744082               0.999999986               0.000055759              -0.001775241               0.999999986               0.000082667              -0.001802957               0.999999986              -0.000000000              -0.001352564               0.999999986               0.000000000              -0.001385176               0.999999986              -0.000000000              -0.001401364               0.999999986              -0.000000000              -0.001416509               0.999999986               0.000000000              -0.001435281               0.999999986              -0.000000000              -0.001458653               0.999999986              -0.000000000              -0.001486331               0.999999986               0.000000000              -0.001517666               0.999999986              -0.000000000              -0.001551804               0.999999986              -0.000000000              -0.001588033               0.999999986               0.000000000              -0.001625550               0.999999986               0.000000000              -0.001663738               0.999999986               0.000000000              -0.001702005               0.999999986              -0.000000000              -0.001739653               0.999999986               0.000000000              -0.001775664               0.999999986               0.000000000              -0.001809151               0.999999986              -0.000000000              -0.001839328               0.999999986               0.000919083               0.000000000               0.999999986               0.000968513               0.000000000               0.999999986               0.000989457              -0.000000000               0.999999986               0.001001320              -0.000000000               0.999999986               0.001010963               0.000000000               0.999999986               0.001020755              -0.000000000               0.999999986               0.001031287               0.000000000               0.999999986               0.001042330               0.000000000               0.999999986               0.001053847              -0.000000000               0.999999986               0.001065533              -0.000000000               0.999999986               0.001077157               0.000000000               0.999999986               0.001088406              -0.000000000               0.999999986               0.001098774               0.000000000               0.999999986               0.001107794              -0.000000000               0.999999986               0.001115104               0.000000000               0.999999986               0.001120311              -0.000000000               0.999999986               0.001122551              -0.000000000               0.999999986               0.000913896              -0.000129477               0.999999986               0.000959021              -0.000102248               0.999999986               0.000977204              -0.000089803               0.999999986               0.000987242              -0.000084584               0.999999986               0.000995553              -0.000082700               0.999999986               0.001004284              -0.000082197               0.999999986               0.001013833              -0.000082042               0.999999986               0.001024029              -0.000081612               0.999999986               0.001034616              -0.000080756               0.999999986               0.001045266              -0.000079011               0.999999986               0.001055571              -0.000075963               0.999999986               0.001065115              -0.000070993               0.999999986               0.001073477              -0.000063943               0.999999986               0.001080328              -0.000054303               0.999999986               0.001085331              -0.000041549               0.999999986               0.001087959              -0.000024909               0.999999986               0.001087660              -0.000002894               0.999999986               0.000898377              -0.000257740               0.999999986               0.000930931              -0.000204133               0.999999986               0.000941330              -0.000180623               0.999999986               0.000946374              -0.000171234               0.999999986               0.000951212              -0.000168341               0.999999986               0.000957241              -0.000168107               0.999999986               0.000964376              -0.000168305               0.999999986               0.000972094              -0.000167975               0.999999986               0.000979835              -0.000166334               0.999999986               0.000987004              -0.000162933               0.999999986               0.000993135              -0.000156762               0.999999986               0.000997757              -0.000147097               0.999999986               0.001000480              -0.000133345               0.999999986               0.001001033              -0.000115057               0.999999986               0.000999108              -0.000091354               0.999999986               0.000994687              -0.000061123               0.999999986               0.000987789              -0.000022265               0.999999986               0.000872864              -0.000383529               0.999999986               0.000885766              -0.000305451               0.999999986               0.000885011              -0.000273313               0.999999986               0.000883385              -0.000261623               0.999999986               0.000883778              -0.000259102               0.999999986               0.000886275              -0.000260100               0.999999986               0.000889926              -0.000261515               0.999999986               0.000893865              -0.000261578               0.999999986               0.000897145              -0.000259501               0.999999986               0.000898924              -0.000254386               0.999999986               0.000898618              -0.000245236               0.999999986               0.000895764              -0.000231168               0.999999986               0.000890129              -0.000211766               0.999999986               0.000881564              -0.000186531               0.999999986               0.000870264              -0.000155135               0.999999986               0.000856678              -0.000116921               0.999999986               0.000841371              -0.000070620               0.999999986               0.000838044              -0.000505659               0.999999986               0.000826043              -0.000406195               0.999999986               0.000812819              -0.000368438               0.999999986               0.000804610              -0.000356531               0.999999986               0.000800818              -0.000355719               0.999999986               0.000799759              -0.000358710               0.999999986               0.000799637              -0.000361592               0.999999986               0.000799041              -0.000362427               0.999999986               0.000796699              -0.000359874               0.999999986               0.000791807              -0.000353062               0.999999986               0.000783669              -0.000341029               0.999999986               0.000772093              -0.000323219               0.999999986               0.000757037              -0.000299333               0.999999986               0.000738871              -0.000269513               0.999999986               0.000718131              -0.000234053               0.999999986               0.000695467              -0.000193070               0.999999986               0.000671845              -0.000146705               0.999999986               0.000794655              -0.000623072               0.999999986               0.000754794              -0.000506515               0.999999986               0.000730078              -0.000466067               0.999999986               0.000716731              -0.000455672               0.999999986               0.000709941              -0.000457354               0.999999986               0.000706008              -0.000462667               0.999999986               0.000702259              -0.000467107               0.999999986               0.000696747              -0.000468489               0.999999986               0.000688182              -0.000465449               0.999999986               0.000675724              -0.000456993               0.999999986               0.000658969              -0.000442412               0.999999986               0.000638084              -0.000421551               0.999999986               0.000613472              -0.000394657               0.999999986               0.000585864              -0.000362651               0.999999986               0.000556000              -0.000325992               0.999999986               0.000524577              -0.000285731               0.999999986               0.000492420              -0.000242814               0.999999986               0.000743595              -0.000734636               0.999999986               0.000675567              -0.000606387               0.999999986               0.000642117              -0.000565883               0.999999986               0.000626142              -0.000557953               0.999999986               0.000618026              -0.000562392               0.999999986               0.000612028              -0.000569744               0.999999986               0.000604734              -0.000575402               0.999999986               0.000593990              -0.000577001               0.999999986               0.000578600              -0.000573204               0.999999986               0.000557907              -0.000563025               0.999999986               0.000532084              -0.000546355               0.999999986               0.000501597              -0.000523195               0.999999986               0.000467259              -0.000494839               0.999999986               0.000429870              -0.000462465               0.999999986               0.000390372              -0.000426955               0.999999986               0.000349513              -0.000389397               0.999999986               0.000308027              -0.000350651               0.999999986               0.000685796              -0.000839206               0.999999986               0.000592165              -0.000705554               0.999999986               0.000553972              -0.000666881               0.999999986               0.000538267              -0.000661505               0.999999986               0.000530107              -0.000668311               0.999999986               0.000522333              -0.000677366               0.999999986               0.000511301              -0.000683827               0.999999986               0.000494833              -0.000685348               0.999999986               0.000471950              -0.000680540               0.999999986               0.000442501              -0.000668630               0.999999986               0.000406839              -0.000650115               0.999999986               0.000365833              -0.000625904               0.999999986               0.000320639              -0.000597577               0.999999986               0.000272503              -0.000566505               0.999999986               0.000222354              -0.000533434               0.999999986               0.000170969              -0.000499328               0.999999986               0.000119104              -0.000464644               0.999999986               0.000623221              -0.000934754               0.999999986               0.000507528              -0.000803929               0.999999986               0.000470040              -0.000767444               0.999999986               0.000456531              -0.000764210               0.999999986               0.000449000              -0.000772805               0.999999986               0.000439420              -0.000783176               0.999999986               0.000424165              -0.000790215               0.999999986               0.000401327              -0.000791344               0.999999986               0.000370018              -0.000785257               0.999999986               0.000330463              -0.000771890               0.999999986               0.000283534              -0.000752389               0.999999986               0.000230536              -0.000728289               0.999999986               0.000173380              -0.000701096               0.999999986               0.000113439              -0.000672082               0.999999986               0.000051858              -0.000641971               0.999999986              -0.000010434              -0.000611465               0.999999986              -0.000072865              -0.000580853               0.999999986               0.000558456              -0.001025138               0.999999986               0.000436401              -0.000914455               0.999999986               0.000396550              -0.000874727               0.999999986               0.000382826              -0.000867195               0.999999986               0.000376193              -0.000873157               0.999999986               0.000368740              -0.000883852               0.999999986               0.000356867              -0.000894159               0.999999986               0.000338637              -0.000901078               0.999999986               0.000312734              -0.000902881               0.999999986               0.000278911              -0.000898812               0.999999986               0.000237288              -0.000889328               0.999999986               0.000188602              -0.000875269               0.999999986               0.000134238              -0.000857995               0.999999986               0.000075637              -0.000838370               0.999999986               0.000014244              -0.000817451               0.999999986              -0.000048672              -0.000795720               0.999999986              -0.000112052              -0.000773805               0.999999986               0.000487997              -0.001107432               0.999999986               0.000367920              -0.001021286               0.999999986               0.000325890              -0.000984801               0.999999986               0.000311071              -0.000975337               0.999999986               0.000304412              -0.000979817               0.999999986               0.000298202              -0.000990793               0.999999986               0.000288851              -0.001003918               0.999999986               0.000274528              -0.001015982               0.999999986               0.000253626              -0.001024921               0.999999986               0.000225567              -0.001029639               0.999999986               0.000189841              -0.001029699               0.999999986               0.000146384              -0.001025596               0.999999986               0.000096016              -0.001018005               0.999999986               0.000039953              -0.001007806               0.999999986              -0.000020493              -0.000995673               0.999999986              -0.000084012              -0.000982343               0.999999986              -0.000149368              -0.000968489               0.999999986               0.000413316              -0.001179575               0.999999986               0.000302048              -0.001121099               0.999999986               0.000259740              -0.001092452               0.999999986               0.000243530              -0.001084429               0.999999986               0.000236298              -0.001089137               0.999999986               0.000230458              -0.001101120               0.999999986               0.000222846              -0.001116737               0.999999986               0.000211549              -0.001133323               0.999999986               0.000195164              -0.001148740               0.999999986               0.000172626              -0.001161652               0.999999986               0.000142907              -0.001171202               0.999999986               0.000105589              -0.001177094               0.999999986               0.000060738              -0.001179557               0.999999986               0.000008961              -0.001178971               0.999999986              -0.000048895              -0.001175899               0.999999986              -0.000112176              -0.001171118               0.999999986              -0.000179730              -0.001165233               0.999999986               0.000335051              -0.001240381               0.999999986               0.000238658              -0.001209907               0.999999986               0.000198909              -0.001192173               0.999999986               0.000182220              -0.001188372               0.999999986               0.000174345              -0.001195229               0.999999986               0.000168617              -0.001209205               0.999999986               0.000162193              -0.001227603               0.999999986               0.000153287              -0.001248166               0.999999986               0.000140627              -0.001269353               0.999999986               0.000123035              -0.001289618               0.999999986               0.000099435              -0.001308040               0.999999986               0.000068905              -0.001323852               0.999999986               0.000031171              -0.001336701               0.999999986              -0.000014043              -0.001346575               0.999999986              -0.000066972              -0.001353536               0.999999986              -0.000127299              -0.001357870               0.999999986              -0.000195090              -0.001360378               0.999999986               0.000253895              -0.001288812               0.999999986               0.000177339              -0.001283757               0.999999986               0.000143399              -0.001278218               0.999999986               0.000127987              -0.001280430               0.999999986               0.000120223              -0.001290744               0.999999986               0.000114897              -0.001307526               0.999999986               0.000109545              -0.001328996               0.999999986               0.000102716              -0.001353454               0.999999986               0.000093158              -0.001379595               0.999999986               0.000080015              -0.001406288               0.999999986               0.000062278              -0.001432471               0.999999986               0.000039121              -0.001457248               0.999999986               0.000009584              -0.001479996               0.999999986              -0.000026905              -0.001500330               0.999999986              -0.000071165              -0.001517875               0.999999986              -0.000124112              -0.001532432               0.999999986              -0.000186810              -0.001544261               0.999999986               0.000170549              -0.001324040               0.999999986               0.000117499              -0.001339200               0.999999986               0.000092644              -0.001344761               0.999999986               0.000080643              -0.001353297               0.999999986               0.000074255              -0.001367591               0.999999986               0.000069983              -0.001387459               0.999999986               0.000066037              -0.001411872               0.999999986               0.000061233              -0.001439738               0.999999986               0.000054711              -0.001469977               0.999999986               0.000045856              -0.001501718               0.999999986               0.000033869              -0.001534047               0.999999986               0.000018066              -0.001566222               0.999999986              -0.000002300              -0.001597388               0.999999986              -0.000027995              -0.001626758               0.999999986              -0.000060032              -0.001653912               0.999999986              -0.000099671              -0.001678274               0.999999986              -0.000148768              -0.001699245               0.999999986               0.000085665              -0.001345444               0.999999986               0.000058555              -0.001373579               0.999999986               0.000045423              -0.001386904               0.999999986               0.000038776              -0.001400271               0.999999986               0.000035189              -0.001417798               0.999999986               0.000032716              -0.001440154               0.999999986               0.000030596              -0.001466965               0.999999986               0.000028066              -0.001497332               0.999999986               0.000024729              -0.001530361               0.999999986               0.000020237              -0.001565354               0.999999986               0.000014066              -0.001601586               0.999999986               0.000005868              -0.001638416               0.999999986              -0.000004467              -0.001674940               0.999999986              -0.000017575              -0.001710387               0.999999986              -0.000034437              -0.001744082               0.999999986              -0.000055759              -0.001775241               0.999999986              -0.000082667              -0.001802957               0.999999986              -0.000000000              -0.001352564               0.999999986               0.000000000              -0.001385176               0.999999986              -0.000000000              -0.001401364               0.999999986              -0.000000000              -0.001416509               0.999999986               0.000000000              -0.001435281               0.999999986              -0.000000000              -0.001458653               0.999999986              -0.000000000              -0.001486331               0.999999986               0.000000000              -0.001517666               0.999999986              -0.000000000              -0.001551804               0.999999986              -0.000000000              -0.001588033               0.999999986               0.000000000              -0.001625550               0.999999986               0.000000000              -0.001663738               0.999999986               0.000000000              -0.001702005               0.999999986              -0.000000000              -0.001739653               0.999999986               0.000000000              -0.001775664               0.999999986               0.000000000              -0.001809151               0.999999986              -0.000000000              -0.001839328               0.999999986               0.000919083               0.000000000               0.999999986               0.000968513               0.000000000               0.999999986               0.000989457              -0.000000000               0.999999986               0.001001320              -0.000000000               0.999999986               0.001010963               0.000000000               0.999999986               0.001020755              -0.000000000               0.999999986               0.001031287               0.000000000               0.999999986               0.001042330               0.000000000               0.999999986               0.001053847              -0.000000000               0.999999986               0.001065533              -0.000000000               0.999999986               0.001077157               0.000000000               0.999999986               0.001088406              -0.000000000               0.999999986               0.001098774               0.000000000               0.999999986               0.001107794              -0.000000000               0.999999986               0.001115104               0.000000000               0.999999986               0.001120311              -0.000000000               0.999999986               0.001122551              -0.000000000               0.999999986               0.000913896               0.000129477               0.999999986               0.000959021               0.000102248               0.999999986               0.000977204               0.000089803               0.999999986               0.000987242               0.000084584               0.999999986               0.000995553               0.000082700               0.999999986               0.001004284               0.000082197               0.999999986               0.001013833               0.000082042               0.999999986               0.001024029               0.000081612               0.999999986               0.001034616               0.000080756               0.999999986               0.001045266               0.000079011               0.999999986               0.001055571               0.000075963               0.999999986               0.001065115               0.000070993               0.999999986               0.001073477               0.000063943               0.999999986               0.001080328               0.000054303               0.999999986               0.001085331               0.000041549               0.999999986               0.001087959               0.000024909               0.999999986               0.001087660               0.000002894               0.999999986               0.000898377               0.000257740               0.999999986               0.000930931               0.000204133               0.999999986               0.000941330               0.000180623               0.999999986               0.000946374               0.000171234               0.999999986               0.000951212               0.000168341               0.999999986               0.000957241               0.000168107               0.999999986               0.000964376               0.000168305               0.999999986               0.000972094               0.000167975               0.999999986               0.000979835               0.000166334               0.999999986               0.000987004               0.000162933               0.999999986               0.000993135               0.000156762               0.999999986               0.000997757               0.000147097               0.999999986               0.001000480               0.000133345               0.999999986               0.001001033               0.000115057               0.999999986               0.000999108               0.000091354               0.999999986               0.000994687               0.000061123               0.999999986               0.000987789               0.000022265               0.999999986               0.000872864               0.000383529               0.999999986               0.000885766               0.000305451               0.999999986               0.000885011               0.000273313               0.999999986               0.000883385               0.000261623               0.999999986               0.000883778               0.000259102               0.999999986               0.000886275               0.000260100               0.999999986               0.000889926               0.000261515               0.999999986               0.000893865               0.000261578               0.999999986               0.000897145               0.000259501               0.999999986               0.000898924               0.000254386               0.999999986               0.000898618               0.000245236               0.999999986               0.000895764               0.000231168               0.999999986               0.000890129               0.000211766               0.999999986               0.000881564               0.000186531               0.999999986               0.000870264               0.000155135               0.999999986               0.000856678               0.000116921               0.999999986               0.000841371               0.000070620               0.999999986               0.000838044               0.000505659               0.999999986               0.000826043               0.000406195               0.999999986               0.000812819               0.000368438               0.999999986               0.000804610               0.000356531               0.999999986               0.000800818               0.000355719               0.999999986               0.000799759               0.000358710               0.999999986               0.000799637               0.000361592               0.999999986               0.000799041               0.000362427               0.999999986               0.000796699               0.000359874               0.999999986               0.000791807               0.000353062               0.999999986               0.000783669               0.000341029               0.999999986               0.000772093               0.000323219               0.999999986               0.000757037               0.000299333               0.999999986               0.000738871               0.000269513               0.999999986               0.000718131               0.000234053               0.999999986               0.000695467               0.000193070               0.999999986               0.000671845               0.000146705               0.999999986               0.000794655               0.000623072               0.999999986               0.000754794               0.000506515               0.999999986               0.000730078               0.000466067               0.999999986               0.000716731               0.000455672               0.999999986               0.000709941               0.000457354               0.999999986               0.000706008               0.000462667               0.999999986               0.000702259               0.000467107               0.999999986               0.000696747               0.000468489               0.999999986               0.000688182               0.000465449               0.999999986               0.000675724               0.000456993               0.999999986               0.000658969               0.000442412               0.999999986               0.000638084               0.000421551               0.999999986               0.000613472               0.000394657               0.999999986               0.000585864               0.000362651               0.999999986               0.000556000               0.000325992               0.999999986               0.000524577               0.000285731               0.999999986               0.000492420               0.000242814               0.999999986               0.000743595               0.000734636               0.999999986               0.000675567               0.000606387               0.999999986               0.000642117               0.000565883               0.999999986               0.000626142               0.000557953               0.999999986               0.000618026               0.000562392               0.999999986               0.000612028               0.000569744               0.999999986               0.000604734               0.000575402               0.999999986               0.000593990               0.000577001               0.999999986               0.000578600               0.000573204               0.999999986               0.000557907               0.000563025               0.999999986               0.000532084               0.000546355               0.999999986               0.000501597               0.000523195               0.999999986               0.000467259               0.000494839               0.999999986               0.000429870               0.000462465               0.999999986               0.000390372               0.000426955               0.999999986               0.000349513               0.000389397               0.999999986               0.000308027               0.000350651               0.999999986               0.000685796               0.000839206               0.999999986               0.000592165               0.000705554               0.999999986               0.000553972               0.000666881               0.999999986               0.000538267               0.000661505               0.999999986               0.000530107               0.000668311               0.999999986               0.000522333               0.000677366               0.999999986               0.000511301               0.000683827               0.999999986               0.000494833               0.000685348               0.999999986               0.000471950               0.000680540               0.999999986               0.000442501               0.000668630               0.999999986               0.000406839               0.000650115               0.999999986               0.000365833               0.000625904               0.999999986               0.000320639               0.000597577               0.999999986               0.000272503               0.000566505               0.999999986               0.000222354               0.000533434               0.999999986               0.000170969               0.000499328               0.999999986               0.000119104               0.000464644               0.999999986               0.000623221               0.000934754               0.999999986               0.000507528               0.000803929               0.999999986               0.000470040               0.000767444               0.999999986               0.000456531               0.000764210               0.999999986               0.000449000               0.000772805               0.999999986               0.000439420               0.000783176               0.999999986               0.000424165               0.000790215               0.999999986               0.000401327               0.000791344               0.999999986               0.000370018               0.000785257               0.999999986               0.000330463               0.000771890               0.999999986               0.000283534               0.000752389               0.999999986               0.000230536               0.000728289               0.999999986               0.000173380               0.000701096               0.999999986               0.000113439               0.000672082               0.999999986               0.000051858               0.000641971               0.999999986              -0.000010434               0.000611465               0.999999986              -0.000072865               0.000580853               0.999999986               0.000558456               0.001025138               0.999999986               0.000436401               0.000914455               0.999999986               0.000396550               0.000874727               0.999999986               0.000382826               0.000867195               0.999999986               0.000376193               0.000873157               0.999999986               0.000368740               0.000883852               0.999999986               0.000356867               0.000894159               0.999999986               0.000338637               0.000901078               0.999999986               0.000312734               0.000902881               0.999999986               0.000278911               0.000898812               0.999999986               0.000237288               0.000889328               0.999999986               0.000188602               0.000875269               0.999999986               0.000134238               0.000857995               0.999999986               0.000075637               0.000838370               0.999999986               0.000014244               0.000817451               0.999999986              -0.000048672               0.000795720               0.999999986              -0.000112052               0.000773805               0.999999986               0.000487997               0.001107432               0.999999986               0.000367920               0.001021286               0.999999986               0.000325890               0.000984801               0.999999986               0.000311071               0.000975337               0.999999986               0.000304412               0.000979817               0.999999986               0.000298202               0.000990793               0.999999986               0.000288851               0.001003918               0.999999986               0.000274528               0.001015982               0.999999986               0.000253626               0.001024921               0.999999986               0.000225567               0.001029639               0.999999986               0.000189841               0.001029699               0.999999986               0.000146384               0.001025596               0.999999986               0.000096016               0.001018005               0.999999986               0.000039953               0.001007806               0.999999986              -0.000020493               0.000995673               0.999999986              -0.000084012               0.000982343               0.999999986              -0.000149368               0.000968489               0.999999986               0.000413316               0.001179575               0.999999986               0.000302048               0.001121099               0.999999986               0.000259740               0.001092452               0.999999986               0.000243530               0.001084429               0.999999986               0.000236298               0.001089137               0.999999986               0.000230458               0.001101120               0.999999986               0.000222846               0.001116737               0.999999986               0.000211549               0.001133323               0.999999986               0.000195164               0.001148740               0.999999986               0.000172626               0.001161652               0.999999986               0.000142907               0.001171202               0.999999986               0.000105589               0.001177094               0.999999986               0.000060738               0.001179557               0.999999986               0.000008961               0.001178971               0.999999986              -0.000048895               0.001175899               0.999999986              -0.000112176               0.001171118               0.999999986              -0.000179730               0.001165233               0.999999986               0.000335051               0.001240381               0.999999986               0.000238658               0.001209907               0.999999986               0.000198909               0.001192173               0.999999986               0.000182220               0.001188372               0.999999986               0.000174345               0.001195229               0.999999986               0.000168617               0.001209205               0.999999986               0.000162193               0.001227603               0.999999986               0.000153287               0.001248166               0.999999986               0.000140627               0.001269353               0.999999986               0.000123035               0.001289618               0.999999986               0.000099435               0.001308040               0.999999986               0.000068905               0.001323852               0.999999986               0.000031171               0.001336701               0.999999986              -0.000014043               0.001346575               0.999999986              -0.000066972               0.001353536               0.999999986              -0.000127299               0.001357870               0.999999986              -0.000195090               0.001360378               0.999999986               0.000253895               0.001288812               0.999999986               0.000177339               0.001283757               0.999999986               0.000143399               0.001278218               0.999999986               0.000127987               0.001280430               0.999999986               0.000120223               0.001290744               0.999999986               0.000114897               0.001307526               0.999999986               0.000109545               0.001328996               0.999999986               0.000102716               0.001353454               0.999999986               0.000093158               0.001379595               0.999999986               0.000080015               0.001406288               0.999999986               0.000062278               0.001432471               0.999999986               0.000039121               0.001457248               0.999999986               0.000009584               0.001479996               0.999999986              -0.000026905               0.001500330               0.999999986              -0.000071165               0.001517875               0.999999986              -0.000124112               0.001532432               0.999999986              -0.000186810               0.001544261               0.999999986               0.000170549               0.001324040               0.999999986               0.000117499               0.001339200               0.999999986               0.000092644               0.001344761               0.999999986               0.000080643               0.001353297               0.999999986               0.000074255               0.001367591               0.999999986               0.000069983               0.001387459               0.999999986               0.000066037               0.001411872               0.999999986               0.000061233               0.001439738               0.999999986               0.000054711               0.001469977               0.999999986               0.000045856               0.001501718               0.999999986               0.000033869               0.001534047               0.999999986               0.000018066               0.001566222               0.999999986              -0.000002300               0.001597388               0.999999986              -0.000027995               0.001626758               0.999999986              -0.000060032               0.001653912               0.999999986              -0.000099671               0.001678274               0.999999986              -0.000148768               0.001699245               0.999999986               0.000085665               0.001345444               0.999999986               0.000058555               0.001373579               0.999999986               0.000045423               0.001386904               0.999999986               0.000038776               0.001400271               0.999999986               0.000035189               0.001417798               0.999999986               0.000032716               0.001440154               0.999999986               0.000030596               0.001466965               0.999999986               0.000028066               0.001497332               0.999999986               0.000024729               0.001530361               0.999999986               0.000020237               0.001565354               0.999999986               0.000014066               0.001601586               0.999999986               0.000005868               0.001638416               0.999999986              -0.000004467               0.001674940               0.999999986              -0.000017575               0.001710387               0.999999986              -0.000034437               0.001744082               0.999999986              -0.000055759               0.001775241               0.999999986              -0.000082667               0.001802957               0.999999986               0.000000000               0.001352564               0.999999986               0.000000000               0.001385176               0.999999986               0.000000000               0.001401364               0.999999986              -0.000000000               0.001416509               0.999999986               0.000000000               0.001435281               0.999999986               0.000000000               0.001458653               0.999999986               0.000000000               0.001486331               0.999999986               0.000000000               0.001517666               0.999999986              -0.000000000               0.001551804               0.999999986               0.000000000               0.001588033               0.999999986               0.000000000               0.001625550               0.999999986              -0.000000000               0.001663738               0.999999986              -0.000000000               0.001702005               0.999999986               0.000000000               0.001739653               0.999999986               0.000000000               0.001775664               0.999999986               0.000000000               0.001809151               0.999999986              -0.000000000               0.001839328               0.999999986 </DataArray>
<DataArray type="Float64"                                    Name="stress"                                                      NumberOfComponents="10" format="ascii">
              0.002200184               0.023465659               0.000000000              -0.002108133               0.008524519               0.006416386               0.000000000               0.000000000               0.000000000               0.000000000               0.002072598               0.017947114              -0.000000000              -0.001466161               0.006471032               0.005004871               0.000000000               0.000000000               0.000000000               0.000000000               0.002629722               0.013477391              -0.000000000              -0.000698526               0.004725261               0.004026734               0.000000000               0.000000000               0.000000000               0.000000000               0.002397306               0.010961551              -0.000000000              -0.000471203               0.003810882               0.003339678               0.000000000               0.000000000               0.000000000               0.000000000               0.001962519               0.009351793              -0.000000000              -0.000433029               0.003261576               0.002828547               0.000000000               0.000000000               0.000000000               0.000000000               0.001522279               0.008200018               0.000000000              -0.000454146               0.002884694               0.002430548               0.000000000               0.000000000               0.000000000               0.000000000               0.001149609               0.007301964               0.000000000              -0.000481641               0.002594511               0.002112870               0.000000000               0.000000000               0.000000000               0.000000000               0.000843220               0.006548544               0.000000000              -0.000502359               0.002350279               0.001847920               0.000000000               0.000000000               0.000000000               0.000000000               0.000591402               0.005886017               0.000000000              -0.000513975               0.002133311               0.001619336               0.000000000               0.000000000               0.000000000               0.000000000               0.000389197               0.005269971              -0.000000000              -0.000512796               0.001927572               0.001414775               0.000000000               0.000000000               0.000000000               0.000000000               0.000226117               0.004662970               0.000000000              -0.000498076               0.001720333               0.001222257               0.000000000               0.000000000               0.000000000               0.000000000               0.000103961               0.004037640              -0.000000000              -0.000465718               0.001501106               0.001035388               0.000000000               0.000000000               0.000000000               0.000000000               0.000024067               0.003384778              -0.000000000              -0.000414071               0.001266272               0.000852201               0.000000000               0.000000000               0.000000000               0.000000000              -0.000026968               0.002684448               0.000000000              -0.000345668               0.001010030               0.000664362               0.000000000               0.000000000               0.000000000               0.000000000              -0.000054311               0.001917721               0.000000000              -0.000260081               0.000725928               0.000465846               0.000000000               0.000000000               0.000000000               0.000000000              -0.000041172               0.001063656              -0.000000000              -0.000148396               0.000404014               0.000255617               0.000000000               0.000000000               0.000000000               0.000000000              -0.000090419               0.000413585               0.000000000              -0.000085605               0.000166395               0.000080790               0.000000000               0.000000000               0.000000000               0.000000000               0.002257016               0.022950775              -0.001529478              -0.002022461               0.008324335               0.006301874               0.000000000               0.000000000               0.000000000               0.000000000               0.001999017               0.017623244              -0.000659358              -0.001453271               0.006358780               0.004905509               0.000000000               0.000000000               0.000000000               0.000000000               0.002418943               0.013353723               0.000195958              -0.000762110               0.004705233               0.003943123               0.000000000               0.000000000               0.000000000               0.000000000               0.002136484               0.010937802               0.000539845              -0.000566042               0.003834578               0.003268536               0.000000000               0.000000000               0.000000000               0.000000000               0.001693490               0.009382921               0.000663642              -0.000537805               0.003306877               0.002769072               0.000000000               0.000000000               0.000000000               0.000000000               0.001265650               0.008265054               0.000690997              -0.000558512               0.002941161               0.002382649               0.000000000               0.000000000               0.000000000               0.000000000               0.000909847               0.007384766               0.000677159              -0.000581902               0.002655531               0.002073629               0.000000000               0.000000000               0.000000000               0.000000000               0.000625623               0.006643162               0.000649592              -0.000595785               0.002412960               0.001817175               0.000000000               0.000000000               0.000000000               0.000000000               0.000399742               0.005981692               0.000618561              -0.000597807               0.002193146               0.001595339               0.000000000               0.000000000               0.000000000               0.000000000               0.000226889               0.005365456               0.000581947              -0.000585597               0.001983666               0.001398069               0.000000000               0.000000000               0.000000000               0.000000000               0.000098131               0.004759541               0.000537700              -0.000558142               0.001772545               0.001214403               0.000000000               0.000000000               0.000000000               0.000000000               0.000009446               0.004142706               0.000490707              -0.000514295               0.001552320               0.001038025               0.000000000               0.000000000               0.000000000               0.000000000              -0.000046319               0.003501625               0.000440710              -0.000455072               0.001318887               0.000863815               0.000000000               0.000000000               0.000000000               0.000000000              -0.000076546               0.002826423               0.000378565              -0.000382007               0.001069467               0.000687460               0.000000000               0.000000000               0.000000000               0.000000000              -0.000079950               0.002104720               0.000296428              -0.000293071               0.000799257               0.000506186               0.000000000               0.000000000               0.000000000               0.000000000              -0.000050086               0.001319770               0.000172493              -0.000183753               0.000501170               0.000317417               0.000000000               0.000000000               0.000000000               0.000000000              -0.000088592               0.000733497               0.000108065              -0.000124909               0.000286133               0.000161224               0.000000000               0.000000000               0.000000000               0.000000000               0.002381025               0.021475444              -0.002817070              -0.001791543               0.007755590               0.005964047               0.000000000               0.000000000               0.000000000               0.000000000               0.001768230               0.016705896              -0.001206480              -0.001425148               0.006043626               0.004618478               0.000000000               0.000000000               0.000000000               0.000000000               0.001814898               0.013005640               0.000358638              -0.000945116               0.004650208               0.003705093               0.000000000               0.000000000               0.000000000               0.000000000               0.001407380               0.010869003               0.000963329              -0.000830856               0.003899917               0.003069061               0.000000000               0.000000000               0.000000000               0.000000000               0.000952036               0.009459981               0.001170255              -0.000825483               0.003428456               0.002602974               0.000000000               0.000000000               0.000000000               0.000000000               0.000564190               0.008424267               0.001205703              -0.000841460               0.003088547               0.002247087               0.000000000               0.000000000               0.000000000               0.000000000               0.000269980               0.007591752               0.001172866              -0.000847725               0.002813133               0.001965408               0.000000000               0.000000000               0.000000000               0.000000000               0.000058808               0.006873678               0.001119012              -0.000837155               0.002570255               0.001733100               0.000000000               0.000000000               0.000000000               0.000000000              -0.000082818               0.006222776               0.001061726              -0.000808902               0.002343872               0.001534970               0.000000000               0.000000000               0.000000000               0.000000000              -0.000170394               0.005608552               0.000997828              -0.000764965               0.002124487               0.001359522               0.000000000               0.000000000               0.000000000               0.000000000              -0.000216254               0.005008364               0.000921409              -0.000707139               0.001905151               0.001198012               0.000000000               0.000000000               0.000000000               0.000000000              -0.000226548               0.004412649               0.000837769              -0.000636535               0.001683047               0.001046511               0.000000000               0.000000000               0.000000000               0.000000000              -0.000211256               0.003814632               0.000747649              -0.000556049               0.001456881               0.000900832               0.000000000               0.000000000               0.000000000               0.000000000              -0.000174395               0.003215196               0.000640864              -0.000467297               0.001227487               0.000760190               0.000000000               0.000000000               0.000000000               0.000000000              -0.000123987               0.002617109               0.000499155              -0.000373633               0.000996905               0.000623272               0.000000000               0.000000000               0.000000000               0.000000000              -0.000067354               0.002022393               0.000288888              -0.000278056               0.000766810               0.000488753               0.000000000               0.000000000               0.000000000               0.000000000              -0.000077847               0.001615925               0.000175578              -0.000231183               0.000615697               0.000384515               0.000000000               0.000000000               0.000000000               0.000000000               0.002456277               0.019240901              -0.003689746              -0.001484007               0.006908238               0.005424231               0.000000000               0.000000000               0.000000000               0.000000000               0.001356243               0.015339688              -0.001576776              -0.001408867               0.005582800               0.004173933               0.000000000               0.000000000               0.000000000               0.000000000               0.000889555               0.012487377               0.000444288              -0.001227336               0.004571529               0.003344193               0.000000000               0.000000000               0.000000000               0.000000000               0.000349463               0.010749251               0.001177029              -0.001212605               0.003987249               0.002774644               0.000000000               0.000000000               0.000000000               0.000000000              -0.000081866               0.009536061               0.001408222              -0.001222705               0.003586223               0.002363518               0.000000000               0.000000000               0.000000000               0.000000000              -0.000381056               0.008597565               0.001434363              -0.001217589               0.003271689               0.002054100               0.000000000               0.000000000               0.000000000               0.000000000              -0.000565145               0.007814114               0.001380792              -0.001188691               0.003000909               0.001812218               0.000000000               0.000000000               0.000000000               0.000000000              -0.000659245               0.007121802               0.001305607              -0.001137440               0.002753057               0.001615617               0.000000000               0.000000000               0.000000000               0.000000000              -0.000678827               0.006485123               0.001228900              -0.001065198               0.002516752               0.001451554               0.000000000               0.000000000               0.000000000               0.000000000              -0.000645369               0.005879802               0.001144448              -0.000976987               0.002285576               0.001308590               0.000000000               0.000000000               0.000000000               0.000000000              -0.000575987               0.005298731               0.001046952              -0.000878335               0.002059004               0.001180669               0.000000000               0.000000000               0.000000000               0.000000000              -0.000481924               0.004742909               0.000939858              -0.000773584               0.001838815               0.001065231               0.000000000               0.000000000               0.000000000               0.000000000              -0.000372774               0.004216113               0.000823220              -0.000666803               0.001627625               0.000960822               0.000000000               0.000000000               0.000000000               0.000000000              -0.000259490               0.003727295               0.000689361              -0.000563220               0.001430159               0.000866939               0.000000000               0.000000000               0.000000000               0.000000000              -0.000156973               0.003291617               0.000522809              -0.000470316               0.001253967               0.000783651               0.000000000               0.000000000               0.000000000               0.000000000              -0.000074140               0.002929022               0.000296086              -0.000393929               0.001107641               0.000713711               0.000000000               0.000000000               0.000000000               0.000000000              -0.000051797               0.002730551               0.000171083              -0.000360742               0.001030422               0.000669680               0.000000000               0.000000000               0.000000000               0.000000000               0.002343559               0.016534621              -0.004064924              -0.001187993               0.005907482               0.004719489               0.000000000               0.000000000               0.000000000               0.000000000               0.000748836               0.013715409              -0.001752807              -0.001433610               0.005049627               0.003616017               0.000000000               0.000000000               0.000000000               0.000000000              -0.000244435               0.011859247               0.000420677              -0.001574065               0.004477731               0.002903666               0.000000000               0.000000000               0.000000000               0.000000000              -0.000857325               0.010555081               0.001149369              -0.001640878               0.004065284               0.002424406               0.000000000               0.000000000               0.000000000               0.000000000              -0.001194306               0.009541317               0.001355687              -0.001640526               0.003727249               0.002086723               0.000000000               0.000000000               0.000000000               0.000000000              -0.001348351               0.008694407               0.001359566              -0.001592429               0.003428916               0.001836487               0.000000000               0.000000000               0.000000000               0.000000000              -0.001377088               0.007952986               0.001292114              -0.001510528               0.003154478               0.001643950               0.000000000               0.000000000               0.000000000               0.000000000              -0.001316987               0.007286880               0.001207512              -0.001404727               0.002897178               0.001492451               0.000000000               0.000000000               0.000000000               0.000000000              -0.001195401               0.006668528               0.001120626              -0.001281839               0.002650100               0.001368261               0.000000000               0.000000000               0.000000000               0.000000000              -0.001032657               0.006085501               0.001027417              -0.001147932               0.002411124               0.001263192               0.000000000               0.000000000               0.000000000               0.000000000              -0.000848772               0.005538679               0.000922901              -0.001010622               0.002183082               0.001172460               0.000000000               0.000000000               0.000000000               0.000000000              -0.000659069               0.005038453               0.000807245              -0.000876956               0.001971786               0.001094830               0.000000000               0.000000000               0.000000000               0.000000000              -0.000476050               0.004595680               0.000682895              -0.000752977               0.001782870               0.001029893               0.000000000               0.000000000               0.000000000               0.000000000              -0.000311787               0.004226421               0.000547005              -0.000645222               0.001623867               0.000978645               0.000000000               0.000000000               0.000000000               0.000000000              -0.000173452               0.003939892               0.000392868              -0.000557530               0.001499128               0.000941598               0.000000000               0.000000000               0.000000000               0.000000000              -0.000074479               0.003754171               0.000211308              -0.000497200               0.001417111               0.000919911               0.000000000               0.000000000               0.000000000               0.000000000              -0.000035922               0.003689619               0.000112751              -0.000474672               0.001388085               0.000913413               0.000000000               0.000000000               0.000000000               0.000000000               0.001920986               0.013640871              -0.003955779              -0.000984740               0.004875157               0.003890417               0.000000000               0.000000000               0.000000000               0.000000000              -0.000049613               0.012007129              -0.001764964              -0.001519493               0.004508834               0.002989340               0.000000000               0.000000000               0.000000000               0.000000000              -0.001450661               0.011174445               0.000263496              -0.001940799               0.004371710               0.002430912               0.000000000               0.000000000               0.000000000               0.000000000              -0.002022640               0.010273935               0.000890154              -0.002042727               0.004105520               0.002062793               0.000000000               0.000000000               0.000000000               0.000000000              -0.002189601               0.009433858               0.001048898              -0.002000328               0.003811364               0.001811036               0.000000000               0.000000000               0.000000000               0.000000000              -0.002151553               0.008662629               0.001039056              -0.001889657               0.003517400               0.001627743               0.000000000               0.000000000               0.000000000               0.000000000              -0.001996047               0.007960810               0.000975111              -0.001743615               0.003234782               0.001491167               0.000000000               0.000000000               0.000000000               0.000000000              -0.001771610               0.007318652               0.000900917              -0.001579181               0.002965920               0.001386739               0.000000000               0.000000000               0.000000000               0.000000000              -0.001507578               0.006726241               0.000821795              -0.001406119               0.002710764               0.001304645               0.000000000               0.000000000               0.000000000               0.000000000              -0.001228071               0.006176155               0.000735674              -0.001232543               0.002469545               0.001237002               0.000000000               0.000000000               0.000000000               0.000000000              -0.000954116               0.005677736               0.000638044              -0.001067508               0.002248396               0.001180888               0.000000000               0.000000000               0.000000000               0.000000000              -0.000703535               0.005240226               0.000533870              -0.000918852               0.002053009               0.001134157               0.000000000               0.000000000               0.000000000               0.000000000              -0.000483214               0.004885843               0.000429811              -0.000791934               0.001892576               0.001100642               0.000000000               0.000000000               0.000000000               0.000000000              -0.000302937               0.004621048               0.000322784              -0.000691231               0.001770744               0.001079514               0.000000000               0.000000000               0.000000000               0.000000000              -0.000160351               0.004446144               0.000212958              -0.000615898               0.001687333               0.001071434               0.000000000               0.000000000               0.000000000               0.000000000              -0.000062170               0.004361655               0.000106691              -0.000568519               0.001643377               0.001074858               0.000000000               0.000000000               0.000000000               0.000000000              -0.000023949               0.004348502               0.000053066              -0.000552542               0.001633667               0.001081125               0.000000000               0.000000000               0.000000000               0.000000000               0.001120747               0.010797983              -0.003453625              -0.000929468               0.003909113               0.002979645               0.000000000               0.000000000               0.000000000               0.000000000              -0.000991742               0.010350100              -0.001673204              -0.001665663               0.004005219               0.002339557               0.000000000               0.000000000               0.000000000               0.000000000              -0.002590385               0.010459801              -0.000033876              -0.002278864               0.004246187               0.001967323               0.000000000               0.000000000               0.000000000               0.000000000              -0.002992173               0.009893223               0.000444767              -0.002358712               0.004083945               0.001725233               0.000000000               0.000000000               0.000000000               0.000000000              -0.002931431               0.009192847               0.000569640              -0.002248387               0.003813714               0.001565327               0.000000000               0.000000000               0.000000000               0.000000000              -0.002682158               0.008488654               0.000572901              -0.002066886               0.003518485               0.001451599               0.000000000               0.000000000               0.000000000               0.000000000              -0.002344050               0.007828078               0.000537954              -0.001857524               0.003228508               0.001370984               0.000000000               0.000000000               0.000000000               0.000000000              -0.001967110               0.007219436               0.000492859              -0.001640092               0.002953152               0.001313060               0.000000000               0.000000000               0.000000000               0.000000000              -0.001582430               0.006657701               0.000438450              -0.001425620               0.002694418               0.001268798               0.000000000               0.000000000               0.000000000               0.000000000              -0.001216030               0.006145076               0.000376221              -0.001224143               0.002456386               0.001232243               0.000000000               0.000000000               0.000000000               0.000000000              -0.000889345               0.005699371               0.000305217              -0.001045923               0.002248412               0.001202489               0.000000000               0.000000000               0.000000000               0.000000000              -0.000613382               0.005337027               0.000235626              -0.000897145               0.002078039               0.001180895               0.000000000               0.000000000               0.000000000               0.000000000              -0.000389732               0.005070562               0.000177655              -0.000779968               0.001950160               0.001170192               0.000000000               0.000000000               0.000000000               0.000000000              -0.000219851               0.004891692               0.000122468              -0.000693904               0.001861849               0.001167945               0.000000000               0.000000000               0.000000000               0.000000000              -0.000101086               0.004788308               0.000071975              -0.000636444               0.001808235               0.001171790               0.000000000               0.000000000               0.000000000               0.000000000              -0.000033604               0.004742651               0.000032728              -0.000605431               0.001782678               0.001177247               0.000000000               0.000000000               0.000000000               0.000000000              -0.000016642               0.004731613               0.000016667              -0.000597691               0.001776419               0.001178728               0.000000000               0.000000000               0.000000000               0.000000000              -0.000017860               0.008183486              -0.002680453              -0.001029633               0.003071012               0.002041379               0.000000000               0.000000000               0.000000000               0.000000000              -0.002018433               0.008843447              -0.001536423              -0.001862339               0.003568566               0.001706226               0.000000000               0.000000000               0.000000000               0.000000000              -0.003553832               0.009712505              -0.000451979              -0.002546744               0.004086384               0.001539640               0.000000000               0.000000000               0.000000000               0.000000000              -0.003679824               0.009402945              -0.000105339              -0.002555296               0.003986049               0.001430753               0.000000000               0.000000000               0.000000000               0.000000000              -0.003367505               0.008821934               0.000026875              -0.002365550               0.003729132               0.001363582               0.000000000               0.000000000               0.000000000               0.000000000              -0.002917496               0.008192310               0.000071285              -0.002118095               0.003436774               0.001318680               0.000000000               0.000000000               0.000000000               0.000000000              -0.002422010               0.007585326               0.000081524              -0.001856415               0.003147222               0.001290807               0.000000000               0.000000000               0.000000000               0.000000000              -0.001919930               0.007018380               0.000077129              -0.001597267               0.002871859               0.001274592               0.000000000               0.000000000               0.000000000               0.000000000              -0.001451611               0.006492082               0.000060322              -0.001355861               0.002615959               0.001260098               0.000000000               0.000000000               0.000000000               0.000000000              -0.001034625               0.006028645               0.000038224              -0.001141562               0.002390049               0.001248487               0.000000000               0.000000000               0.000000000               0.000000000              -0.000683572               0.005650988               0.000018277              -0.000962711               0.002204548               0.001241837               0.000000000               0.000000000               0.000000000               0.000000000              -0.000412304               0.005371002               0.000004826              -0.000825987               0.002065645               0.001239658               0.000000000               0.000000000               0.000000000               0.000000000              -0.000221603               0.005175821               0.000002733              -0.000730077               0.001968615               0.001238539               0.000000000               0.000000000               0.000000000               0.000000000              -0.000096933               0.005049059               0.000001192              -0.000667481               0.001905497               0.001238016               0.000000000               0.000000000               0.000000000               0.000000000              -0.000024020               0.004974905               0.000000351              -0.000630869               0.001868575               0.001237706               0.000000000               0.000000000               0.000000000               0.000000000               0.000000411               0.004933694               0.000002934              -0.000616556               0.001850067               0.001233511               0.000000000               0.000000000               0.000000000               0.000000000              -0.000005662               0.004915229               0.000006465              -0.000616525               0.001843902               0.001227376               0.000000000               0.000000000               0.000000000               0.000000000              -0.001347296               0.005998847              -0.001760263              -0.001255090               0.002417958               0.001162869               0.000000000               0.000000000               0.000000000               0.000000000              -0.003021777               0.007504724              -0.001392441              -0.002071252               0.003191967               0.001120715               0.000000000               0.000000000               0.000000000               0.000000000              -0.004311814               0.008955167              -0.000945706              -0.002736320               0.003897132               0.001160813               0.000000000               0.000000000               0.000000000               0.000000000              -0.004148514               0.008911855              -0.000681388              -0.002669668               0.003860478               0.001190810               0.000000000               0.000000000               0.000000000               0.000000000              -0.003629424               0.008477506              -0.000511942              -0.002420716               0.003632713               0.001211996               0.000000000               0.000000000               0.000000000               0.000000000              -0.003022350               0.007946531              -0.000408270              -0.002126692               0.003357715               0.001231022               0.000000000               0.000000000               0.000000000               0.000000000              -0.002408829               0.007410483              -0.000346614              -0.001829617               0.003080008               0.001250392               0.000000000               0.000000000               0.000000000               0.000000000              -0.001817352               0.006893679              -0.000305699              -0.001543213               0.002812274               0.001269061               0.000000000               0.000000000               0.000000000               0.000000000              -0.001284144               0.006408805              -0.000274227              -0.001282651               0.002563797               0.001281146               0.000000000               0.000000000               0.000000000               0.000000000              -0.000827837               0.005992464              -0.000242694              -0.001059494               0.002350633               0.001291138               0.000000000               0.000000000               0.000000000               0.000000000              -0.000460559               0.005668229              -0.000203120              -0.000881236               0.002183136               0.001301900               0.000000000               0.000000000               0.000000000               0.000000000              -0.000200408               0.005431626              -0.000159270              -0.000754104               0.002061892               0.001307788               0.000000000               0.000000000               0.000000000               0.000000000              -0.000043739               0.005265035              -0.000114098              -0.000674530               0.001979838               0.001305308               0.000000000               0.000000000               0.000000000               0.000000000               0.000030769               0.005145469              -0.000070691              -0.000631644               0.001925687               0.001294043               0.000000000               0.000000000               0.000000000               0.000000000               0.000048324               0.005065451              -0.000035507              -0.000615058               0.001893486               0.001278428               0.000000000               0.000000000               0.000000000               0.000000000               0.000029518               0.005012204              -0.000009184              -0.000615455               0.001875869               0.001260415               0.000000000               0.000000000               0.000000000               0.000000000               0.000008017               0.004987349               0.000003509              -0.000620411               0.001869237               0.001248826               0.000000000               0.000000000               0.000000000               0.000000000              -0.002872235               0.004001691              -0.000806555              -0.001577296               0.001859649               0.000282352               0.000000000               0.000000000               0.000000000               0.000000000              -0.003871522               0.005954860              -0.001233827              -0.002196173               0.002716991               0.000520818               0.000000000               0.000000000               0.000000000               0.000000000              -0.004777560               0.007820273              -0.001456418              -0.002769113               0.003529769               0.000760656               0.000000000               0.000000000               0.000000000               0.000000000              -0.004457309               0.008171882              -0.001282984              -0.002692970               0.003621590               0.000928620               0.000000000               0.000000000               0.000000000               0.000000000              -0.003854890               0.008020793              -0.001077900              -0.002448177               0.003489630               0.001041453               0.000000000               0.000000000               0.000000000               0.000000000              -0.003196382               0.007705828              -0.000911209              -0.002161867               0.003289206               0.001127339               0.000000000               0.000000000               0.000000000               0.000000000              -0.002547320               0.007332737              -0.000792676              -0.001871833               0.003068165               0.001196333               0.000000000               0.000000000               0.000000000               0.000000000              -0.001929289               0.006934913              -0.000701098              -0.001590344               0.002841729               0.001251385               0.000000000               0.000000000               0.000000000               0.000000000              -0.001366974               0.006532073              -0.000621087              -0.001329121               0.002620376               0.001291255               0.000000000               0.000000000               0.000000000               0.000000000              -0.000873830               0.006163462              -0.000542372              -0.001098116               0.002420505               0.001322389               0.000000000               0.000000000               0.000000000               0.000000000              -0.000468113               0.005852529              -0.000451629              -0.000907106               0.002253192               0.001346086               0.000000000               0.000000000               0.000000000               0.000000000              -0.000166376               0.005609239              -0.000354717              -0.000763544               0.002124242               0.001360698               0.000000000               0.000000000               0.000000000               0.000000000               0.000023862               0.005419622              -0.000258932              -0.000668503               0.002029357               0.001360854               0.000000000               0.000000000               0.000000000               0.000000000               0.000116050               0.005269434              -0.000169870              -0.000615159               0.001961513               0.001346354               0.000000000               0.000000000               0.000000000               0.000000000               0.000131875               0.005150868              -0.000094307              -0.000594404               0.001915073               0.001320669               0.000000000               0.000000000               0.000000000               0.000000000               0.000094776               0.005059657              -0.000036156              -0.000596915               0.001885507               0.001288592               0.000000000               0.000000000               0.000000000               0.000000000               0.000054338               0.005014207              -0.000006645              -0.000606398               0.001873518               0.001267121               0.000000000               0.000000000               0.000000000               0.000000000              -0.004787997               0.002209297               0.000102331              -0.002071657               0.001426975              -0.000644682               0.000000000               0.000000000               0.000000000               0.000000000              -0.004829305               0.004390241              -0.001012166              -0.002359764               0.002249986              -0.000109778               0.000000000               0.000000000               0.000000000               0.000000000              -0.005163383               0.006470187              -0.001860040              -0.002745036               0.003071719               0.000326683               0.000000000               0.000000000               0.000000000               0.000000000              -0.004708026               0.007195383              -0.001846517              -0.002664926               0.003286745               0.000621819               0.000000000               0.000000000               0.000000000               0.000000000              -0.004055981               0.007369924              -0.001646102              -0.002442228               0.003270692               0.000828464               0.000000000               0.000000000               0.000000000               0.000000000              -0.003381550               0.007311979              -0.001436522              -0.002182073               0.003164660               0.000982586               0.000000000               0.000000000               0.000000000               0.000000000              -0.002725976               0.007138967              -0.001265682              -0.001914608               0.003017834               0.001103227               0.000000000               0.000000000               0.000000000               0.000000000              -0.002100954               0.006891742              -0.001126979              -0.001649322               0.002846998               0.001197677               0.000000000               0.000000000               0.000000000               0.000000000              -0.001512224               0.006606818              -0.001007170              -0.001392933               0.002666561               0.001273628               0.000000000               0.000000000               0.000000000               0.000000000              -0.000976839               0.006313799              -0.000892547              -0.001155537               0.002489758               0.001334221               0.000000000               0.000000000               0.000000000               0.000000000              -0.000512112               0.006039760              -0.000764525              -0.000947010               0.002328903               0.001381893               0.000000000               0.000000000               0.000000000               0.000000000              -0.000134743               0.005803425              -0.000626249              -0.000775955               0.002193107               0.001417152               0.000000000               0.000000000               0.000000000               0.000000000               0.000137310               0.005598275              -0.000486360              -0.000648292               0.002082170               0.001433878               0.000000000               0.000000000               0.000000000               0.000000000               0.000300386               0.005416409              -0.000350808              -0.000564405               0.001993587               0.001429182               0.000000000               0.000000000               0.000000000               0.000000000               0.000358634               0.005252662              -0.000221526              -0.000522094               0.001924901               0.001402807               0.000000000               0.000000000               0.000000000               0.000000000               0.000322611               0.005114052              -0.000103113              -0.000518276               0.001877426               0.001359150               0.000000000               0.000000000               0.000000000               0.000000000               0.000259139               0.005036117              -0.000038711              -0.000532336               0.001856134               0.001323798               0.000000000               0.000000000               0.000000000               0.000000000              -0.006964086               0.000771037               0.000874104              -0.002707909               0.001159641              -0.001548268               0.000000000               0.000000000               0.000000000               0.000000000              -0.005938831               0.002925863              -0.000725132              -0.002592790               0.001839539              -0.000753252               0.000000000               0.000000000               0.000000000               0.000000000              -0.005491831               0.004933714              -0.002051347              -0.002676145               0.002536602              -0.000139543               0.000000000               0.000000000               0.000000000               0.000000000              -0.004814732               0.005915115              -0.002233582              -0.002544908               0.002819987               0.000275079               0.000000000               0.000000000               0.000000000               0.000000000              -0.004093913               0.006386072              -0.002091047              -0.002333471               0.002906492               0.000573021               0.000000000               0.000000000               0.000000000               0.000000000              -0.003400886               0.006588551              -0.001882071              -0.002098896               0.002895793               0.000796897               0.000000000               0.000000000               0.000000000               0.000000000              -0.002745069               0.006633650              -0.001687682              -0.001858603               0.002830729               0.000972126               0.000000000               0.000000000               0.000000000               0.000000000              -0.002124817               0.006570146              -0.001518552              -0.001618071               0.002729383               0.001111312               0.000000000               0.000000000               0.000000000               0.000000000              -0.001531487               0.006438994              -0.001370834              -0.001379179               0.002606036               0.001226857               0.000000000               0.000000000               0.000000000               0.000000000              -0.000975172               0.006265524              -0.001226966              -0.001148878               0.002471446               0.001322569               0.000000000               0.000000000               0.000000000               0.000000000              -0.000466311               0.006073328              -0.001075199              -0.000934031               0.002335766               0.001401735               0.000000000               0.000000000               0.000000000               0.000000000              -0.000019200               0.005880616              -0.000914644              -0.000742275               0.002207611               0.001465335               0.000000000               0.000000000               0.000000000               0.000000000               0.000347570               0.005694215              -0.000748154              -0.000581437               0.002091865               0.001510428               0.000000000               0.000000000               0.000000000               0.000000000               0.000610243               0.005508713              -0.000575171              -0.000459747               0.001989468               0.001529721               0.000000000               0.000000000               0.000000000               0.000000000               0.000753987               0.005328762              -0.000390812              -0.000383349               0.001904019               0.001520670               0.000000000               0.000000000               0.000000000               0.000000000               0.000774685               0.005159970              -0.000197406              -0.000354489               0.001838136               0.001483647               0.000000000               0.000000000               0.000000000               0.000000000               0.000728520               0.005063840              -0.000092445              -0.000359784               0.001807858               0.001448074               0.000000000               0.000000000               0.000000000               0.000000000              -0.009249088              -0.000236499               0.001390787              -0.003438843               0.001067440              -0.002371403               0.000000000               0.000000000               0.000000000               0.000000000              -0.007137444               0.001642110              -0.000427770              -0.002881802               0.001507960              -0.001373842               0.000000000               0.000000000               0.000000000               0.000000000              -0.005797122               0.003345864              -0.002012151              -0.002592149               0.001979324              -0.000612825               0.000000000               0.000000000               0.000000000               0.000000000              -0.004806137               0.004446090              -0.002360443              -0.002358058               0.002268033              -0.000090025               0.000000000               0.000000000               0.000000000               0.000000000              -0.003978585               0.005142912              -0.002302719              -0.002134829               0.002425896               0.000291067               0.000000000               0.000000000               0.000000000               0.000000000              -0.003247678               0.005579531              -0.002132345              -0.001915317               0.002498263               0.000582947               0.000000000               0.000000000               0.000000000               0.000000000              -0.002587004               0.005838314              -0.001949739              -0.001699912               0.002512722               0.000812810               0.000000000               0.000000000               0.000000000               0.000000000              -0.001972861               0.005973292              -0.001777029              -0.001486481               0.002486571               0.001000089               0.000000000               0.000000000               0.000000000               0.000000000              -0.001392416               0.006016951              -0.001617202              -0.001274272               0.002430387               0.001156115               0.000000000               0.000000000               0.000000000               0.000000000              -0.000836091               0.005991412              -0.001462269              -0.001062458               0.002351270               0.001288811               0.000000000               0.000000000               0.000000000               0.000000000              -0.000300334               0.005918286              -0.001303201              -0.000852410               0.002256878               0.001404469               0.000000000               0.000000000               0.000000000               0.000000000               0.000203983               0.005809688              -0.001138278              -0.000649716               0.002153115               0.001503399               0.000000000               0.000000000               0.000000000               0.000000000               0.000658234               0.005680760              -0.000963729              -0.000463257               0.002047986               0.001584730               0.000000000               0.000000000               0.000000000               0.000000000               0.001037939               0.005530822              -0.000768892              -0.000302125               0.001944297               0.001642172               0.000000000               0.000000000               0.000000000               0.000000000               0.001315038               0.005355859              -0.000547667              -0.000176343               0.001844050               0.001667706               0.000000000               0.000000000               0.000000000               0.000000000               0.001472592               0.005176282              -0.000291968              -0.000094813               0.001757015               0.001662201               0.000000000               0.000000000               0.000000000               0.000000000               0.001518208               0.005088166              -0.000153905              -0.000066693               0.001718269               0.001651576               0.000000000               0.000000000               0.000000000               0.000000000              -0.011421925              -0.000842297               0.001553146              -0.004177932               0.001111870              -0.003066062               0.000000000               0.000000000               0.000000000               0.000000000              -0.008313452               0.000612254              -0.000179775              -0.003194073               0.001268767              -0.001925306               0.000000000               0.000000000               0.000000000               0.000000000              -0.006082023               0.001871503              -0.001745275              -0.002514693               0.001462055              -0.001052638               0.000000000               0.000000000               0.000000000               0.000000000              -0.004731669               0.002962404              -0.002178317              -0.002144673               0.001702346              -0.000442326               0.000000000               0.000000000               0.000000000               0.000000000              -0.003761002               0.003800273              -0.002200111              -0.001885406               0.001895213               0.000009806               0.000000000               0.000000000               0.000000000               0.000000000              -0.002974700               0.004421624              -0.002086715              -0.001668212               0.002029930               0.000361718               0.000000000               0.000000000               0.000000000               0.000000000              -0.002297618               0.004869154              -0.001939941              -0.001470248               0.002113117               0.000642869               0.000000000               0.000000000               0.000000000               0.000000000              -0.001687084               0.005184679              -0.001788932              -0.001280739               0.002155121               0.000874382               0.000000000               0.000000000               0.000000000               0.000000000              -0.001115427               0.005399624              -0.001641747              -0.001093236               0.002164268               0.001071032               0.000000000               0.000000000               0.000000000               0.000000000              -0.000562434               0.005531398              -0.001499165              -0.000902336               0.002144559               0.001242223               0.000000000               0.000000000               0.000000000               0.000000000              -0.000018462               0.005591245              -0.001354814              -0.000705828               0.002099005               0.001393178               0.000000000               0.000000000               0.000000000               0.000000000               0.000520302               0.005594134              -0.001203937              -0.000504153               0.002032743               0.001528591               0.000000000               0.000000000               0.000000000               0.000000000               0.001044348               0.005552315              -0.001039994              -0.000302409               0.001951556               0.001649147               0.000000000               0.000000000               0.000000000               0.000000000               0.001540011               0.005468364              -0.000852247              -0.000106042               0.001858117               0.001752075               0.000000000               0.000000000               0.000000000               0.000000000               0.001987767               0.005340454              -0.000626672               0.000077855               0.001754182               0.001832037               0.000000000               0.000000000               0.000000000               0.000000000               0.002362976               0.005182006              -0.000345035               0.000238363               0.001647864               0.001886227               0.000000000               0.000000000               0.000000000               0.000000000               0.002583035               0.005119862              -0.000198274               0.000328652               0.001597053               0.001925705               0.000000000               0.000000000               0.000000000               0.000000000              -0.013235911              -0.001140372               0.001326023              -0.004820917               0.001226840              -0.003594077               0.000000000               0.000000000               0.000000000               0.000000000              -0.009321824              -0.000125619              -0.000027299              -0.003479979               0.001118112              -0.002361866               0.000000000               0.000000000               0.000000000               0.000000000              -0.006323427               0.000675739              -0.001281209              -0.002455750               0.001043822              -0.001411928               0.000000000               0.000000000               0.000000000               0.000000000              -0.004632109               0.001680291              -0.001678857              -0.001947075               0.001209113              -0.000737962               0.000000000               0.000000000               0.000000000               0.000000000              -0.003509590               0.002582497              -0.001744023              -0.001638905               0.001407124              -0.000231782               0.000000000               0.000000000               0.000000000               0.000000000              -0.002664592               0.003323304              -0.001686917              -0.001414632               0.001579300               0.000164668               0.000000000               0.000000000               0.000000000               0.000000000              -0.001966520               0.003911707              -0.001589716              -0.001226406               0.001712691               0.000486285               0.000000000               0.000000000               0.000000000               0.000000000              -0.001354032               0.004368362              -0.001479629              -0.001053805               0.001807374               0.000753569               0.000000000               0.000000000               0.000000000               0.000000000              -0.000783126               0.004721721              -0.001368960              -0.000883886               0.001868519               0.000984634               0.000000000               0.000000000               0.000000000               0.000000000              -0.000229855               0.004987569              -0.001257930              -0.000709641               0.001899053               0.001189412               0.000000000               0.000000000               0.000000000               0.000000000               0.000320888               0.005176779              -0.001144323              -0.000526764               0.001901164               0.001374400               0.000000000               0.000000000               0.000000000               0.000000000               0.000880796               0.005294968              -0.001027739              -0.000331572               0.001875496               0.001543923               0.000000000               0.000000000               0.000000000               0.000000000               0.001460182               0.005342645              -0.000901175              -0.000120263               0.001820951               0.001700689               0.000000000               0.000000000               0.000000000               0.000000000               0.002058177               0.005335953              -0.000750932               0.000104821               0.001743693               0.001848514               0.000000000               0.000000000               0.000000000               0.000000000               0.002667245               0.005278298              -0.000562473               0.000340426               0.001645940               0.001986366               0.000000000               0.000000000               0.000000000               0.000000000               0.003281248               0.005160160              -0.000315321               0.000585442               0.001524889               0.002110331               0.000000000               0.000000000               0.000000000               0.000000000               0.003714627               0.005133294              -0.000190838               0.000751316               0.001460642               0.002211958               0.000000000               0.000000000               0.000000000               0.000000000              -0.014449496              -0.001252946               0.000763281              -0.005261939               0.001336322              -0.003925617               0.000000000               0.000000000               0.000000000               0.000000000              -0.010010717              -0.000563211               0.000021366              -0.003683615               0.001040128              -0.002643487               0.000000000               0.000000000               0.000000000               0.000000000              -0.006493186              -0.000101600              -0.000676436              -0.002422243               0.000773542              -0.001648700               0.000000000               0.000000000               0.000000000               0.000000000              -0.004550394               0.000809687              -0.000915145              -0.001807607               0.000872425              -0.000935182               0.000000000               0.000000000               0.000000000               0.000000000              -0.003310513               0.001725760              -0.000968212              -0.001457160               0.001060966              -0.000396194               0.000000000               0.000000000               0.000000000               0.000000000              -0.002413721               0.002531666              -0.000949172              -0.001221601               0.001251080               0.000029479               0.000000000               0.000000000               0.000000000               0.000000000              -0.001698870               0.003203295              -0.000903620              -0.001037486               0.001413583               0.000376097               0.000000000               0.000000000               0.000000000               0.000000000              -0.001082278               0.003744354              -0.000847398              -0.000873897               0.001539404               0.000665507               0.000000000               0.000000000               0.000000000               0.000000000              -0.000511893               0.004181296              -0.000789633              -0.000714620               0.001631958               0.000917338               0.000000000               0.000000000               0.000000000               0.000000000               0.000042997               0.004532065              -0.000728030              -0.000550383               0.001694134               0.001143751               0.000000000               0.000000000               0.000000000               0.000000000               0.000606017               0.004808607              -0.000661795              -0.000373819               0.001727459               0.001353640               0.000000000               0.000000000               0.000000000               0.000000000               0.001190143               0.005009862              -0.000596939              -0.000179929               0.001729914               0.001549984               0.000000000               0.000000000               0.000000000               0.000000000               0.001805444               0.005132951              -0.000529351               0.000035422               0.001699159               0.001734581               0.000000000               0.000000000               0.000000000               0.000000000               0.002466294               0.005190643              -0.000443826               0.000276027               0.001638188               0.001914215               0.000000000               0.000000000               0.000000000               0.000000000               0.003185891               0.005184855              -0.000332661               0.000546597               0.001546069               0.002092665               0.000000000               0.000000000               0.000000000               0.000000000               0.003979403               0.005110805              -0.000187769               0.000853417               0.001419112               0.002272529               0.000000000               0.000000000               0.000000000               0.000000000               0.004580491               0.005122538              -0.000117883               0.001077356               0.001348377               0.002425733               0.000000000               0.000000000               0.000000000               0.000000000              -0.014876539              -0.001277090               0.000000000              -0.005419063               0.001380648              -0.004038414               0.000000000               0.000000000               0.000000000               0.000000000              -0.010256170              -0.000705208               0.000000000              -0.003757910               0.001017561              -0.002740350               0.000000000               0.000000000               0.000000000               0.000000000              -0.006556254              -0.000370519               0.000000000              -0.002412279               0.000680582              -0.001731697               0.000000000               0.000000000               0.000000000               0.000000000              -0.004519309               0.000500238               0.000000000              -0.001757269               0.000752497              -0.001004771               0.000000000               0.000000000               0.000000000               0.000000000              -0.003235767               0.001417154               0.000000000              -0.001390555               0.000935897              -0.000454658               0.000000000               0.000000000               0.000000000               0.000000000              -0.002316555               0.002241820              -0.000000000              -0.001148933               0.001130243              -0.000018690               0.000000000               0.000000000               0.000000000               0.000000000              -0.001594954               0.002939569               0.000000000              -0.000965552               0.001301697               0.000336145               0.000000000               0.000000000               0.000000000               0.000000000              -0.000975234               0.003511675               0.000000000              -0.000804670               0.001438770               0.000634100               0.000000000               0.000000000               0.000000000               0.000000000              -0.000404699               0.003977432              -0.000000000              -0.000648939               0.001542110               0.000893171               0.000000000               0.000000000               0.000000000               0.000000000               0.000150150               0.004352570               0.000000000              -0.000487764               0.001613430               0.001125666               0.000000000               0.000000000               0.000000000               0.000000000               0.000719393               0.004651883              -0.000000000              -0.000311712               0.001654516               0.001342804               0.000000000               0.000000000               0.000000000               0.000000000               0.001317283               0.004884432              -0.000000000              -0.000116573               0.001666985               0.001550412               0.000000000               0.000000000               0.000000000               0.000000000               0.001945484               0.005045724               0.000000000               0.000098840               0.001648945               0.001747784               0.000000000               0.000000000               0.000000000               0.000000000               0.002622981               0.005129692              -0.000000000               0.000342403               0.001595746               0.001938149               0.000000000               0.000000000               0.000000000               0.000000000               0.003379535               0.005138335              -0.000000000               0.000625028               0.001504419               0.002129446               0.000000000               0.000000000               0.000000000               0.000000000               0.004239887               0.005084095              -0.000000000               0.000954436               0.001376536               0.002330972               0.000000000               0.000000000               0.000000000               0.000000000               0.004902122               0.005114261              -0.000000000               0.001199001               0.001305070               0.002504071               0.000000000               0.000000000               0.000000000               0.000000000               0.000000000               0.000000000               0.000000000               0.000000000               0.000000000               0.000000000               0.000000000               0.000000000               0.000000000               0.000000000               0.000000000               0.000000000               0.000000000               0.000000000               0.000000000               0.000000000               0.000000000               0.000000000               0.000000000               0.000000000               0.000000000               0.000000000               0.000000000               0.000000000               0.000000000               0.000000000               0.000000000               0.000000000               0.000000000               0.000000000               0.000000000               0.000000000               0.000000000               0.000000000               0.000000000               0.000000000               0.000000000               0.000000000               0.000000000               0.000000000               0.000000000               0.000000000               0.000000000               0.000000000               0.000000000               0.000000000               0.000000000               0.000000000               0.000000000               0.000000000               0.000000000               0.000000000               0.000000000               0.000000000               0.000000000               0.000000000               0.000000000               0.000000000               0.000000000               0.000000000               0.000000000               0.000000000               0.000000000               0.000000000               0.000000000               0.000000000               0.000000000               0.000000000               0.000000000               0.000000000               0.000000000               0.000000000               0.000000000               0.000000000               0.000000000               0.000000000               0.000000000               0.000000000               0.000000000               0.000000000               0.000000000               0.000000000               0.000000000               0.000000000               0.000000000               0.000000000               0.000000000               0.000000000               0.000000000               0.000000000               0.000000000               0.000000000               0.000000000               0.000000000               0.000000000               0.000000000               0.000000000               0.000000000               0.000000000               0.000000000               0.000000000               0.000000000               0.000000000               0.000000000               0.000000000               0.000000000               0.000000000               0.000000000               0.000000000               0.000000000               0.000000000               0.000000000               0.000000000               0.000000000               0.000000000               0.000000000               0.000000000               0.000000000               0.000000000               0.000000000               0.000000000               0.000000000               0.000000000               0.000000000               0.000000000               0.000000000               0.000000000               0.000000000               0.000000000               0.000000000               0.000000000               0.000000000               0.000000000               0.000000000               0.000000000               0.000000000               0.000000000               0.000000000               0.000000000               0.000000000               0.000000000               0.000000000               0.000000000               0.000000000               0.000000000               0.000000000               0.000000000               0.000000000               0.000000000               0.000000000               0.000000000               0.000000000               0.000000000               0.000000000               0.000000000               0.000000000               0.000000000               0.000000000               0.000000000               0.000000000               0.000000000               0.000000000               0.000000000               0.000000000               0.000000000               0.000000000               0.000000000               0.000000000               0.000000000               0.000000000               0.002257016               0.022950775               0.001529478              -0.002022461               0.008324335               0.006301874               0.000000000               0.000000000               0.000000000               0.000000000               0.001999017               0.017623244               0.000659358              -0.001453271               0.006358780               0.004905509               0.000000000               0.000000000               0.000000000               0.000000000               0.002418943               0.013353723              -0.000195958              -0.000762110               0.004705233               0.003943123               0.000000000               0.000000000               0.000000000               0.000000000               0.002136484               0.010937802              -0.000539845              -0.000566042               0.003834578               0.003268536               0.000000000               0.000000000               0.000000000               0.000000000               0.001693490               0.009382921              -0.000663642              -0.000537805               0.003306877               0.002769072               0.000000000               0.000000000               0.000000000               0.000000000               0.001265650               0.008265054              -0.000690997              -0.000558512               0.002941161               0.002382649               0.000000000               0.000000000               0.000000000               0.000000000               0.000909847               0.007384766              -0.000677159              -0.000581902               0.002655531               0.002073629               0.000000000               0.000000000               0.000000000               0.000000000               0.000625623               0.006643162              -0.000649592              -0.000595785               0.002412960               0.001817175               0.000000000               0.000000000               0.000000000               0.000000000               0.000399742               0.005981692              -0.000618561              -0.000597807               0.002193146               0.001595339               0.000000000               0.000000000               0.000000000               0.000000000               0.000226889               0.005365456              -0.000581947              -0.000585597               0.001983666               0.001398069               0.000000000               0.000000000               0.000000000               0.000000000               0.000098131               0.004759541              -0.000537700              -0.000558142               0.001772545               0.001214403               0.000000000               0.000000000               0.000000000               0.000000000               0.000009446               0.004142706              -0.000490707              -0.000514295               0.001552320               0.001038025               0.000000000               0.000000000               0.000000000               0.000000000              -0.000046319               0.003501625              -0.000440710              -0.000455072               0.001318887               0.000863815               0.000000000               0.000000000               0.000000000               0.000000000              -0.000076546               0.002826423              -0.000378565              -0.000382007               0.001069467               0.000687460               0.000000000               0.000000000               0.000000000               0.000000000              -0.000079950               0.002104720              -0.000296428              -0.000293071               0.000799257               0.000506186               0.000000000               0.000000000               0.000000000               0.000000000              -0.000050086               0.001319770              -0.000172493              -0.000183753               0.000501170               0.000317417               0.000000000               0.000000000               0.000000000               0.000000000              -0.000088592               0.000733497              -0.000108065              -0.000124909               0.000286133               0.000161224               0.000000000               0.000000000               0.000000000               0.000000000               0.002381025               0.021475444               0.002817070              -0.001791543               0.007755590               0.005964047               0.000000000               0.000000000               0.000000000               0.000000000               0.001768230               0.016705896               0.001206480              -0.001425148               0.006043626               0.004618478               0.000000000               0.000000000               0.000000000               0.000000000               0.001814898               0.013005640              -0.000358638              -0.000945116               0.004650208               0.003705093               0.000000000               0.000000000               0.000000000               0.000000000               0.001407380               0.010869003              -0.000963329              -0.000830856               0.003899917               0.003069061               0.000000000               0.000000000               0.000000000               0.000000000               0.000952036               0.009459981              -0.001170255              -0.000825483               0.003428456               0.002602974               0.000000000               0.000000000               0.000000000               0.000000000               0.000564190               0.008424267              -0.001205703              -0.000841460               0.003088547               0.002247087               0.000000000               0.000000000               0.000000000               0.000000000               0.000269980               0.007591752              -0.001172866              -0.000847725               0.002813133               0.001965408               0.000000000               0.000000000               0.000000000               0.000000000               0.000058808               0.006873678              -0.001119012              -0.000837155               0.002570255               0.001733100               0.000000000               0.000000000               0.000000000               0.000000000              -0.000082818               0.006222776              -0.001061726              -0.000808902               0.002343872               0.001534970               0.000000000               0.000000000               0.000000000               0.000000000              -0.000170394               0.005608552              -0.000997828              -0.000764965               0.002124487               0.001359522               0.000000000               0.000000000               0.000000000               0.000000000              -0.000216254               0.005008364              -0.000921409              -0.000707139               0.001905151               0.001198012               0.000000000               0.000000000               0.000000000               0.000000000              -0.000226548               0.004412649              -0.000837769              -0.000636535               0.001683047               0.001046511               0.000000000               0.000000000               0.000000000               0.000000000              -0.000211256               0.003814632              -0.000747649              -0.000556049               0.001456881               0.000900832               0.000000000               0.000000000               0.000000000               0.000000000              -0.000174395               0.003215196              -0.000640864              -0.000467297               0.001227487               0.000760190               0.000000000               0.000000000               0.000000000               0.000000000              -0.000123987               0.002617109              -0.000499155              -0.000373633               0.000996905               0.000623272               0.000000000               0.000000000               0.000000000               0.000000000              -0.000067354               0.002022393              -0.000288888              -0.000278056               0.000766810               0.000488753               0.000000000               0.000000000               0.000000000               0.000000000              -0.000077847               0.001615925              -0.000175578              -0.000231183               0.000615697               0.000384515               0.000000000               0.000000000               0.000000000               0.000000000               0.002456277               0.019240901               0.003689746              -0.001484007               0.006908238               0.005424231               0.000000000               0.000000000               0.000000000               0.000000000               0.001356243               0.015339688               0.001576776              -0.001408867               0.005582800               0.004173933               0.000000000               0.000000000               0.000000000               0.000000000               0.000889555               0.012487377              -0.000444288              -0.001227336               0.004571529               0.003344193               0.000000000               0.000000000               0.000000000               0.000000000               0.000349463               0.010749251              -0.001177029              -0.001212605               0.003987249               0.002774644               0.000000000               0.000000000               0.000000000               0.000000000              -0.000081866               0.009536061              -0.001408222              -0.001222705               0.003586223               0.002363518               0.000000000               0.000000000               0.000000000               0.000000000              -0.000381056               0.008597565              -0.001434363              -0.001217589               0.003271689               0.002054100               0.000000000               0.000000000               0.000000000               0.000000000              -0.000565145               0.007814114              -0.001380792              -0.001188691               0.003000909               0.001812218               0.000000000               0.000000000               0.000000000               0.000000000              -0.000659245               0.007121802              -0.001305607              -0.001137440               0.002753057               0.001615617               0.000000000               0.000000000               0.000000000               0.000000000              -0.000678827               0.006485123              -0.001228900              -0.001065198               0.002516752               0.001451554               0.000000000               0.000000000               0.000000000               0.000000000              -0.000645369               0.005879802              -0.001144448              -0.000976987               0.002285576               0.001308590               0.000000000               0.000000000               0.000000000               0.000000000              -0.000575987               0.005298731              -0.001046952              -0.000878335               0.002059004               0.001180669               0.000000000               0.000000000               0.000000000               0.000000000              -0.000481924               0.004742909              -0.000939858              -0.000773584               0.001838815               0.001065231               0.000000000               0.000000000               0.000000000               0.000000000              -0.000372774               0.004216113              -0.000823220              -0.000666803               0.001627625               0.000960822               0.000000000               0.000000000               0.000000000               0.000000000              -0.000259490               0.003727295              -0.000689361              -0.000563220               0.001430159               0.000866939               0.000000000               0.000000000               0.000000000               0.000000000              -0.000156973               0.003291617              -0.000522809              -0.000470316               0.001253967               0.000783651               0.000000000               0.000000000               0.000000000               0.000000000              -0.000074140               0.002929022              -0.000296086              -0.000393929               0.001107641               0.000713711               0.000000000               0.000000000               0.000000000               0.000000000              -0.000051797               0.002730551              -0.000171083              -0.000360742               0.001030422               0.000669680               0.000000000               0.000000000               0.000000000               0.000000000               0.002343559               0.016534621               0.004064924              -0.001187993               0.005907482               0.004719489               0.000000000               0.000000000               0.000000000               0.000000000               0.000748836               0.013715409               0.001752807              -0.001433610               0.005049627               0.003616017               0.000000000               0.000000000               0.000000000               0.000000000              -0.000244435               0.011859247              -0.000420677              -0.001574065               0.004477731               0.002903666               0.000000000               0.000000000               0.000000000               0.000000000              -0.000857325               0.010555081              -0.001149369              -0.001640878               0.004065284               0.002424406               0.000000000               0.000000000               0.000000000               0.000000000              -0.001194306               0.009541317              -0.001355687              -0.001640526               0.003727249               0.002086723               0.000000000               0.000000000               0.000000000               0.000000000              -0.001348351               0.008694407              -0.001359566              -0.001592429               0.003428916               0.001836487               0.000000000               0.000000000               0.000000000               0.000000000              -0.001377088               0.007952986              -0.001292114              -0.001510528               0.003154478               0.001643950               0.000000000               0.000000000               0.000000000               0.000000000              -0.001316987               0.007286880              -0.001207512              -0.001404727               0.002897178               0.001492451               0.000000000               0.000000000               0.000000000               0.000000000              -0.001195401               0.006668528              -0.001120626              -0.001281839               0.002650100               0.001368261               0.000000000               0.000000000               0.000000000               0.000000000              -0.001032657               0.006085501              -0.001027417              -0.001147932               0.002411124               0.001263192               0.000000000               0.000000000               0.000000000               0.000000000              -0.000848772               0.005538679              -0.000922901              -0.001010622               0.002183082               0.001172460               0.000000000               0.000000000               0.000000000               0.000000000              -0.000659069               0.005038453              -0.000807245              -0.000876956               0.001971786               0.001094830               0.000000000               0.000000000               0.000000000               0.000000000              -0.000476050               0.004595680              -0.000682895              -0.000752977               0.001782870               0.001029893               0.000000000               0.000000000               0.000000000               0.000000000              -0.000311787               0.004226421              -0.000547005              -0.000645222               0.001623867               0.000978645               0.000000000               0.000000000               0.000000000               0.000000000              -0.000173452               0.003939892              -0.000392868              -0.000557530               0.001499128               0.000941598               0.000000000               0.000000000               0.000000000               0.000000000              -0.000074479               0.003754171              -0.000211308              -0.000497200               0.001417111               0.000919911               0.000000000               0.000000000               0.000000000               0.000000000              -0.000035922               0.003689619              -0.000112751              -0.000474672               0.001388085               0.000913413               0.000000000               0.000000000               0.000000000               0.000000000               0.001920986               0.013640871               0.003955779              -0.000984740               0.004875157               0.003890417               0.000000000               0.000000000               0.000000000               0.000000000              -0.000049613               0.012007129               0.001764964              -0.001519493               0.004508834               0.002989340               0.000000000               0.000000000               0.000000000               0.000000000              -0.001450661               0.011174445              -0.000263496              -0.001940799               0.004371710               0.002430912               0.000000000               0.000000000               0.000000000               0.000000000              -0.002022640               0.010273935              -0.000890154              -0.002042727               0.004105520               0.002062793               0.000000000               0.000000000               0.000000000               0.000000000              -0.002189601               0.009433858              -0.001048898              -0.002000328               0.003811364               0.001811036               0.000000000               0.000000000               0.000000000               0.000000000              -0.002151553               0.008662629              -0.001039056              -0.001889657               0.003517400               0.001627743               0.000000000               0.000000000               0.000000000               0.000000000              -0.001996047               0.007960810              -0.000975111              -0.001743615               0.003234782               0.001491167               0.000000000               0.000000000               0.000000000               0.000000000              -0.001771610               0.007318652              -0.000900917              -0.001579181               0.002965920               0.001386739               0.000000000               0.000000000               0.000000000               0.000000000              -0.001507578               0.006726241              -0.000821795              -0.001406119               0.002710764               0.001304645               0.000000000               0.000000000               0.000000000               0.000000000              -0.001228071               0.006176155              -0.000735674              -0.001232543               0.002469545               0.001237002               0.000000000               0.000000000               0.000000000               0.000000000              -0.000954116               0.005677736              -0.000638044              -0.001067508               0.002248396               0.001180888               0.000000000               0.000000000               0.000000000               0.000000000              -0.000703535               0.005240226              -0.000533870              -0.000918852               0.002053009               0.001134157               0.000000000               0.000000000               0.000000000               0.000000000              -0.000483214               0.004885843              -0.000429811              -0.000791934               0.001892576               0.001100642               0.000000000               0.000000000               0.000000000               0.000000000              -0.000302937               0.004621048              -0.000322784              -0.000691231               0.001770744               0.001079514               0.000000000               0.000000000               0.000000000               0.000000000              -0.000160351               0.004446144              -0.000212958              -0.000615898               0.001687333               0.001071434               0.000000000               0.000000000               0.000000000               0.000000000              -0.000062170               0.004361655              -0.000106691              -0.000568519               0.001643377               0.001074858               0.000000000               0.000000000               0.000000000               0.000000000              -0.000023949               0.004348502              -0.000053066              -0.000552542               0.001633667               0.001081125               0.000000000               0.000000000               0.000000000               0.000000000               0.001120747               0.010797983               0.003453625              -0.000929468               0.003909113               0.002979645               0.000000000               0.000000000               0.000000000               0.000000000              -0.000991742               0.010350100               0.001673204              -0.001665663               0.004005219               0.002339557               0.000000000               0.000000000               0.000000000               0.000000000              -0.002590385               0.010459801               0.000033876              -0.002278864               0.004246187               0.001967323               0.000000000               0.000000000               0.000000000               0.000000000              -0.002992173               0.009893223              -0.000444767              -0.002358712               0.004083945               0.001725233               0.000000000               0.000000000               0.000000000               0.000000000              -0.002931431               0.009192847              -0.000569640              -0.002248387               0.003813714               0.001565327               0.000000000               0.000000000               0.000000000               0.000000000              -0.002682158               0.008488654              -0.000572901              -0.002066886               0.003518485               0.001451599               0.000000000               0.000000000               0.000000000               0.000000000              -0.002344050               0.007828078              -0.000537954              -0.001857524               0.003228508               0.001370984               0.000000000               0.000000000               0.000000000               0.000000000              -0.001967110               0.007219436              -0.000492859              -0.001640092               0.002953152               0.001313060               0.000000000               0.000000000               0.000000000               0.000000000              -0.001582430               0.006657701              -0.000438450              -0.001425620               0.002694418               0.001268798               0.000000000               0.000000000               0.000000000               0.000000000              -0.001216030               0.006145076              -0.000376221              -0.001224143               0.002456386               0.001232243               0.000000000               0.000000000               0.000000000               0.000000000              -0.000889345               0.005699371              -0.000305217              -0.001045923               0.002248412               0.001202489               0.000000000               0.000000000               0.000000000               0.000000000              -0.000613382               0.005337027              -0.000235626              -0.000897145               0.002078039               0.001180895               0.000000000               0.000000000               0.000000000               0.000000000              -0.000389732               0.005070562              -0.000177655              -0.000779968               0.001950160               0.001170192               0.000000000               0.000000000               0.000000000               0.000000000              -0.000219851               0.004891692              -0.000122468              -0.000693904               0.001861849               0.001167945               0.000000000               0.000000000               0.000000000               0.000000000              -0.000101086               0.004788308              -0.000071975              -0.000636444               0.001808235               0.001171790               0.000000000               0.000000000               0.000000000               0.000000000              -0.000033604               0.004742651              -0.000032728              -0.000605431               0.001782678               0.001177247               0.000000000               0.000000000               0.000000000               0.000000000              -0.000016642               0.004731613              -0.000016667              -0.000597691               0.001776419               0.001178728               0.000000000               0.000000000               0.000000000               0.000000000              -0.000017860               0.008183486               0.002680453              -0.001029633               0.003071012               0.002041379               0.000000000               0.000000000               0.000000000               0.000000000              -0.002018433               0.008843447               0.001536423              -0.001862339               0.003568566               0.001706226               0.000000000               0.000000000               0.000000000               0.000000000              -0.003553832               0.009712505               0.000451979              -0.002546744               0.004086384               0.001539640               0.000000000               0.000000000               0.000000000               0.000000000              -0.003679824               0.009402945               0.000105339              -0.002555296               0.003986049               0.001430753               0.000000000               0.000000000               0.000000000               0.000000000              -0.003367505               0.008821934              -0.000026875              -0.002365550               0.003729132               0.001363582               0.000000000               0.000000000               0.000000000               0.000000000              -0.002917496               0.008192310              -0.000071285              -0.002118095               0.003436774               0.001318680               0.000000000               0.000000000               0.000000000               0.000000000              -0.002422010               0.007585326              -0.000081524              -0.001856415               0.003147222               0.001290807               0.000000000               0.000000000               0.000000000               0.000000000              -0.001919930               0.007018380              -0.000077129              -0.001597267               0.002871859               0.001274592               0.000000000               0.000000000               0.000000000               0.000000000              -0.001451611               0.006492082              -0.000060322              -0.001355861               0.002615959               0.001260098               0.000000000               0.000000000               0.000000000               0.000000000              -0.001034625               0.006028645              -0.000038224              -0.001141562               0.002390049               0.001248487               0.000000000               0.000000000               0.000000000               0.000000000              -0.000683572               0.005650988              -0.000018277              -0.000962711               0.002204548               0.001241837               0.000000000               0.000000000               0.000000000               0.000000000              -0.000412304               0.005371002              -0.000004826              -0.000825987               0.002065645               0.001239658               0.000000000               0.000000000               0.000000000               0.000000000              -0.000221603               0.005175821              -0.000002733              -0.000730077               0.001968615               0.001238539               0.000000000               0.000000000               0.000000000               0.000000000              -0.000096933               0.005049059              -0.000001192              -0.000667481               0.001905497               0.001238016               0.000000000               0.000000000               0.000000000               0.000000000              -0.000024020               0.004974905              -0.000000351              -0.000630869               0.001868575               0.001237706               0.000000000               0.000000000               0.000000000               0.000000000               0.000000411               0.004933694              -0.000002934              -0.000616556               0.001850067               0.001233511               0.000000000               0.000000000               0.000000000               0.000000000              -0.000005662               0.004915229              -0.000006465              -0.000616525               0.001843902               0.001227376               0.000000000               0.000000000               0.000000000               0.000000000              -0.001347296               0.005998847               0.001760263              -0.001255090               0.002417958               0.001162869               0.000000000               0.000000000               0.000000000               0.000000000              -0.003021777               0.007504724               0.001392441              -0.002071252               0.003191967               0.001120715               0.000000000               0.000000000               0.000000000               0.000000000              -0.004311814               0.008955167               0.000945706              -0.002736320               0.003897132               0.001160813               0.000000000               0.000000000               0.000000000               0.000000000              -0.004148514               0.008911855               0.000681388              -0.002669668               0.003860478               0.001190810               0.000000000               0.000000000               0.000000000               0.000000000              -0.003629424               0.008477506               0.000511942              -0.002420716               0.003632713               0.001211996               0.000000000               0.000000000               0.000000000               0.000000000              -0.003022350               0.007946531               0.000408270              -0.002126692               0.003357715               0.001231022               0.000000000               0.000000000               0.000000000               0.000000000              -0.002408829               0.007410483               0.000346614              -0.001829617               0.003080008               0.001250392               0.000000000               0.000000000               0.000000000               0.000000000              -0.001817352               0.006893679               0.000305699              -0.001543213               0.002812274               0.001269061               0.000000000               0.000000000               0.000000000               0.000000000              -0.001284144               0.006408805               0.000274227              -0.001282651               0.002563797               0.001281146               0.000000000               0.000000000               0.000000000               0.000000000              -0.000827837               0.005992464               0.000242694              -0.001059494               0.002350633               0.001291138               0.000000000               0.000000000               0.000000000               0.000000000              -0.000460559               0.005668229               0.000203120              -0.000881236               0.002183136               0.001301900               0.000000000               0.000000000               0.000000000               0.000000000              -0.000200408               0.005431626               0.000159270              -0.000754104               0.002061892               0.001307788               0.000000000               0.000000000               0.000000000               0.000000000              -0.000043739               0.005265035               0.000114098              -0.000674530               0.001979838               0.001305308               0.000000000               0.000000000               0.000000000               0.000000000               0.000030769               0.005145469               0.000070691              -0.000631644               0.001925687               0.001294043               0.000000000               0.000000000               0.000000000               0.000000000               0.000048324               0.005065451               0.000035507              -0.000615058               0.001893486               0.001278428               0.000000000               0.000000000               0.000000000               0.000000000               0.000029518               0.005012204               0.000009184              -0.000615455               0.001875869               0.001260415               0.000000000               0.000000000               0.000000000               0.000000000               0.000008017               0.004987349              -0.000003509              -0.000620411               0.001869237               0.001248826               0.000000000               0.000000000               0.000000000               0.000000000              -0.002872235               0.004001691               0.000806555              -0.001577296               0.001859649               0.000282352               0.000000000               0.000000000               0.000000000               0.000000000              -0.003871522               0.005954860               0.001233827              -0.002196173               0.002716991               0.000520818               0.000000000               0.000000000               0.000000000               0.000000000              -0.004777560               0.007820273               0.001456418              -0.002769113               0.003529769               0.000760656               0.000000000               0.000000000               0.000000000               0.000000000              -0.004457309               0.008171882               0.001282984              -0.002692970               0.003621590               0.000928620               0.000000000               0.000000000               0.000000000               0.000000000              -0.003854890               0.008020793               0.001077900              -0.002448177               0.003489630               0.001041453               0.000000000               0.000000000               0.000000000               0.000000000              -0.003196382               0.007705828               0.000911209              -0.002161867               0.003289206               0.001127339               0.000000000               0.000000000               0.000000000               0.000000000              -0.002547320               0.007332737               0.000792676              -0.001871833               0.003068165               0.001196333               0.000000000               0.000000000               0.000000000               0.000000000              -0.001929289               0.006934913               0.000701098              -0.001590344               0.002841729               0.001251385               0.000000000               0.000000000               0.000000000               0.000000000              -0.001366974               0.006532073               0.000621087              -0.001329121               0.002620376               0.001291255               0.000000000               0.000000000               0.000000000               0.000000000              -0.000873830               0.006163462               0.000542372              -0.001098116               0.002420505               0.001322389               0.000000000               0.000000000               0.000000000               0.000000000              -0.000468113               0.005852529               0.000451629              -0.000907106               0.002253192               0.001346086               0.000000000               0.000000000               0.000000000               0.000000000              -0.000166376               0.005609239               0.000354717              -0.000763544               0.002124242               0.001360698               0.000000000               0.000000000               0.000000000               0.000000000               0.000023862               0.005419622               0.000258932              -0.000668503               0.002029357               0.001360854               0.000000000               0.000000000               0.000000000               0.000000000               0.000116050               0.005269434               0.000169870              -0.000615159               0.001961513               0.001346354               0.000000000               0.000000000               0.000000000               0.000000000               0.000131875               0.005150868               0.000094307              -0.000594404               0.001915073               0.001320669               0.000000000               0.000000000               0.000000000               0.000000000               0.000094776               0.005059657               0.000036156              -0.000596915               0.001885507               0.001288592               0.000000000               0.000000000               0.000000000               0.000000000               0.000054338               0.005014207               0.000006645              -0.000606398               0.001873518               0.001267121               0.000000000               0.000000000               0.000000000               0.000000000              -0.004787997               0.002209297              -0.000102331              -0.002071657               0.001426975              -0.000644682               0.000000000               0.000000000               0.000000000               0.000000000              -0.004829305               0.004390241               0.001012166              -0.002359764               0.002249986              -0.000109778               0.000000000               0.000000000               0.000000000               0.000000000              -0.005163383               0.006470187               0.001860040              -0.002745036               0.003071719               0.000326683               0.000000000               0.000000000               0.000000000               0.000000000              -0.004708026               0.007195383               0.001846517              -0.002664926               0.003286745               0.000621819               0.000000000               0.000000000               0.000000000               0.000000000              -0.004055981               0.007369924               0.001646102              -0.002442228               0.003270692               0.000828464               0.000000000               0.000000000               0.000000000               0.000000000              -0.003381550               0.007311979               0.001436522              -0.002182073               0.003164660               0.000982586               0.000000000               0.000000000               0.000000000               0.000000000              -0.002725976               0.007138967               0.001265682              -0.001914608               0.003017834               0.001103227               0.000000000               0.000000000               0.000000000               0.000000000              -0.002100954               0.006891742               0.001126979              -0.001649322               0.002846998               0.001197677               0.000000000               0.000000000               0.000000000               0.000000000              -0.001512224               0.006606818               0.001007170              -0.001392933               0.002666561               0.001273628               0.000000000               0.000000000               0.000000000               0.000000000              -0.000976839               0.006313799               0.000892547              -0.001155537               0.002489758               0.001334221               0.000000000               0.000000000               0.000000000               0.000000000              -0.000512112               0.006039760               0.000764525              -0.000947010               0.002328903               0.001381893               0.000000000               0.000000000               0.000000000               0.000000000              -0.000134743               0.005803425               0.000626249              -0.000775955               0.002193107               0.001417152               0.000000000               0.000000000               0.000000000               0.000000000               0.000137310               0.005598275               0.000486360              -0.000648292               0.002082170               0.001433878               0.000000000               0.000000000               0.000000000               0.000000000               0.000300386               0.005416409               0.000350808              -0.000564405               0.001993587               0.001429182               0.000000000               0.000000000               0.000000000               0.000000000               0.000358634               0.005252662               0.000221526              -0.000522094               0.001924901               0.001402807               0.000000000               0.000000000               0.000000000               0.000000000               0.000322611               0.005114052               0.000103113              -0.000518276               0.001877426               0.001359150               0.000000000               0.000000000               0.000000000               0.000000000               0.000259139               0.005036117               0.000038711              -0.000532336               0.001856134               0.001323798               0.000000000               0.000000000               0.000000000               0.000000000              -0.006964086               0.000771037              -0.000874104              -0.002707909               0.001159641              -0.001548268               0.000000000               0.000000000               0.000000000               0.000000000              -0.005938831               0.002925863               0.000725132              -0.002592790               0.001839539              -0.000753252               0.000000000               0.000000000               0.000000000               0.000000000              -0.005491831               0.004933714               0.002051347              -0.002676145               0.002536602              -0.000139543               0.000000000               0.000000000               0.000000000               0.000000000              -0.004814732               0.005915115               0.002233582              -0.002544908               0.002819987               0.000275079               0.000000000               0.000000000               0.000000000               0.000000000              -0.004093913               0.006386072               0.002091047              -0.002333471               0.002906492               0.000573021               0.000000000               0.000000000               0.000000000               0.000000000              -0.003400886               0.006588551               0.001882071              -0.002098896               0.002895793               0.000796897               0.000000000               0.000000000               0.000000000               0.000000000              -0.002745069               0.006633650               0.001687682              -0.001858603               0.002830729               0.000972126               0.000000000               0.000000000               0.000000000               0.000000000              -0.002124817               0.006570146               0.001518552              -0.001618071               0.002729383               0.001111312               0.000000000               0.000000000               0.000000000               0.000000000              -0.001531487               0.006438994               0.001370834              -0.001379179               0.002606036               0.001226857               0.000000000               0.000000000               0.000000000               0.000000000              -0.000975172               0.006265524               0.001226966              -0.001148878               0.002471446               0.001322569               0.000000000               0.000000000               0.000000000               0.000000000              -0.000466311               0.006073328               0.001075199              -0.000934031               0.002335766               0.001401735               0.000000000               0.000000000               0.000000000               0.000000000              -0.000019200               0.005880616               0.000914644              -0.000742275               0.002207611               0.001465335               0.000000000               0.000000000               0.000000000               0.000000000               0.000347570               0.005694215               0.000748154              -0.000581437               0.002091865               0.001510428               0.000000000               0.000000000               0.000000000               0.000000000               0.000610243               0.005508713               0.000575171              -0.000459747               0.001989468               0.001529721               0.000000000               0.000000000               0.000000000               0.000000000               0.000753987               0.005328762               0.000390812              -0.000383349               0.001904019               0.001520670               0.000000000               0.000000000               0.000000000               0.000000000               0.000774685               0.005159970               0.000197406              -0.000354489               0.001838136               0.001483647               0.000000000               0.000000000               0.000000000               0.000000000               0.000728520               0.005063840               0.000092445              -0.000359784               0.001807858               0.001448074               0.000000000               0.000000000               0.000000000               0.000000000              -0.009249088              -0.000236499              -0.001390787              -0.003438843               0.001067440              -0.002371403               0.000000000               0.000000000               0.000000000               0.000000000              -0.007137444               0.001642110               0.000427770              -0.002881802               0.001507960              -0.001373842               0.000000000               0.000000000               0.000000000               0.000000000              -0.005797122               0.003345864               0.002012151              -0.002592149               0.001979324              -0.000612825               0.000000000               0.000000000               0.000000000               0.000000000              -0.004806137               0.004446090               0.002360443              -0.002358058               0.002268033              -0.000090025               0.000000000               0.000000000               0.000000000               0.000000000              -0.003978585               0.005142912               0.002302719              -0.002134829               0.002425896               0.000291067               0.000000000               0.000000000               0.000000000               0.000000000              -0.003247678               0.005579531               0.002132345              -0.001915317               0.002498263               0.000582947               0.000000000               0.000000000               0.000000000               0.000000000              -0.002587004               0.005838314               0.001949739              -0.001699912               0.002512722               0.000812810               0.000000000               0.000000000               0.000000000               0.000000000              -0.001972861               0.005973292               0.001777029              -0.001486481               0.002486571               0.001000089               0.000000000               0.000000000               0.000000000               0.000000000              -0.001392416               0.006016951               0.001617202              -0.001274272               0.002430387               0.001156115               0.000000000               0.000000000               0.000000000               0.000000000              -0.000836091               0.005991412               0.001462269              -0.001062458               0.002351270               0.001288811               0.000000000               0.000000000               0.000000000               0.000000000              -0.000300334               0.005918286               0.001303201              -0.000852410               0.002256878               0.001404469               0.000000000               0.000000000               0.000000000               0.000000000               0.000203983               0.005809688               0.001138278              -0.000649716               0.002153115               0.001503399               0.000000000               0.000000000               0.000000000               0.000000000               0.000658234               0.005680760               0.000963729              -0.000463257               0.002047986               0.001584730               0.000000000               0.000000000               0.000000000               0.000000000               0.001037939               0.005530822               0.000768892              -0.000302125               0.001944297               0.001642172               0.000000000               0.000000000               0.000000000               0.000000000               0.001315038               0.005355859               0.000547667              -0.000176343               0.001844050               0.001667706               0.000000000               0.000000000               0.000000000               0.000000000               0.001472592               0.005176282               0.000291968              -0.000094813               0.001757015               0.001662201               0.000000000               0.000000000               0.000000000               0.000000000               0.001518208               0.005088166               0.000153905              -0.000066693               0.001718269               0.001651576               0.000000000               0.000000000               0.000000000               0.000000000              -0.011421925              -0.000842297              -0.001553146              -0.004177932               0.001111870              -0.003066062               0.000000000               0.000000000               0.000000000               0.000000000              -0.008313452               0.000612254               0.000179775              -0.003194073               0.001268767              -0.001925306               0.000000000               0.000000000               0.000000000               0.000000000              -0.006082023               0.001871503               0.001745275              -0.002514693               0.001462055              -0.001052638               0.000000000               0.000000000               0.000000000               0.000000000              -0.004731669               0.002962404               0.002178317              -0.002144673               0.001702346              -0.000442326               0.000000000               0.000000000               0.000000000               0.000000000              -0.003761002               0.003800273               0.002200111              -0.001885406               0.001895213               0.000009806               0.000000000               0.000000000               0.000000000               0.000000000              -0.002974700               0.004421624               0.002086715              -0.001668212               0.002029930               0.000361718               0.000000000               0.000000000               0.000000000               0.000000000              -0.002297618               0.004869154               0.001939941              -0.001470248               0.002113117               0.000642869               0.000000000               0.000000000               0.000000000               0.000000000              -0.001687084               0.005184679               0.001788932              -0.001280739               0.002155121               0.000874382               0.000000000               0.000000000               0.000000000               0.000000000              -0.001115427               0.005399624               0.001641747              -0.001093236               0.002164268               0.001071032               0.000000000               0.000000000               0.000000000               0.000000000              -0.000562434               0.005531398               0.001499165              -0.000902336               0.002144559               0.001242223               0.000000000               0.000000000               0.000000000               0.000000000              -0.000018462               0.005591245               0.001354814              -0.000705828               0.002099005               0.001393178               0.000000000               0.000000000               0.000000000               0.000000000               0.000520302               0.005594134               0.001203937              -0.000504153               0.002032743               0.001528591               0.000000000               0.000000000               0.000000000               0.000000000               0.001044348               0.005552315               0.001039994              -0.000302409               0.001951556               0.001649147               0.000000000               0.000000000               0.000000000               0.000000000               0.001540011               0.005468364               0.000852247              -0.000106042               0.001858117               0.001752075               0.000000000               0.000000000               0.000000000               0.000000000               0.001987767               0.005340454               0.000626672               0.000077855               0.001754182               0.001832037               0.000000000               0.000000000               0.000000000               0.000000000               0.002362976               0.005182006               0.000345035               0.000238363               0.001647864               0.001886227               0.000000000               0.000000000               0.000000000               0.000000000               0.002583035               0.005119862               0.000198274               0.000328652               0.001597053               0.001925705               0.000000000               0.000000000               0.000000000               0.000000000              -0.013235911              -0.001140372              -0.001326023              -0.004820917               0.001226840              -0.003594077               0.000000000               0.000000000               0.000000000               0.000000000              -0.009321824              -0.000125619               0.000027299              -0.003479979               0.001118112              -0.002361866               0.000000000               0.000000000               0.000000000               0.000000000              -0.006323427               0.000675739               0.001281209              -0.002455750               0.001043822              -0.001411928               0.000000000               0.000000000               0.000000000               0.000000000              -0.004632109               0.001680291               0.001678857              -0.001947075               0.001209113              -0.000737962               0.000000000               0.000000000               0.000000000               0.000000000              -0.003509590               0.002582497               0.001744023              -0.001638905               0.001407124              -0.000231782               0.000000000               0.000000000               0.000000000               0.000000000              -0.002664592               0.003323304               0.001686917              -0.001414632               0.001579300               0.000164668               0.000000000               0.000000000               0.000000000               0.000000000              -0.001966520               0.003911707               0.001589716              -0.001226406               0.001712691               0.000486285               0.000000000               0.000000000               0.000000000               0.000000000              -0.001354032               0.004368362               0.001479629              -0.001053805               0.001807374               0.000753569               0.000000000               0.000000000               0.000000000               0.000000000              -0.000783126               0.004721721               0.001368960              -0.000883886               0.001868519               0.000984634               0.000000000               0.000000000               0.000000000               0.000000000              -0.000229855               0.004987569               0.001257930              -0.000709641               0.001899053               0.001189412               0.000000000               0.000000000               0.000000000               0.000000000               0.000320888               0.005176779               0.001144323              -0.000526764               0.001901164               0.001374400               0.000000000               0.000000000               0.000000000               0.000000000               0.000880796               0.005294968               0.001027739              -0.000331572               0.001875496               0.001543923               0.000000000               0.000000000               0.000000000               0.000000000               0.001460182               0.005342645               0.000901175              -0.000120263               0.001820951               0.001700689               0.000000000               0.000000000               0.000000000               0.000000000               0.002058177               0.005335953               0.000750932               0.000104821               0.001743693               0.001848514               0.000000000               0.000000000               0.000000000               0.000000000               0.002667245               0.005278298               0.000562473               0.000340426               0.001645940               0.001986366               0.000000000               0.000000000               0.000000000               0.000000000               0.003281248               0.005160160               0.000315321               0.000585442               0.001524889               0.002110331               0.000000000               0.000000000               0.000000000               0.000000000               0.003714627               0.005133294               0.000190838               0.000751316               0.001460642               0.002211958               0.000000000               0.000000000               0.000000000               0.000000000              -0.014449496              -0.001252946              -0.000763281              -0.005261939               0.001336322              -0.003925617               0.000000000               0.000000000               0.000000000               0.000000000              -0.010010717              -0.000563211              -0.000021366              -0.003683615               0.001040128              -0.002643487               0.000000000               0.000000000               0.000000000               0.000000000              -0.006493186              -0.000101600               0.000676436              -0.002422243               0.000773542              -0.001648700               0.000000000               0.000000000               0.000000000               0.000000000              -0.004550394               0.000809687               0.000915145              -0.001807607               0.000872425              -0.000935182               0.000000000               0.000000000               0.000000000               0.000000000              -0.003310513               0.001725760               0.000968212              -0.001457160               0.001060966              -0.000396194               0.000000000               0.000000000               0.000000000               0.000000000              -0.002413721               0.002531666               0.000949172              -0.001221601               0.001251080               0.000029479               0.000000000               0.000000000               0.000000000               0.000000000              -0.001698870               0.003203295               0.000903620              -0.001037486               0.001413583               0.000376097               0.000000000               0.000000000               0.000000000               0.000000000              -0.001082278               0.003744354               0.000847398              -0.000873897               0.001539404               0.000665507               0.000000000               0.000000000               0.000000000               0.000000000              -0.000511893               0.004181296               0.000789633              -0.000714620               0.001631958               0.000917338               0.000000000               0.000000000               0.000000000               0.000000000               0.000042997               0.004532065               0.000728030              -0.000550383               0.001694134               0.001143751               0.000000000               0.000000000               0.000000000               0.000000000               0.000606017               0.004808607               0.000661795              -0.000373819               0.001727459               0.001353640               0.000000000               0.000000000               0.000000000               0.000000000               0.001190143               0.005009862               0.000596939              -0.000179929               0.001729914               0.001549984               0.000000000               0.000000000               0.000000000               0.000000000               0.001805444               0.005132951               0.000529351               0.000035422               0.001699159               0.001734581               0.000000000               0.000000000               0.000000000               0.000000000               0.002466294               0.005190643               0.000443826               0.000276027               0.001638188               0.001914215               0.000000000               0.000000000               0.000000000               0.000000000               0.003185891               0.005184855               0.000332661               0.000546597               0.001546069               0.002092665               0.000000000               0.000000000               0.000000000               0.000000000               0.003979403               0.005110805               0.000187769               0.000853417               0.001419112               0.002272529               0.000000000               0.000000000               0.000000000               0.000000000               0.004580491               0.005122538               0.000117883               0.001077356               0.001348377               0.002425733               0.000000000               0.000000000               0.000000000               0.000000000              -0.014876539              -0.001277090              -0.000000000              -0.005419063               0.001380648              -0.004038414               0.000000000               0.000000000               0.000000000               0.000000000              -0.010256170              -0.000705208              -0.000000000              -0.003757910               0.001017561              -0.002740350               0.000000000               0.000000000               0.000000000               0.000000000              -0.006556254              -0.000370519              -0.000000000              -0.002412279               0.000680582              -0.001731697               0.000000000               0.000000000               0.000000000               0.000000000              -0.004519309               0.000500238              -0.000000000              -0.001757269               0.000752497              -0.001004771               0.000000000               0.000000000               0.000000000               0.000000000              -0.003235767               0.001417154               0.000000000              -0.001390555               0.000935897              -0.000454658               0.000000000               0.000000000               0.000000000               0.000000000              -0.002316555               0.002241820               0.000000000              -0.001148933               0.001130243              -0.000018690               0.000000000               0.000000000               0.000000000               0.000000000              -0.001594954               0.002939569              -0.000000000              -0.000965552               0.001301697               0.000336145               0.000000000               0.000000000               0.000000000               0.000000000              -0.000975234               0.003511675               0.000000000              -0.000804670               0.001438770               0.000634100               0.000000000               0.000000000               0.000000000               0.000000000              -0.000404699               0.003977432               0.000000000              -0.000648939               0.001542110               0.000893171               0.000000000               0.000000000               0.000000000               0.000000000               0.000150150               0.004352570              -0.000000000              -0.000487764               0.001613430               0.001125666               0.000000000               0.000000000               0.000000000               0.000000000               0.000719393               0.004651883               0.000000000              -0.000311712               0.001654516               0.001342804               0.000000000               0.000000000               0.000000000               0.000000000               0.001317283               0.004884432              -0.000000000              -0.000116573               0.001666985               0.001550412               0.000000000               0.000000000               0.000000000               0.000000000               0.001945484               0.005045724               0.000000000               0.000098840               0.001648945               0.001747784               0.000000000               0.000000000               0.000000000               0.000000000               0.002622981               0.005129692               0.000000000               0.000342403               0.001595746               0.001938149               0.000000000               0.000000000               0.000000000               0.000000000               0.003379535               0.005138335               0.000000000               0.000625028               0.001504419               0.002129446               0.000000000               0.000000000               0.000000000               0.000000000               0.004239887               0.005084095               0.000000000               0.000954436               0.001376536               0.002330972               0.000000000               0.000000000               0.000000000               0.000000000               0.004902122               0.005114261               0.000000000               0.001199001               0.001305070               0.002504071               0.000000000               0.000000000               0.000000000               0.000000000               0.002200184               0.023465659               0.000000000              -0.002108133               0.008524519               0.006416386               0.000000000               0.000000000               0.000000000               0.000000000               0.002072598               0.017947114               0.000000000              -0.001466161               0.006471032               0.005004871               0.000000000               0.000000000               0.000000000               0.000000000               0.002629722               0.013477391              -0.000000000              -0.000698526               0.004725261               0.004026734               0.000000000               0.000000000               0.000000000               0.000000000               0.002397306               0.010961551               0.000000000              -0.000471203               0.003810882               0.003339678               0.000000000               0.000000000               0.000000000               0.000000000               0.001962519               0.009351793               0.000000000              -0.000433029               0.003261576               0.002828547               0.000000000               0.000000000               0.000000000               0.000000000               0.001522279               0.008200018              -0.000000000              -0.000454146               0.002884694               0.002430548               0.000000000               0.000000000               0.000000000               0.000000000               0.001149609               0.007301964              -0.000000000              -0.000481641               0.002594511               0.002112870               0.000000000               0.000000000               0.000000000               0.000000000               0.000843220               0.006548544               0.000000000              -0.000502359               0.002350279               0.001847920               0.000000000               0.000000000               0.000000000               0.000000000               0.000591402               0.005886017              -0.000000000              -0.000513975               0.002133311               0.001619336               0.000000000               0.000000000               0.000000000               0.000000000               0.000389197               0.005269971              -0.000000000              -0.000512796               0.001927572               0.001414775               0.000000000               0.000000000               0.000000000               0.000000000               0.000226117               0.004662970              -0.000000000              -0.000498076               0.001720333               0.001222257               0.000000000               0.000000000               0.000000000               0.000000000               0.000103961               0.004037640              -0.000000000              -0.000465718               0.001501106               0.001035388               0.000000000               0.000000000               0.000000000               0.000000000               0.000024067               0.003384778              -0.000000000              -0.000414071               0.001266272               0.000852201               0.000000000               0.000000000               0.000000000               0.000000000              -0.000026968               0.002684448               0.000000000              -0.000345668               0.001010030               0.000664362               0.000000000               0.000000000               0.000000000               0.000000000              -0.000054311               0.001917721               0.000000000              -0.000260081               0.000725928               0.000465846               0.000000000               0.000000000               0.000000000               0.000000000              -0.000041172               0.001063656               0.000000000              -0.000148396               0.000404014               0.000255617               0.000000000               0.000000000               0.000000000               0.000000000              -0.000090419               0.000413585               0.000000000              -0.000085605               0.000166395               0.000080790               0.000000000               0.000000000               0.000000000               0.000000000               0.002257016               0.022950775              -0.001529478              -0.002022461               0.008324335               0.006301874               0.000000000               0.000000000               0.000000000               0.000000000               0.001999017               0.017623244              -0.000659358              -0.001453271               0.006358780               0.004905509               0.000000000               0.000000000               0.000000000               0.000000000               0.002418943               0.013353723               0.000195958              -0.000762110               0.004705233               0.003943123               0.000000000               0.000000000               0.000000000               0.000000000               0.002136484               0.010937802               0.000539845              -0.000566042               0.003834578               0.003268536               0.000000000               0.000000000               0.000000000               0.000000000               0.001693490               0.009382921               0.000663642              -0.000537805               0.003306877               0.002769072               0.000000000               0.000000000               0.000000000               0.000000000               0.001265650               0.008265054               0.000690997              -0.000558512               0.002941161               0.002382649               0.000000000               0.000000000               0.000000000               0.000000000               0.000909847               0.007384766               0.000677159              -0.000581902               0.002655531               0.002073629               0.000000000               0.000000000               0.000000000               0.000000000               0.000625623               0.006643162               0.000649592              -0.000595785               0.002412960               0.001817175               0.000000000               0.000000000               0.000000000               0.000000000               0.000399742               0.005981692               0.000618561              -0.000597807               0.002193146               0.001595339               0.000000000               0.000000000               0.000000000               0.000000000               0.000226889               0.005365456               0.000581947              -0.000585597               0.001983666               0.001398069               0.000000000               0.000000000               0.000000000               0.000000000               0.000098131               0.004759541               0.000537700              -0.000558142               0.001772545               0.001214403               0.000000000               0.000000000               0.000000000               0.000000000               0.000009446               0.004142706               0.000490707              -0.000514295               0.001552320               0.001038025               0.000000000               0.000000000               0.000000000               0.000000000              -0.000046319               0.003501625               0.000440710              -0.000455072               0.001318887               0.000863815               0.000000000               0.000000000               0.000000000               0.000000000              -0.000076546               0.002826423               0.000378565              -0.000382007               0.001069467               0.000687460               0.000000000               0.000000000               0.000000000               0.000000000              -0.000079950               0.002104720               0.000296428              -0.000293071               0.000799257               0.000506186               0.000000000               0.000000000               0.000000000               0.000000000              -0.000050086               0.001319770               0.000172493              -0.000183753               0.000501170               0.000317417               0.000000000               0.000000000               0.000000000               0.000000000              -0.000088592               0.000733497               0.000108065              -0.000124909               0.000286133               0.000161224               0.000000000               0.000000000               0.000000000               0.000000000               0.002381025               0.021475444              -0.002817070              -0.001791543               0.007755590               0.005964047               0.000000000               0.000000000               0.000000000               0.000000000               0.001768230               0.016705896              -0.001206480              -0.001425148               0.006043626               0.004618478               0.000000000               0.000000000               0.000000000               0.000000000               0.001814898               0.013005640               0.000358638              -0.000945116               0.004650208               0.003705093               0.000000000               0.000000000               0.000000000               0.000000000               0.001407380               0.010869003               0.000963329              -0.000830856               0.003899917               0.003069061               0.000000000               0.000000000               0.000000000               0.000000000               0.000952036               0.009459981               0.001170255              -0.000825483               0.003428456               0.002602974               0.000000000               0.000000000               0.000000000               0.000000000               0.000564190               0.008424267               0.001205703              -0.000841460               0.003088547               0.002247087               0.000000000               0.000000000               0.000000000               0.000000000               0.000269980               0.007591752               0.001172866              -0.000847725               0.002813133               0.001965408               0.000000000               0.000000000               0.000000000               0.000000000               0.000058808               0.006873678               0.001119012              -0.000837155               0.002570255               0.001733100               0.000000000               0.000000000               0.000000000               0.000000000              -0.000082818               0.006222776               0.001061726              -0.000808902               0.002343872               0.001534970               0.000000000               0.000000000               0.000000000               0.000000000              -0.000170394               0.005608552               0.000997828              -0.000764965               0.002124487               0.001359522               0.000000000               0.000000000               0.000000000               0.000000000              -0.000216254               0.005008364               0.000921409              -0.000707139               0.001905151               0.001198012               0.000000000               0.000000000               0.000000000               0.000000000              -0.000226548               0.004412649               0.000837769              -0.000636535               0.001683047               0.001046511               0.000000000               0.000000000               0.000000000               0.000000000              -0.000211256               0.003814632               0.000747649              -0.000556049               0.001456881               0.000900832               0.000000000               0.000000000               0.000000000               0.000000000              -0.000174395               0.003215196               0.000640864              -0.000467297               0.001227487               0.000760190               0.000000000               0.000000000               0.000000000               0.000000000              -0.000123987               0.002617109               0.000499155              -0.000373633               0.000996905               0.000623272               0.000000000               0.000000000               0.000000000               0.000000000              -0.000067354               0.002022393               0.000288888              -0.000278056               0.000766810               0.000488753               0.000000000               0.000000000               0.000000000               0.000000000              -0.000077847               0.001615925               0.000175578              -0.000231183               0.000615697               0.000384515               0.000000000               0.000000000               0.000000000               0.000000000               0.002456277               0.019240901              -0.003689746              -0.001484007               0.006908238               0.005424231               0.000000000               0.000000000               0.000000000               0.000000000               0.001356243               0.015339688              -0.001576776              -0.001408867               0.005582800               0.004173933               0.000000000               0.000000000               0.000000000               0.000000000               0.000889555               0.012487377               0.000444288              -0.001227336               0.004571529               0.003344193               0.000000000               0.000000000               0.000000000               0.000000000               0.000349463               0.010749251               0.001177029              -0.001212605               0.003987249               0.002774644               0.000000000               0.000000000               0.000000000               0.000000000              -0.000081866               0.009536061               0.001408222              -0.001222705               0.003586223               0.002363518               0.000000000               0.000000000               0.000000000               0.000000000              -0.000381056               0.008597565               0.001434363              -0.001217589               0.003271689               0.002054100               0.000000000               0.000000000               0.000000000               0.000000000              -0.000565145               0.007814114               0.001380792              -0.001188691               0.003000909               0.001812218               0.000000000               0.000000000               0.000000000               0.000000000              -0.000659245               0.007121802               0.001305607              -0.001137440               0.002753057               0.001615617               0.000000000               0.000000000               0.000000000               0.000000000              -0.000678827               0.006485123               0.001228900              -0.001065198               0.002516752               0.001451554               0.000000000               0.000000000               0.000000000               0.000000000              -0.000645369               0.005879802               0.001144448              -0.000976987               0.002285576               0.001308590               0.000000000               0.000000000               0.000000000               0.000000000              -0.000575987               0.005298731               0.001046952              -0.000878335               0.002059004               0.001180669               0.000000000               0.000000000               0.000000000               0.000000000              -0.000481924               0.004742909               0.000939858              -0.000773584               0.001838815               0.001065231               0.000000000               0.000000000               0.000000000               0.000000000              -0.000372774               0.004216113               0.000823220              -0.000666803               0.001627625               0.000960822               0.000000000               0.000000000               0.000000000               0.000000000              -0.000259490               0.003727295               0.000689361              -0.000563220               0.001430159               0.000866939               0.000000000               0.000000000               0.000000000               0.000000000              -0.000156973               0.003291617               0.000522809              -0.000470316               0.001253967               0.000783651               0.000000000               0.000000000               0.000000000               0.000000000              -0.000074140               0.002929022               0.000296086              -0.000393929               0.001107641               0.000713711               0.000000000               0.000000000               0.000000000               0.000000000              -0.000051797               0.002730551               0.000171083              -0.000360742               0.001030422               0.000669680               0.000000000               0.000000000               0.000000000               0.000000000               0.002343559               0.016534621              -0.004064924              -0.001187993               0.005907482               0.004719489               0.000000000               0.000000000               0.000000000               0.000000000               0.000748836               0.013715409              -0.001752807              -0.001433610               0.005049627               0.003616017               0.000000000               0.000000000               0.000000000               0.000000000              -0.000244435               0.011859247               0.000420677              -0.001574065               0.004477731               0.002903666               0.000000000               0.000000000               0.000000000               0.000000000              -0.000857325               0.010555081               0.001149369              -0.001640878               0.004065284               0.002424406               0.000000000               0.000000000               0.000000000               0.000000000              -0.001194306               0.009541317               0.001355687              -0.001640526               0.003727249               0.002086723               0.000000000               0.000000000               0.000000000               0.000000000              -0.001348351               0.008694407               0.001359566              -0.001592429               0.003428916               0.001836487               0.000000000               0.000000000               0.000000000               0.000000000              -0.001377088               0.007952986               0.001292114              -0.001510528               0.003154478               0.001643950               0.000000000               0.000000000               0.000000000               0.000000000              -0.001316987               0.007286880               0.001207512              -0.001404727               0.002897178               0.001492451               0.000000000               0.000000000               0.000000000               0.000000000              -0.001195401               0.006668528               0.001120626              -0.001281839               0.002650100               0.001368261               0.000000000               0.000000000               0.000000000               0.000000000              -0.001032657               0.006085501               0.001027417              -0.001147932               0.002411124               0.001263192               0.000000000               0.000000000               0.000000000               0.000000000              -0.000848772               0.005538679               0.000922901              -0.001010622               0.002183082               0.001172460               0.000000000               0.000000000               0.000000000               0.000000000              -0.000659069               0.005038453               0.000807245              -0.000876956               0.001971786               0.001094830               0.000000000               0.000000000               0.000000000               0.000000000              -0.000476050               0.004595680               0.000682895              -0.000752977               0.001782870               0.001029893               0.000000000               0.000000000               0.000000000               0.000000000              -0.000311787               0.004226421               0.000547005              -0.000645222               0.001623867               0.000978645               0.000000000               0.000000000               0.000000000               0.000000000              -0.000173452               0.003939892               0.000392868              -0.000557530               0.001499128               0.000941598               0.000000000               0.000000000               0.000000000               0.000000000              -0.000074479               0.003754171               0.000211308              -0.000497200               0.001417111               0.000919911               0.000000000               0.000000000               0.000000000               0.000000000              -0.000035922               0.003689619               0.000112751              -0.000474672               0.001388085               0.000913413               0.000000000               0.000000000               0.000000000               0.000000000               0.001920986               0.013640871              -0.003955779              -0.000984740               0.004875157               0.003890417               0.000000000               0.000000000               0.000000000               0.000000000              -0.000049613               0.012007129              -0.001764964              -0.001519493               0.004508834               0.002989340               0.000000000               0.000000000               0.000000000               0.000000000              -0.001450661               0.011174445               0.000263496              -0.001940799               0.004371710               0.002430912               0.000000000               0.000000000               0.000000000               0.000000000              -0.002022640               0.010273935               0.000890154              -0.002042727               0.004105520               0.002062793               0.000000000               0.000000000               0.000000000               0.000000000              -0.002189601               0.009433858               0.001048898              -0.002000328               0.003811364               0.001811036               0.000000000               0.000000000               0.000000000               0.000000000              -0.002151553               0.008662629               0.001039056              -0.001889657               0.003517400               0.001627743               0.000000000               0.000000000               0.000000000               0.000000000              -0.001996047               0.007960810               0.000975111              -0.001743615               0.003234782               0.001491167               0.000000000               0.000000000               0.000000000               0.000000000              -0.001771610               0.007318652               0.000900917              -0.001579181               0.002965920               0.001386739               0.000000000               0.000000000               0.000000000               0.000000000              -0.001507578               0.006726241               0.000821795              -0.001406119               0.002710764               0.001304645               0.000000000               0.000000000               0.000000000               0.000000000              -0.001228071               0.006176155               0.000735674              -0.001232543               0.002469545               0.001237002               0.000000000               0.000000000               0.000000000               0.000000000              -0.000954116               0.005677736               0.000638044              -0.001067508               0.002248396               0.001180888               0.000000000               0.000000000               0.000000000               0.000000000              -0.000703535               0.005240226               0.000533870              -0.000918852               0.002053009               0.001134157               0.000000000               0.000000000               0.000000000               0.000000000              -0.000483214               0.004885843               0.000429811              -0.000791934               0.001892576               0.001100642               0.000000000               0.000000000               0.000000000               0.000000000              -0.000302937               0.004621048               0.000322784              -0.000691231               0.001770744               0.001079514               0.000000000               0.000000000               0.000000000               0.000000000              -0.000160351               0.004446144               0.000212958              -0.000615898               0.001687333               0.001071434               0.000000000               0.000000000               0.000000000               0.000000000              -0.000062170               0.004361655               0.000106691              -0.000568519               0.001643377               0.001074858               0.000000000               0.000000000               0.000000000               0.000000000              -0.000023949               0.004348502               0.000053066              -0.000552542               0.001633667               0.001081125               0.000000000               0.000000000               0.000000000               0.000000000               0.001120747               0.010797983              -0.003453625              -0.000929468               0.003909113               0.002979645               0.000000000               0.000000000               0.000000000               0.000000000              -0.000991742               0.010350100              -0.001673204              -0.001665663               0.004005219               0.002339557               0.000000000               0.000000000               0.000000000               0.000000000              -0.002590385               0.010459801              -0.000033876              -0.002278864               0.004246187               0.001967323               0.000000000               0.000000000               0.000000000               0.000000000              -0.002992173               0.009893223               0.000444767              -0.002358712               0.004083945               0.001725233               0.000000000               0.000000000               0.000000000               0.000000000              -0.002931431               0.009192847               0.000569640              -0.002248387               0.003813714               0.001565327               0.000000000               0.000000000               0.000000000               0.000000000              -0.002682158               0.008488654               0.000572901              -0.002066886               0.003518485               0.001451599               0.000000000               0.000000000               0.000000000               0.000000000              -0.002344050               0.007828078               0.000537954              -0.001857524               0.003228508               0.001370984               0.000000000               0.000000000               0.000000000               0.000000000              -0.001967110               0.007219436               0.000492859              -0.001640092               0.002953152               0.001313060               0.000000000               0.000000000               0.000000000               0.000000000              -0.001582430               0.006657701               0.000438450              -0.001425620               0.002694418               0.001268798               0.000000000               0.000000000               0.000000000               0.000000000              -0.001216030               0.006145076               0.000376221              -0.001224143               0.002456386               0.001232243               0.000000000               0.000000000               0.000000000               0.000000000              -0.000889345               0.005699371               0.000305217              -0.001045923               0.002248412               0.001202489               0.000000000               0.000000000               0.000000000               0.000000000              -0.000613382               0.005337027               0.000235626              -0.000897145               0.002078039               0.001180895               0.000000000               0.000000000               0.000000000               0.000000000              -0.000389732               0.005070562               0.000177655              -0.000779968               0.001950160               0.001170192               0.000000000               0.000000000               0.000000000               0.000000000              -0.000219851               0.004891692               0.000122468              -0.000693904               0.001861849               0.001167945               0.000000000               0.000000000               0.000000000               0.000000000              -0.000101086               0.004788308               0.000071975              -0.000636444               0.001808235               0.001171790               0.000000000               0.000000000               0.000000000               0.000000000              -0.000033604               0.004742651               0.000032728              -0.000605431               0.001782678               0.001177247               0.000000000               0.000000000               0.000000000               0.000000000              -0.000016642               0.004731613               0.000016667              -0.000597691               0.001776419               0.001178728               0.000000000               0.000000000               0.000000000               0.000000000              -0.000017860               0.008183486              -0.002680453              -0.001029633               0.003071012               0.002041379               0.000000000               0.000000000               0.000000000               0.000000000              -0.002018433               0.008843447              -0.001536423              -0.001862339               0.003568566               0.001706226               0.000000000               0.000000000               0.000000000               0.000000000              -0.003553832               0.009712505              -0.000451979              -0.002546744               0.004086384               0.001539640               0.000000000               0.000000000               0.000000000               0.000000000              -0.003679824               0.009402945              -0.000105339              -0.002555296               0.003986049               0.001430753               0.000000000               0.000000000               0.000000000               0.000000000              -0.003367505               0.008821934               0.000026875              -0.002365550               0.003729132               0.001363582               0.000000000               0.000000000               0.000000000               0.000000000              -0.002917496               0.008192310               0.000071285              -0.002118095               0.003436774               0.001318680               0.000000000               0.000000000               0.000000000               0.000000000              -0.002422010               0.007585326               0.000081524              -0.001856415               0.003147222               0.001290807               0.000000000               0.000000000               0.000000000               0.000000000              -0.001919930               0.007018380               0.000077129              -0.001597267               0.002871859               0.001274592               0.000000000               0.000000000               0.000000000               0.000000000              -0.001451611               0.006492082               0.000060322              -0.001355861               0.002615959               0.001260098               0.000000000               0.000000000               0.000000000               0.000000000              -0.001034625               0.006028645               0.000038224              -0.001141562               0.002390049               0.001248487               0.000000000               0.000000000               0.000000000               0.000000000              -0.000683572               0.005650988               0.000018277              -0.000962711               0.002204548               0.001241837               0.000000000               0.000000000               0.000000000               0.000000000              -0.000412304               0.005371002               0.000004826              -0.000825987               0.002065645               0.001239658               0.000000000               0.000000000               0.000000000               0.000000000              -0.000221603               0.005175821               0.000002733              -0.000730077               0.001968615               0.001238539               0.000000000               0.000000000               0.000000000               0.000000000              -0.000096933               0.005049059               0.000001192              -0.000667481               0.001905497               0.001238016               0.000000000               0.000000000               0.000000000               0.000000000              -0.000024020               0.004974905               0.000000351              -0.000630869               0.001868575               0.001237706               0.000000000               0.000000000               0.000000000               0.000000000               0.000000411               0.004933694               0.000002934              -0.000616556               0.001850067               0.001233511               0.000000000               0.000000000               0.000000000               0.000000000              -0.000005662               0.004915229               0.000006465              -0.000616525               0.001843902               0.001227376               0.000000000               0.000000000               0.000000000               0.000000000              -0.001347296               0.005998847              -0.001760263              -0.001255090               0.002417958               0.001162869               0.000000000               0.000000000               0.000000000               0.000000000              -0.003021777               0.007504724              -0.001392441              -0.002071252               0.003191967               0.001120715               0.000000000               0.000000000               0.000000000               0.000000000              -0.004311814               0.008955167              -0.000945706              -0.002736320               0.003897132               0.001160813               0.000000000               0.000000000               0.000000000               0.000000000              -0.004148514               0.008911855              -0.000681388              -0.002669668               0.003860478               0.001190810               0.000000000               0.000000000               0.000000000               0.000000000              -0.003629424               0.008477506              -0.000511942              -0.002420716               0.003632713               0.001211996               0.000000000               0.000000000               0.000000000               0.000000000              -0.003022350               0.007946531              -0.000408270              -0.002126692               0.003357715               0.001231022               0.000000000               0.000000000               0.000000000               0.000000000              -0.002408829               0.007410483              -0.000346614              -0.001829617               0.003080008               0.001250392               0.000000000               0.000000000               0.000000000               0.000000000              -0.001817352               0.006893679              -0.000305699              -0.001543213               0.002812274               0.001269061               0.000000000               0.000000000               0.000000000               0.000000000              -0.001284144               0.006408805              -0.000274227              -0.001282651               0.002563797               0.001281146               0.000000000               0.000000000               0.000000000               0.000000000              -0.000827837               0.005992464              -0.000242694              -0.001059494               0.002350633               0.001291138               0.000000000               0.000000000               0.000000000               0.000000000              -0.000460559               0.005668229              -0.000203120              -0.000881236               0.002183136               0.001301900               0.000000000               0.000000000               0.000000000               0.000000000              -0.000200408               0.005431626              -0.000159270              -0.000754104               0.002061892               0.001307788               0.000000000               0.000000000               0.000000000               0.000000000              -0.000043739               0.005265035              -0.000114098              -0.000674530               0.001979838               0.001305308               0.000000000               0.000000000               0.000000000               0.000000000               0.000030769               0.005145469              -0.000070691              -0.000631644               0.001925687               0.001294043               0.000000000               0.000000000               0.000000000               0.000000000               0.000048324               0.005065451              -0.000035507              -0.000615058               0.001893486               0.001278428               0.000000000               0.000000000               0.000000000               0.000000000               0.000029518               0.005012204              -0.000009184              -0.000615455               0.001875869               0.001260415               0.000000000               0.000000000               0.000000000               0.000000000               0.000008017               0.004987349               0.000003509              -0.000620411               0.001869237               0.001248826               0.000000000               0.000000000               0.000000000               0.000000000              -0.002872235               0.004001691              -0.000806555              -0.001577296               0.001859649               0.000282352               0.000000000               0.000000000               0.000000000               0.000000000              -0.003871522               0.005954860              -0.001233827              -0.002196173               0.002716991               0.000520818               0.000000000               0.000000000               0.000000000               0.000000000              -0.004777560               0.007820273              -0.001456418              -0.002769113               0.003529769               0.000760656               0.000000000               0.000000000               0.000000000               0.000000000              -0.004457309               0.008171882              -0.001282984              -0.002692970               0.003621590               0.000928620               0.000000000               0.000000000               0.000000000               0.000000000              -0.003854890               0.008020793              -0.001077900              -0.002448177               0.003489630               0.001041453               0.000000000               0.000000000               0.000000000               0.000000000              -0.003196382               0.007705828              -0.000911209              -0.002161867               0.003289206               0.001127339               0.000000000               0.000000000               0.000000000               0.000000000              -0.002547320               0.007332737              -0.000792676              -0.001871833               0.003068165               0.001196333               0.000000000               0.000000000               0.000000000               0.000000000              -0.001929289               0.006934913              -0.000701098              -0.001590344               0.002841729               0.001251385               0.000000000               0.000000000               0.000000000               0.000000000              -0.001366974               0.006532073              -0.000621087              -0.001329121               0.002620376               0.001291255               0.000000000               0.000000000               0.000000000               0.000000000              -0.000873830               0.006163462              -0.000542372              -0.001098116               0.002420505               0.001322389               0.000000000               0.000000000               0.000000000               0.000000000              -0.000468113               0.005852529              -0.000451629              -0.000907106               0.002253192               0.001346086               0.000000000               0.000000000               0.000000000               0.000000000              -0.000166376               0.005609239              -0.000354717              -0.000763544               0.002124242               0.001360698               0.000000000               0.000000000               0.000000000               0.000000000               0.000023862               0.005419622              -0.000258932              -0.000668503               0.002029357               0.001360854               0.000000000               0.000000000               0.000000000               0.000000000               0.000116050               0.005269434              -0.000169870              -0.000615159               0.001961513               0.001346354               0.000000000               0.000000000               0.000000000               0.000000000               0.000131875               0.005150868              -0.000094307              -0.000594404               0.001915073               0.001320669               0.000000000               0.000000000               0.000000000               0.000000000               0.000094776               0.005059657              -0.000036156              -0.000596915               0.001885507               0.001288592               0.000000000               0.000000000               0.000000000               0.000000000               0.000054338               0.005014207              -0.000006645              -0.000606398               0.001873518               0.001267121               0.000000000               0.000000000               0.000000000               0.000000000              -0.004787997               0.002209297               0.000102331              -0.002071657               0.001426975              -0.000644682               0.000000000               0.000000000               0.000000000               0.000000000              -0.004829305               0.004390241              -0.001012166              -0.002359764               0.002249986              -0.000109778               0.000000000               0.000000000               0.000000000               0.000000000              -0.005163383               0.006470187              -0.001860040              -0.002745036               0.003071719               0.000326683               0.000000000               0.000000000               0.000000000               0.000000000              -0.004708026               0.007195383              -0.001846517              -0.002664926               0.003286745               0.000621819               0.000000000               0.000000000               0.000000000               0.000000000              -0.004055981               0.007369924              -0.001646102              -0.002442228               0.003270692               0.000828464               0.000000000               0.000000000               0.000000000               0.000000000              -0.003381550               0.007311979              -0.001436522              -0.002182073               0.003164660               0.000982586               0.000000000               0.000000000               0.000000000               0.000000000              -0.002725976               0.007138967              -0.001265682              -0.001914608               0.003017834               0.001103227               0.000000000               0.000000000               0.000000000               0.000000000              -0.002100954               0.006891742              -0.001126979              -0.001649322               0.002846998               0.001197677               0.000000000               0.000000000               0.000000000               0.000000000              -0.001512224               0.006606818              -0.001007170              -0.001392933               0.002666561               0.001273628               0.000000000               0.000000000               0.000000000               0.000000000              -0.000976839               0.006313799              -0.000892547              -0.001155537               0.002489758               0.001334221               0.000000000               0.000000000               0.000000000               0.000000000              -0.000512112               0.006039760              -0.000764525              -0.000947010               0.002328903               0.001381893               0.000000000               0.000000000               0.000000000               0.000000000              -0.000134743               0.005803425              -0.000626249              -0.000775955               0.002193107               0.001417152               0.000000000               0.000000000               0.000000000               0.000000000               0.000137310               0.005598275              -0.000486360              -0.000648292               0.002082170               0.001433878               0.000000000               0.000000000               0.000000000               0.000000000               0.000300386               0.005416409              -0.000350808              -0.000564405               0.001993587               0.001429182               0.000000000               0.000000000               0.000000000               0.000000000               0.000358634               0.005252662              -0.000221526              -0.000522094               0.001924901               0.001402807               0.000000000               0.000000000               0.000000000               0.000000000               0.000322611               0.005114052              -0.000103113              -0.000518276               0.001877426               0.001359150               0.000000000               0.000000000               0.000000000               0.000000000               0.000259139               0.005036117              -0.000038711              -0.000532336               0.001856134               0.001323798               0.000000000               0.000000000               0.000000000               0.000000000              -0.006964086               0.000771037               0.000874104              -0.002707909               0.001159641              -0.001548268               0.000000000               0.000000000               0.000000000               0.000000000              -0.005938831               0.002925863              -0.000725132              -0.002592790               0.001839539              -0.000753252               0.000000000               0.000000000               0.000000000               0.000000000              -0.005491831               0.004933714              -0.002051347              -0.002676145               0.002536602              -0.000139543               0.000000000               0.000000000               0.000000000               0.000000000              -0.004814732               0.005915115              -0.002233582              -0.002544908               0.002819987               0.000275079               0.000000000               0.000000000               0.000000000               0.000000000              -0.004093913               0.006386072              -0.002091047              -0.002333471               0.002906492               0.000573021               0.000000000               0.000000000               0.000000000               0.000000000              -0.003400886               0.006588551              -0.001882071              -0.002098896               0.002895793               0.000796897               0.000000000               0.000000000               0.000000000               0.000000000              -0.002745069               0.006633650              -0.001687682              -0.001858603               0.002830729               0.000972126               0.000000000               0.000000000               0.000000000               0.000000000              -0.002124817               0.006570146              -0.001518552              -0.001618071               0.002729383               0.001111312               0.000000000               0.000000000               0.000000000               0.000000000              -0.001531487               0.006438994              -0.001370834              -0.001379179               0.002606036               0.001226857               0.000000000               0.000000000               0.000000000               0.000000000              -0.000975172               0.006265524              -0.001226966              -0.001148878               0.002471446               0.001322569               0.000000000               0.000000000               0.000000000               0.000000000              -0.000466311               0.006073328              -0.001075199              -0.000934031               0.002335766               0.001401735               0.000000000               0.000000000               0.000000000               0.000000000              -0.000019200               0.005880616              -0.000914644              -0.000742275               0.002207611               0.001465335               0.000000000               0.000000000               0.000000000               0.000000000               0.000347570               0.005694215              -0.000748154              -0.000581437               0.002091865               0.001510428               0.000000000               0.000000000               0.000000000               0.000000000               0.000610243               0.005508713              -0.000575171              -0.000459747               0.001989468               0.001529721               0.000000000               0.000000000               0.000000000               0.000000000               0.000753987               0.005328762              -0.000390812              -0.000383349               0.001904019               0.001520670               0.000000000               0.000000000               0.000000000               0.000000000               0.000774685               0.005159970              -0.000197406              -0.000354489               0.001838136               0.001483647               0.000000000               0.000000000               0.000000000               0.000000000               0.000728520               0.005063840              -0.000092445              -0.000359784               0.001807858               0.001448074               0.000000000               0.000000000               0.000000000               0.000000000              -0.009249088              -0.000236499               0.001390787              -0.003438843               0.001067440              -0.002371403               0.000000000               0.000000000               0.000000000               0.000000000              -0.007137444               0.001642110              -0.000427770              -0.002881802               0.001507960              -0.001373842               0.000000000               0.000000000               0.000000000               0.000000000              -0.005797122               0.003345864              -0.002012151              -0.002592149               0.001979324              -0.000612825               0.000000000               0.000000000               0.000000000               0.000000000              -0.004806137               0.004446090              -0.002360443              -0.002358058               0.002268033              -0.000090025               0.000000000               0.000000000               0.000000000               0.000000000              -0.003978585               0.005142912              -0.002302719              -0.002134829               0.002425896               0.000291067               0.000000000               0.000000000               0.000000000               0.000000000              -0.003247678               0.005579531              -0.002132345              -0.001915317               0.002498263               0.000582947               0.000000000               0.000000000               0.000000000               0.000000000              -0.002587004               0.005838314              -0.001949739              -0.001699912               0.002512722               0.000812810               0.000000000               0.000000000               0.000000000               0.000000000              -0.001972861               0.005973292              -0.001777029              -0.001486481               0.002486571               0.001000089               0.000000000               0.000000000               0.000000000               0.000000000              -0.001392416               0.006016951              -0.001617202              -0.001274272               0.002430387               0.001156115               0.000000000               0.000000000               0.000000000               0.000000000              -0.000836091               0.005991412              -0.001462269              -0.001062458               0.002351270               0.001288811               0.000000000               0.000000000               0.000000000               0.000000000              -0.000300334               0.005918286              -0.001303201              -0.000852410               0.002256878               0.001404469               0.000000000               0.000000000               0.000000000               0.000000000               0.000203983               0.005809688              -0.001138278              -0.000649716               0.002153115               0.001503399               0.000000000               0.000000000               0.000000000               0.000000000               0.000658234               0.005680760              -0.000963729              -0.000463257               0.002047986               0.001584730               0.000000000               0.000000000               0.000000000               0.000000000               0.001037939               0.005530822              -0.000768892              -0.000302125               0.001944297               0.001642172               0.000000000               0.000000000               0.000000000               0.000000000               0.001315038               0.005355859              -0.000547667              -0.000176343               0.001844050               0.001667706               0.000000000               0.000000000               0.000000000               0.000000000               0.001472592               0.005176282              -0.000291968              -0.000094813               0.001757015               0.001662201               0.000000000               0.000000000               0.000000000               0.000000000               0.001518208               0.005088166              -0.000153905              -0.000066693               0.001718269               0.001651576               0.000000000               0.000000000               0.000000000               0.000000000              -0.011421925              -0.000842297               0.001553146              -0.004177932               0.001111870              -0.003066062               0.000000000               0.000000000               0.000000000               0.000000000              -0.008313452               0.000612254              -0.000179775              -0.003194073               0.001268767              -0.001925306               0.000000000               0.000000000               0.000000000               0.000000000              -0.006082023               0.001871503              -0.001745275              -0.002514693               0.001462055              -0.001052638               0.000000000               0.000000000               0.000000000               0.000000000              -0.004731669               0.002962404              -0.002178317              -0.002144673               0.001702346              -0.000442326               0.000000000               0.000000000               0.000000000               0.000000000              -0.003761002               0.003800273              -0.002200111              -0.001885406               0.001895213               0.000009806               0.000000000               0.000000000               0.000000000               0.000000000              -0.002974700               0.004421624              -0.002086715              -0.001668212               0.002029930               0.000361718               0.000000000               0.000000000               0.000000000               0.000000000              -0.002297618               0.004869154              -0.001939941              -0.001470248               0.002113117               0.000642869               0.000000000               0.000000000               0.000000000               0.000000000              -0.001687084               0.005184679              -0.001788932              -0.001280739               0.002155121               0.000874382               0.000000000               0.000000000               0.000000000               0.000000000              -0.001115427               0.005399624              -0.001641747              -0.001093236               0.002164268               0.001071032               0.000000000               0.000000000               0.000000000               0.000000000              -0.000562434               0.005531398              -0.001499165              -0.000902336               0.002144559               0.001242223               0.000000000               0.000000000               0.000000000               0.000000000              -0.000018462               0.005591245              -0.001354814              -0.000705828               0.002099005               0.001393178               0.000000000               0.000000000               0.000000000               0.000000000               0.000520302               0.005594134              -0.001203937              -0.000504153               0.002032743               0.001528591               0.000000000               0.000000000               0.000000000               0.000000000               0.001044348               0.005552315              -0.001039994              -0.000302409               0.001951556               0.001649147               0.000000000               0.000000000               0.000000000               0.000000000               0.001540011               0.005468364              -0.000852247              -0.000106042               0.001858117               0.001752075               0.000000000               0.000000000               0.000000000               0.000000000               0.001987767               0.005340454              -0.000626672               0.000077855               0.001754182               0.001832037               0.000000000               0.000000000               0.000000000               0.000000000               0.002362976               0.005182006              -0.000345035               0.000238363               0.001647864               0.001886227               0.000000000               0.000000000               0.000000000               0.000000000               0.002583035               0.005119862              -0.000198274               0.000328652               0.001597053               0.001925705               0.000000000               0.000000000               0.000000000               0.000000000              -0.013235911              -0.001140372               0.001326023              -0.004820917               0.001226840              -0.003594077               0.000000000               0.000000000               0.000000000               0.000000000              -0.009321824              -0.000125619              -0.000027299              -0.003479979               0.001118112              -0.002361866               0.000000000               0.000000000               0.000000000               0.000000000              -0.006323427               0.000675739              -0.001281209              -0.002455750               0.001043822              -0.001411928               0.000000000               0.000000000               0.000000000               0.000000000              -0.004632109               0.001680291              -0.001678857              -0.001947075               0.001209113              -0.000737962               0.000000000               0.000000000               0.000000000               0.000000000              -0.003509590               0.002582497              -0.001744023              -0.001638905               0.001407124              -0.000231782               0.000000000               0.000000000               0.000000000               0.000000000              -0.002664592               0.003323304              -0.001686917              -0.001414632               0.001579300               0.000164668               0.000000000               0.000000000               0.000000000               0.000000000              -0.001966520               0.003911707              -0.001589716              -0.001226406               0.001712691               0.000486285               0.000000000               0.000000000               0.000000000               0.000000000              -0.001354032               0.004368362              -0.001479629              -0.001053805               0.001807374               0.000753569               0.000000000               0.000000000               0.000000000               0.000000000              -0.000783126               0.004721721              -0.001368960              -0.000883886               0.001868519               0.000984634               0.000000000               0.000000000               0.000000000               0.000000000              -0.000229855               0.004987569              -0.001257930              -0.000709641               0.001899053               0.001189412               0.000000000               0.000000000               0.000000000               0.000000000               0.000320888               0.005176779              -0.001144323              -0.000526764               0.001901164               0.001374400               0.000000000               0.000000000               0.000000000               0.000000000               0.000880796               0.005294968              -0.001027739              -0.000331572               0.001875496               0.001543923               0.000000000               0.000000000               0.000000000               0.000000000               0.001460182               0.005342645              -0.000901175              -0.000120263               0.001820951               0.001700689               0.000000000               0.000000000               0.000000000               0.000000000               0.002058177               0.005335953              -0.000750932               0.000104821               0.001743693               0.001848514               0.000000000               0.000000000               0.000000000               0.000000000               0.002667245               0.005278298              -0.000562473               0.000340426               0.001645940               0.001986366               0.000000000               0.000000000               0.000000000               0.000000000               0.003281248               0.005160160              -0.000315321               0.000585442               0.001524889               0.002110331               0.000000000               0.000000000               0.000000000               0.000000000               0.003714627               0.005133294              -0.000190838               0.000751316               0.001460642               0.002211958               0.000000000               0.000000000               0.000000000               0.000000000              -0.014449496              -0.001252946               0.000763281              -0.005261939               0.001336322              -0.003925617               0.000000000               0.000000000               0.000000000               0.000000000              -0.010010717              -0.000563211               0.000021366              -0.003683615               0.001040128              -0.002643487               0.000000000               0.000000000               0.000000000               0.000000000              -0.006493186              -0.000101600              -0.000676436              -0.002422243               0.000773542              -0.001648700               0.000000000               0.000000000               0.000000000               0.000000000              -0.004550394               0.000809687              -0.000915145              -0.001807607               0.000872425              -0.000935182               0.000000000               0.000000000               0.000000000               0.000000000              -0.003310513               0.001725760              -0.000968212              -0.001457160               0.001060966              -0.000396194               0.000000000               0.000000000               0.000000000               0.000000000              -0.002413721               0.002531666              -0.000949172              -0.001221601               0.001251080               0.000029479               0.000000000               0.000000000               0.000000000               0.000000000              -0.001698870               0.003203295              -0.000903620              -0.001037486               0.001413583               0.000376097               0.000000000               0.000000000               0.000000000               0.000000000              -0.001082278               0.003744354              -0.000847398              -0.000873897               0.001539404               0.000665507               0.000000000               0.000000000               0.000000000               0.000000000              -0.000511893               0.004181296              -0.000789633              -0.000714620               0.001631958               0.000917338               0.000000000               0.000000000               0.000000000               0.000000000               0.000042997               0.004532065              -0.000728030              -0.000550383               0.001694134               0.001143751               0.000000000               0.000000000               0.000000000               0.000000000               0.000606017               0.004808607              -0.000661795              -0.000373819               0.001727459               0.001353640               0.000000000               0.000000000               0.000000000               0.000000000               0.001190143               0.005009862              -0.000596939              -0.000179929               0.001729914               0.001549984               0.000000000               0.000000000               0.000000000               0.000000000               0.001805444               0.005132951              -0.000529351               0.000035422               0.001699159               0.001734581               0.000000000               0.000000000               0.000000000               0.000000000               0.002466294               0.005190643              -0.000443826               0.000276027               0.001638188               0.001914215               0.000000000               0.000000000               0.000000000               0.000000000               0.003185891               0.005184855              -0.000332661               0.000546597               0.001546069               0.002092665               0.000000000               0.000000000               0.000000000               0.000000000               0.003979403               0.005110805              -0.000187769               0.000853417               0.001419112               0.002272529               0.000000000               0.000000000               0.000000000               0.000000000               0.004580491               0.005122538              -0.000117883               0.001077356               0.001348377               0.002425733               0.000000000               0.000000000               0.000000000               0.000000000               0.000000000               0.000000000               0.000000000               0.000000000               0.000000000               0.000000000               0.000000000               0.000000000               0.000000000               0.000000000               0.000000000               0.000000000               0.000000000               0.000000000               0.000000000               0.000000000               0.000000000               0.000000000               0.000000000               0.000000000               0.000000000               0.000000000               0.000000000               0.000000000               0.000000000               0.000000000               0.000000000               0.000000000               0.000000000               0.000000000               0.000000000               0.000000000               0.000000000               0.000000000               0.000000000               0.000000000               0.000000000               0.000000000               0.000000000               0.000000000               0.000000000               0.000000000               0.000000000               0.000000000               0.000000000               0.000000000               0.000000000               0.000000000               0.000000000               0.000000000               0.000000000               0.000000000               0.000000000               0.000000000               0.000000000               0.000000000               0.000000000               0.000000000               0.000000000               0.000000000               0.000000000               0.000000000               0.000000000               0.000000000               0.000000000               0.000000000               0.000000000               0.000000000               0.000000000               0.000000000               0.000000000               0.000000000               0.000000000               0.000000000               0.000000000               0.000000000               0.000000000               0.000000000               0.000000000               0.000000000               0.000000000               0.000000000               0.000000000               0.000000000               0.000000000               0.000000000               0.000000000               0.000000000               0.000000000               0.000000000               0.000000000               0.000000000               0.000000000               0.000000000               0.000000000               0.000000000               0.000000000               0.000000000               0.000000000               0.000000000               0.000000000               0.000000000               0.000000000               0.000000000               0.000000000               0.000000000               0.000000000               0.000000000               0.000000000               0.000000000               0.000000000               0.000000000               0.000000000               0.000000000               0.000000000               0.000000000               0.000000000               0.000000000               0.000000000               0.000000000               0.000000000               0.000000000               0.000000000               0.000000000               0.000000000               0.000000000               0.000000000               0.000000000               0.000000000               0.000000000               0.000000000               0.000000000               0.000000000               0.000000000               0.000000000               0.000000000               0.000000000               0.000000000               0.000000000               0.000000000               0.000000000               0.000000000               0.000000000               0.000000000               0.000000000               0.000000000               0.000000000               0.000000000               0.000000000               0.000000000               0.000000000               0.000000000               0.000000000               0.000000000               0.000000000               0.000000000               0.000000000               0.000000000               0.000000000               0.000000000               0.000000000               0.000000000               0.000000000               0.000000000               0.000000000               0.000000000               0.000000000               0.000000000               0.000000000               0.000000000               0.000000000               0.000000000               0.000000000               0.000000000               0.000000000               0.000000000               0.000000000               0.000000000               0.000000000               0.000000000               0.000000000               0.000000000               0.000000000               0.000000000               0.000000000               0.000000000               0.000000000               0.000000000               0.000000000               0.000000000               0.000000000               0.000000000               0.000000000               0.000000000               0.000000000               0.000000000               0.000000000               0.000000000               0.000000000               0.000000000               0.000000000               0.000000000               0.000000000               0.000000000               0.000000000               0.000000000               0.000000000               0.000000000               0.000000000               0.000000000               0.000000000               0.000000000               0.000000000               0.000000000               0.000000000               0.000000000               0.000000000               0.000000000               0.000000000               0.000000000               0.000000000               0.000000000               0.000000000               0.000000000               0.000000000               0.000000000               0.000000000               0.000000000               0.000000000               0.000000000               0.000000000               0.000000000               0.000000000               0.000000000               0.000000000               0.000000000               0.000000000               0.000000000               0.000000000               0.000000000               0.000000000               0.000000000               0.000000000               0.000000000               0.000000000               0.000000000               0.000000000               0.000000000               0.000000000               0.000000000               0.000000000               0.000000000               0.000000000               0.000000000               0.000000000               0.000000000               0.000000000               0.000000000               0.000000000               0.000000000               0.000000000               0.000000000               0.000000000               0.000000000               0.000000000               0.000000000               0.000000000               0.000000000               0.000000000               0.000000000               0.000000000               0.000000000               0.000000000               0.000000000               0.000000000               0.000000000               0.000000000               0.000000000               0.000000000               0.000000000               0.000000000               0.000000000               0.000000000               0.000000000               0.000000000               0.000000000               0.000000000               0.000000000               0.000000000               0.000000000               0.000000000               0.000000000               0.000000000               0.000000000               0.000000000               0.000000000               0.000000000               0.000000000               0.000000000               0.000000000               0.000000000               0.000000000               0.000000000               0.000000000               0.000000000               0.000000000               0.000000000               0.000000000               0.000000000               0.000000000               0.000000000               0.000000000               0.000000000               0.000000000               0.000000000               0.000000000               0.000000000               0.000000000               0.000000000               0.000000000               0.000000000               0.000000000               0.000000000               0.000000000               0.000000000               0.000000000               0.000000000               0.000000000               0.000000000               0.000000000               0.000000000               0.000000000               0.000000000               0.000000000               0.000000000               0.000000000               0.000000000               0.000000000               0.000000000               0.000000000               0.002257016               0.022950775               0.001529478              -0.002022461               0.008324335               0.006301874               0.000000000               0.000000000               0.000000000               0.000000000               0.001999017               0.017623244               0.000659358              -0.001453271               0.006358780               0.004905509               0.000000000               0.000000000               0.000000000               0.000000000               0.002418943               0.013353723              -0.000195958              -0.000762110               0.004705233               0.003943123               0.000000000               0.000000000               0.000000000               0.000000000               0.002136484               0.010937802              -0.000539845              -0.000566042               0.003834578               0.003268536               0.000000000               0.000000000               0.000000000               0.000000000               0.001693490               0.009382921              -0.000663642              -0.000537805               0.003306877               0.002769072               0.000000000               0.000000000               0.000000000               0.000000000               0.001265650               0.008265054              -0.000690997              -0.000558512               0.002941161               0.002382649               0.000000000               0.000000000               0.000000000               0.000000000               0.000909847               0.007384766              -0.000677159              -0.000581902               0.002655531               0.002073629               0.000000000               0.000000000               0.000000000               0.000000000               0.000625623               0.006643162              -0.000649592              -0.000595785               0.002412960               0.001817175               0.000000000               0.000000000               0.000000000               0.000000000               0.000399742               0.005981692              -0.000618561              -0.000597807               0.002193146               0.001595339               0.000000000               0.000000000               0.000000000               0.000000000               0.000226889               0.005365456              -0.000581947              -0.000585597               0.001983666               0.001398069               0.000000000               0.000000000               0.000000000               0.000000000               0.000098131               0.004759541              -0.000537700              -0.000558142               0.001772545               0.001214403               0.000000000               0.000000000               0.000000000               0.000000000               0.000009446               0.004142706              -0.000490707              -0.000514295               0.001552320               0.001038025               0.000000000               0.000000000               0.000000000               0.000000000              -0.000046319               0.003501625              -0.000440710              -0.000455072               0.001318887               0.000863815               0.000000000               0.000000000               0.000000000               0.000000000              -0.000076546               0.002826423              -0.000378565              -0.000382007               0.001069467               0.000687460               0.000000000               0.000000000               0.000000000               0.000000000              -0.000079950               0.002104720              -0.000296428              -0.000293071               0.000799257               0.000506186               0.000000000               0.000000000               0.000000000               0.000000000              -0.000050086               0.001319770              -0.000172493              -0.000183753               0.000501170               0.000317417               0.000000000               0.000000000               0.000000000               0.000000000              -0.000088592               0.000733497              -0.000108065              -0.000124909               0.000286133               0.000161224               0.000000000               0.000000000               0.000000000               0.000000000               0.002381025               0.021475444               0.002817070              -0.001791543               0.007755590               0.005964047               0.000000000               0.000000000               0.000000000               0.000000000               0.001768230               0.016705896               0.001206480              -0.001425148               0.006043626               0.004618478               0.000000000               0.000000000               0.000000000               0.000000000               0.001814898               0.013005640              -0.000358638              -0.000945116               0.004650208               0.003705093               0.000000000               0.000000000               0.000000000               0.000000000               0.001407380               0.010869003              -0.000963329              -0.000830856               0.003899917               0.003069061               0.000000000               0.000000000               0.000000000               0.000000000               0.000952036               0.009459981              -0.001170255              -0.000825483               0.003428456               0.002602974               0.000000000               0.000000000               0.000000000               0.000000000               0.000564190               0.008424267              -0.001205703              -0.000841460               0.003088547               0.002247087               0.000000000               0.000000000               0.000000000               0.000000000               0.000269980               0.007591752              -0.001172866              -0.000847725               0.002813133               0.001965408               0.000000000               0.000000000               0.000000000               0.000000000               0.000058808               0.006873678              -0.001119012              -0.000837155               0.002570255               0.001733100               0.000000000               0.000000000               0.000000000               0.000000000              -0.000082818               0.006222776              -0.001061726              -0.000808902               0.002343872               0.001534970               0.000000000               0.000000000               0.000000000               0.000000000              -0.000170394               0.005608552              -0.000997828              -0.000764965               0.002124487               0.001359522               0.000000000               0.000000000               0.000000000               0.000000000              -0.000216254               0.005008364              -0.000921409              -0.000707139               0.001905151               0.001198012               0.000000000               0.000000000               0.000000000               0.000000000              -0.000226548               0.004412649              -0.000837769              -0.000636535               0.001683047               0.001046511               0.000000000               0.000000000               0.000000000               0.000000000              -0.000211256               0.003814632              -0.000747649              -0.000556049               0.001456881               0.000900832               0.000000000               0.000000000               0.000000000               0.000000000              -0.000174395               0.003215196              -0.000640864              -0.000467297               0.001227487               0.000760190               0.000000000               0.000000000               0.000000000               0.000000000              -0.000123987               0.002617109              -0.000499155              -0.000373633               0.000996905               0.000623272               0.000000000               0.000000000               0.000000000               0.000000000              -0.000067354               0.002022393              -0.000288888              -0.000278056               0.000766810               0.000488753               0.000000000               0.000000000               0.000000000               0.000000000              -0.000077847               0.001615925              -0.000175578              -0.000231183               0.000615697               0.000384515               0.000000000               0.000000000               0.000000000               0.000000000               0.002456277               0.019240901               0.003689746              -0.001484007               0.006908238               0.005424231               0.000000000               0.000000000               0.000000000               0.000000000               0.001356243               0.015339688               0.001576776              -0.001408867               0.005582800               0.004173933               0.000000000               0.000000000               0.000000000               0.000000000               0.000889555               0.012487377              -0.000444288              -0.001227336               0.004571529               0.003344193               0.000000000               0.000000000               0.000000000               0.000000000               0.000349463               0.010749251              -0.001177029              -0.001212605               0.003987249               0.002774644               0.000000000               0.000000000               0.000000000               0.000000000              -0.000081866               0.009536061              -0.001408222              -0.001222705               0.003586223               0.002363518               0.000000000               0.000000000               0.000000000               0.000000000              -0.000381056               0.008597565              -0.001434363              -0.001217589               0.003271689               0.002054100               0.000000000               0.000000000               0.000000000               0.000000000              -0.000565145               0.007814114              -0.001380792              -0.001188691               0.003000909               0.001812218               0.000000000               0.000000000               0.000000000               0.000000000              -0.000659245               0.007121802              -0.001305607              -0.001137440               0.002753057               0.001615617               0.000000000               0.000000000               0.000000000               0.000000000              -0.000678827               0.006485123              -0.001228900              -0.001065198               0.002516752               0.001451554               0.000000000               0.000000000               0.000000000               0.000000000              -0.000645369               0.005879802              -0.001144448              -0.000976987               0.002285576               0.001308590               0.000000000               0.000000000               0.000000000               0.000000000              -0.000575987               0.005298731              -0.001046952              -0.000878335               0.002059004               0.001180669               0.000000000               0.000000000               0.000000000               0.000000000              -0.000481924               0.004742909              -0.000939858              -0.000773584               0.001838815               0.001065231               0.000000000               0.000000000               0.000000000               0.000000000              -0.000372774               0.004216113              -0.000823220              -0.000666803               0.001627625               0.000960822               0.000000000               0.000000000               0.000000000               0.000000000              -0.000259490               0.003727295              -0.000689361              -0.000563220               0.001430159               0.000866939               0.000000000               0.000000000               0.000000000               0.000000000              -0.000156973               0.003291617              -0.000522809              -0.000470316               0.001253967               0.000783651               0.000000000               0.000000000               0.000000000               0.000000000              -0.000074140               0.002929022              -0.000296086              -0.000393929               0.001107641               0.000713711               0.000000000               0.000000000               0.000000000               0.000000000              -0.000051797               0.002730551              -0.000171083              -0.000360742               0.001030422               0.000669680               0.000000000               0.000000000               0.000000000               0.000000000               0.002343559               0.016534621               0.004064924              -0.001187993               0.005907482               0.004719489               0.000000000               0.000000000               0.000000000               0.000000000               0.000748836               0.013715409               0.001752807              -0.001433610               0.005049627               0.003616017               0.000000000               0.000000000               0.000000000               0.000000000              -0.000244435               0.011859247              -0.000420677              -0.001574065               0.004477731               0.002903666               0.000000000               0.000000000               0.000000000               0.000000000              -0.000857325               0.010555081              -0.001149369              -0.001640878               0.004065284               0.002424406               0.000000000               0.000000000               0.000000000               0.000000000              -0.001194306               0.009541317              -0.001355687              -0.001640526               0.003727249               0.002086723               0.000000000               0.000000000               0.000000000               0.000000000              -0.001348351               0.008694407              -0.001359566              -0.001592429               0.003428916               0.001836487               0.000000000               0.000000000               0.000000000               0.000000000              -0.001377088               0.007952986              -0.001292114              -0.001510528               0.003154478               0.001643950               0.000000000               0.000000000               0.000000000               0.000000000              -0.001316987               0.007286880              -0.001207512              -0.001404727               0.002897178               0.001492451               0.000000000               0.000000000               0.000000000               0.000000000              -0.001195401               0.006668528              -0.001120626              -0.001281839               0.002650100               0.001368261               0.000000000               0.000000000               0.000000000               0.000000000              -0.001032657               0.006085501              -0.001027417              -0.001147932               0.002411124               0.001263192               0.000000000               0.000000000               0.000000000               0.000000000              -0.000848772               0.005538679              -0.000922901              -0.001010622               0.002183082               0.001172460               0.000000000               0.000000000               0.000000000               0.000000000              -0.000659069               0.005038453              -0.000807245              -0.000876956               0.001971786               0.001094830               0.000000000               0.000000000               0.000000000               0.000000000              -0.000476050               0.004595680              -0.000682895              -0.000752977               0.001782870               0.001029893               0.000000000               0.000000000               0.000000000               0.000000000              -0.000311787               0.004226421              -0.000547005              -0.000645222               0.001623867               0.000978645               0.000000000               0.000000000               0.000000000               0.000000000              -0.000173452               0.003939892              -0.000392868              -0.000557530               0.001499128               0.000941598               0.000000000               0.000000000               0.000000000               0.000000000              -0.000074479               0.003754171              -0.000211308              -0.000497200               0.001417111               0.000919911               0.000000000               0.000000000               0.000000000               0.000000000              -0.000035922               0.003689619              -0.000112751              -0.000474672               0.001388085               0.000913413               0.000000000               0.000000000               0.000000000               0.000000000               0.001920986               0.013640871               0.003955779              -0.000984740               0.004875157               0.003890417               0.000000000               0.000000000               0.000000000               0.000000000              -0.000049613               0.012007129               0.001764964              -0.001519493               0.004508834               0.002989340               0.000000000               0.000000000               0.000000000               0.000000000              -0.001450661               0.011174445              -0.000263496              -0.001940799               0.004371710               0.002430912               0.000000000               0.000000000               0.000000000               0.000000000              -0.002022640               0.010273935              -0.000890154              -0.002042727               0.004105520               0.002062793               0.000000000               0.000000000               0.000000000               0.000000000              -0.002189601               0.009433858              -0.001048898              -0.002000328               0.003811364               0.001811036               0.000000000               0.000000000               0.000000000               0.000000000              -0.002151553               0.008662629              -0.001039056              -0.001889657               0.003517400               0.001627743               0.000000000               0.000000000               0.000000000               0.000000000              -0.001996047               0.007960810              -0.000975111              -0.001743615               0.003234782               0.001491167               0.000000000               0.000000000               0.000000000               0.000000000              -0.001771610               0.007318652              -0.000900917              -0.001579181               0.002965920               0.001386739               0.000000000               0.000000000               0.000000000               0.000000000              -0.001507578               0.006726241              -0.000821795              -0.001406119               0.002710764               0.001304645               0.000000000               0.000000000               0.000000000               0.000000000              -0.001228071               0.006176155              -0.000735674              -0.001232543               0.002469545               0.001237002               0.000000000               0.000000000               0.000000000               0.000000000              -0.000954116               0.005677736              -0.000638044              -0.001067508               0.002248396               0.001180888               0.000000000               0.000000000               0.000000000               0.000000000              -0.000703535               0.005240226              -0.000533870              -0.000918852               0.002053009               0.001134157               0.000000000               0.000000000               0.000000000               0.000000000              -0.000483214               0.004885843              -0.000429811              -0.000791934               0.001892576               0.001100642               0.000000000               0.000000000               0.000000000               0.000000000              -0.000302937               0.004621048              -0.000322784              -0.000691231               0.001770744               0.001079514               0.000000000               0.000000000               0.000000000               0.000000000              -0.000160351               0.004446144              -0.000212958              -0.000615898               0.001687333               0.001071434               0.000000000               0.000000000               0.000000000               0.000000000              -0.000062170               0.004361655              -0.000106691              -0.000568519               0.001643377               0.001074858               0.000000000               0.000000000               0.000000000               0.000000000              -0.000023949               0.004348502              -0.000053066              -0.000552542               0.001633667               0.001081125               0.000000000               0.000000000               0.000000000               0.000000000               0.001120747               0.010797983               0.003453625              -0.000929468               0.003909113               0.002979645               0.000000000               0.000000000               0.000000000               0.000000000              -0.000991742               0.010350100               0.001673204              -0.001665663               0.004005219               0.002339557               0.000000000               0.000000000               0.000000000               0.000000000              -0.002590385               0.010459801               0.000033876              -0.002278864               0.004246187               0.001967323               0.000000000               0.000000000               0.000000000               0.000000000              -0.002992173               0.009893223              -0.000444767              -0.002358712               0.004083945               0.001725233               0.000000000               0.000000000               0.000000000               0.000000000              -0.002931431               0.009192847              -0.000569640              -0.002248387               0.003813714               0.001565327               0.000000000               0.000000000               0.000000000               0.000000000              -0.002682158               0.008488654              -0.000572901              -0.002066886               0.003518485               0.001451599               0.000000000               0.000000000               0.000000000               0.000000000              -0.002344050               0.007828078              -0.000537954              -0.001857524               0.003228508               0.001370984               0.000000000               0.000000000               0.000000000               0.000000000              -0.001967110               0.007219436              -0.000492859              -0.001640092               0.002953152               0.001313060               0.000000000               0.000000000               0.000000000               0.000000000              -0.001582430               0.006657701              -0.000438450              -0.001425620               0.002694418               0.001268798               0.000000000               0.000000000               0.000000000               0.000000000              -0.001216030               0.006145076              -0.000376221              -0.001224143               0.002456386               0.001232243               0.000000000               0.000000000               0.000000000               0.000000000              -0.000889345               0.005699371              -0.000305217              -0.001045923               0.002248412               0.001202489               0.000000000               0.000000000               0.000000000               0.000000000              -0.000613382               0.005337027              -0.000235626              -0.000897145               0.002078039               0.001180895               0.000000000               0.000000000               0.000000000               0.000000000              -0.000389732               0.005070562              -0.000177655              -0.000779968               0.001950160               0.001170192               0.000000000               0.000000000               0.000000000               0.000000000              -0.000219851               0.004891692              -0.000122468              -0.000693904               0.001861849               0.001167945               0.000000000               0.000000000               0.000000000               0.000000000              -0.000101086               0.004788308              -0.000071975              -0.000636444               0.001808235               0.001171790               0.000000000               0.000000000               0.000000000               0.000000000              -0.000033604               0.004742651              -0.000032728              -0.000605431               0.001782678               0.001177247               0.000000000               0.000000000               0.000000000               0.000000000              -0.000016642               0.004731613              -0.000016667              -0.000597691               0.001776419               0.001178728               0.000000000               0.000000000               0.000000000               0.000000000              -0.000017860               0.008183486               0.002680453              -0.001029633               0.003071012               0.002041379               0.000000000               0.000000000               0.000000000               0.000000000              -0.002018433               0.008843447               0.001536423              -0.001862339               0.003568566               0.001706226               0.000000000               0.000000000               0.000000000               0.000000000              -0.003553832               0.009712505               0.000451979              -0.002546744               0.004086384               0.001539640               0.000000000               0.000000000               0.000000000               0.000000000              -0.003679824               0.009402945               0.000105339              -0.002555296               0.003986049               0.001430753               0.000000000               0.000000000               0.000000000               0.000000000              -0.003367505               0.008821934              -0.000026875              -0.002365550               0.003729132               0.001363582               0.000000000               0.000000000               0.000000000               0.000000000              -0.002917496               0.008192310              -0.000071285              -0.002118095               0.003436774               0.001318680               0.000000000               0.000000000               0.000000000               0.000000000              -0.002422010               0.007585326              -0.000081524              -0.001856415               0.003147222               0.001290807               0.000000000               0.000000000               0.000000000               0.000000000              -0.001919930               0.007018380              -0.000077129              -0.001597267               0.002871859               0.001274592               0.000000000               0.000000000               0.000000000               0.000000000              -0.001451611               0.006492082              -0.000060322              -0.001355861               0.002615959               0.001260098               0.000000000               0.000000000               0.000000000               0.000000000              -0.001034625               0.006028645              -0.000038224              -0.001141562               0.002390049               0.001248487               0.000000000               0.000000000               0.000000000               0.000000000              -0.000683572               0.005650988              -0.000018277              -0.000962711               0.002204548               0.001241837               0.000000000               0.000000000               0.000000000               0.000000000              -0.000412304               0.005371002              -0.000004826              -0.000825987               0.002065645               0.001239658               0.000000000               0.000000000               0.000000000               0.000000000              -0.000221603               0.005175821              -0.000002733              -0.000730077               0.001968615               0.001238539               0.000000000               0.000000000               0.000000000               0.000000000              -0.000096933               0.005049059              -0.000001192              -0.000667481               0.001905497               0.001238016               0.000000000               0.000000000               0.000000000               0.000000000              -0.000024020               0.004974905              -0.000000351              -0.000630869               0.001868575               0.001237706               0.000000000               0.000000000               0.000000000               0.000000000               0.000000411               0.004933694              -0.000002934              -0.000616556               0.001850067               0.001233511               0.000000000               0.000000000               0.000000000               0.000000000              -0.000005662               0.004915229              -0.000006465              -0.000616525               0.001843902               0.001227376               0.000000000               0.000000000               0.000000000               0.000000000              -0.001347296               0.005998847               0.001760263              -0.001255090               0.002417958               0.001162869               0.000000000               0.000000000               0.000000000               0.000000000              -0.003021777               0.007504724               0.001392441              -0.002071252               0.003191967               0.001120715               0.000000000               0.000000000               0.000000000               0.000000000              -0.004311814               0.008955167               0.000945706              -0.002736320               0.003897132               0.001160813               0.000000000               0.000000000               0.000000000               0.000000000              -0.004148514               0.008911855               0.000681388              -0.002669668               0.003860478               0.001190810               0.000000000               0.000000000               0.000000000               0.000000000              -0.003629424               0.008477506               0.000511942              -0.002420716               0.003632713               0.001211996               0.000000000               0.000000000               0.000000000               0.000000000              -0.003022350               0.007946531               0.000408270              -0.002126692               0.003357715               0.001231022               0.000000000               0.000000000               0.000000000               0.000000000              -0.002408829               0.007410483               0.000346614              -0.001829617               0.003080008               0.001250392               0.000000000               0.000000000               0.000000000               0.000000000              -0.001817352               0.006893679               0.000305699              -0.001543213               0.002812274               0.001269061               0.000000000               0.000000000               0.000000000               0.000000000              -0.001284144               0.006408805               0.000274227              -0.001282651               0.002563797               0.001281146               0.000000000               0.000000000               0.000000000               0.000000000              -0.000827837               0.005992464               0.000242694              -0.001059494               0.002350633               0.001291138               0.000000000               0.000000000               0.000000000               0.000000000              -0.000460559               0.005668229               0.000203120              -0.000881236               0.002183136               0.001301900               0.000000000               0.000000000               0.000000000               0.000000000              -0.000200408               0.005431626               0.000159270              -0.000754104               0.002061892               0.001307788               0.000000000               0.000000000               0.000000000               0.000000000              -0.000043739               0.005265035               0.000114098              -0.000674530               0.001979838               0.001305308               0.000000000               0.000000000               0.000000000               0.000000000               0.000030769               0.005145469               0.000070691              -0.000631644               0.001925687               0.001294043               0.000000000               0.000000000               0.000000000               0.000000000               0.000048324               0.005065451               0.000035507              -0.000615058               0.001893486               0.001278428               0.000000000               0.000000000               0.000000000               0.000000000               0.000029518               0.005012204               0.000009184              -0.000615455               0.001875869               0.001260415               0.000000000               0.000000000               0.000000000               0.000000000               0.000008017               0.004987349              -0.000003509              -0.000620411               0.001869237               0.001248826               0.000000000               0.000000000               0.000000000               0.000000000              -0.002872235               0.004001691               0.000806555              -0.001577296               0.001859649               0.000282352               0.000000000               0.000000000               0.000000000               0.000000000              -0.003871522               0.005954860               0.001233827              -0.002196173               0.002716991               0.000520818               0.000000000               0.000000000               0.000000000               0.000000000              -0.004777560               0.007820273               0.001456418              -0.002769113               0.003529769               0.000760656               0.000000000               0.000000000               0.000000000               0.000000000              -0.004457309               0.008171882               0.001282984              -0.002692970               0.003621590               0.000928620               0.000000000               0.000000000               0.000000000               0.000000000              -0.003854890               0.008020793               0.001077900              -0.002448177               0.003489630               0.001041453               0.000000000               0.000000000               0.000000000               0.000000000              -0.003196382               0.007705828               0.000911209              -0.002161867               0.003289206               0.001127339               0.000000000               0.000000000               0.000000000               0.000000000              -0.002547320               0.007332737               0.000792676              -0.001871833               0.003068165               0.001196333               0.000000000               0.000000000               0.000000000               0.000000000              -0.001929289               0.006934913               0.000701098              -0.001590344               0.002841729               0.001251385               0.000000000               0.000000000               0.000000000               0.000000000              -0.001366974               0.006532073               0.000621087              -0.001329121               0.002620376               0.001291255               0.000000000               0.000000000               0.000000000               0.000000000              -0.000873830               0.006163462               0.000542372              -0.001098116               0.002420505               0.001322389               0.000000000               0.000000000               0.000000000               0.000000000              -0.000468113               0.005852529               0.000451629              -0.000907106               0.002253192               0.001346086               0.000000000               0.000000000               0.000000000               0.000000000              -0.000166376               0.005609239               0.000354717              -0.000763544               0.002124242               0.001360698               0.000000000               0.000000000               0.000000000               0.000000000               0.000023862               0.005419622               0.000258932              -0.000668503               0.002029357               0.001360854               0.000000000               0.000000000               0.000000000               0.000000000               0.000116050               0.005269434               0.000169870              -0.000615159               0.001961513               0.001346354               0.000000000               0.000000000               0.000000000               0.000000000               0.000131875               0.005150868               0.000094307              -0.000594404               0.001915073               0.001320669               0.000000000               0.000000000               0.000000000               0.000000000               0.000094776               0.005059657               0.000036156              -0.000596915               0.001885507               0.001288592               0.000000000               0.000000000               0.000000000               0.000000000               0.000054338               0.005014207               0.000006645              -0.000606398               0.001873518               0.001267121               0.000000000               0.000000000               0.000000000               0.000000000              -0.004787997               0.002209297              -0.000102331              -0.002071657               0.001426975              -0.000644682               0.000000000               0.000000000               0.000000000               0.000000000              -0.004829305               0.004390241               0.001012166              -0.002359764               0.002249986              -0.000109778               0.000000000               0.000000000               0.000000000               0.000000000              -0.005163383               0.006470187               0.001860040              -0.002745036               0.003071719               0.000326683               0.000000000               0.000000000               0.000000000               0.000000000              -0.004708026               0.007195383               0.001846517              -0.002664926               0.003286745               0.000621819               0.000000000               0.000000000               0.000000000               0.000000000              -0.004055981               0.007369924               0.001646102              -0.002442228               0.003270692               0.000828464               0.000000000               0.000000000               0.000000000               0.000000000              -0.003381550               0.007311979               0.001436522              -0.002182073               0.003164660               0.000982586               0.000000000               0.000000000               0.000000000               0.000000000              -0.002725976               0.007138967               0.001265682              -0.001914608               0.003017834               0.001103227               0.000000000               0.000000000               0.000000000               0.000000000              -0.002100954               0.006891742               0.001126979              -0.001649322               0.002846998               0.001197677               0.000000000               0.000000000               0.000000000               0.000000000              -0.001512224               0.006606818               0.001007170              -0.001392933               0.002666561               0.001273628               0.000000000               0.000000000               0.000000000               0.000000000              -0.000976839               0.006313799               0.000892547              -0.001155537               0.002489758               0.001334221               0.000000000               0.000000000               0.000000000               0.000000000              -0.000512112               0.006039760               0.000764525              -0.000947010               0.002328903               0.001381893               0.000000000               0.000000000               0.000000000               0.000000000              -0.000134743               0.005803425               0.000626249              -0.000775955               0.002193107               0.001417152               0.000000000               0.000000000               0.000000000               0.000000000               0.000137310               0.005598275               0.000486360              -0.000648292               0.002082170               0.001433878               0.000000000               0.000000000               0.000000000               0.000000000               0.000300386               0.005416409               0.000350808              -0.000564405               0.001993587               0.001429182               0.000000000               0.000000000               0.000000000               0.000000000               0.000358634               0.005252662               0.000221526              -0.000522094               0.001924901               0.001402807               0.000000000               0.000000000               0.000000000               0.000000000               0.000322611               0.005114052               0.000103113              -0.000518276               0.001877426               0.001359150               0.000000000               0.000000000               0.000000000               0.000000000               0.000259139               0.005036117               0.000038711              -0.000532336               0.001856134               0.001323798               0.000000000               0.000000000               0.000000000               0.000000000              -0.006964086               0.000771037              -0.000874104              -0.002707909               0.001159641              -0.001548268               0.000000000               0.000000000               0.000000000               0.000000000              -0.005938831               0.002925863               0.000725132              -0.002592790               0.001839539              -0.000753252               0.000000000               0.000000000               0.000000000               0.000000000              -0.005491831               0.004933714               0.002051347              -0.002676145               0.002536602              -0.000139543               0.000000000               0.000000000               0.000000000               0.000000000              -0.004814732               0.005915115               0.002233582              -0.002544908               0.002819987               0.000275079               0.000000000               0.000000000               0.000000000               0.000000000              -0.004093913               0.006386072               0.002091047              -0.002333471               0.002906492               0.000573021               0.000000000               0.000000000               0.000000000               0.000000000              -0.003400886               0.006588551               0.001882071              -0.002098896               0.002895793               0.000796897               0.000000000               0.000000000               0.000000000               0.000000000              -0.002745069               0.006633650               0.001687682              -0.001858603               0.002830729               0.000972126               0.000000000               0.000000000               0.000000000               0.000000000              -0.002124817               0.006570146               0.001518552              -0.001618071               0.002729383               0.001111312               0.000000000               0.000000000               0.000000000               0.000000000              -0.001531487               0.006438994               0.001370834              -0.001379179               0.002606036               0.001226857               0.000000000               0.000000000               0.000000000               0.000000000              -0.000975172               0.006265524               0.001226966              -0.001148878               0.002471446               0.001322569               0.000000000               0.000000000               0.000000000               0.000000000              -0.000466311               0.006073328               0.001075199              -0.000934031               0.002335766               0.001401735               0.000000000               0.000000000               0.000000000               0.000000000              -0.000019200               0.005880616               0.000914644              -0.000742275               0.002207611               0.001465335               0.000000000               0.000000000               0.000000000               0.000000000               0.000347570               0.005694215               0.000748154              -0.000581437               0.002091865               0.001510428               0.000000000               0.000000000               0.000000000               0.000000000               0.000610243               0.005508713               0.000575171              -0.000459747               0.001989468               0.001529721               0.000000000               0.000000000               0.000000000               0.000000000               0.000753987               0.005328762               0.000390812              -0.000383349               0.001904019               0.001520670               0.000000000               0.000000000               0.000000000               0.000000000               0.000774685               0.005159970               0.000197406              -0.000354489               0.001838136               0.001483647               0.000000000               0.000000000               0.000000000               0.000000000               0.000728520               0.005063840               0.000092445              -0.000359784               0.001807858               0.001448074               0.000000000               0.000000000               0.000000000               0.000000000              -0.009249088              -0.000236499              -0.001390787              -0.003438843               0.001067440              -0.002371403               0.000000000               0.000000000               0.000000000               0.000000000              -0.007137444               0.001642110               0.000427770              -0.002881802               0.001507960              -0.001373842               0.000000000               0.000000000               0.000000000               0.000000000              -0.005797122               0.003345864               0.002012151              -0.002592149               0.001979324              -0.000612825               0.000000000               0.000000000               0.000000000               0.000000000              -0.004806137               0.004446090               0.002360443              -0.002358058               0.002268033              -0.000090025               0.000000000               0.000000000               0.000000000               0.000000000              -0.003978585               0.005142912               0.002302719              -0.002134829               0.002425896               0.000291067               0.000000000               0.000000000               0.000000000               0.000000000              -0.003247678               0.005579531               0.002132345              -0.001915317               0.002498263               0.000582947               0.000000000               0.000000000               0.000000000               0.000000000              -0.002587004               0.005838314               0.001949739              -0.001699912               0.002512722               0.000812810               0.000000000               0.000000000               0.000000000               0.000000000              -0.001972861               0.005973292               0.001777029              -0.001486481               0.002486571               0.001000089               0.000000000               0.000000000               0.000000000               0.000000000              -0.001392416               0.006016951               0.001617202              -0.001274272               0.002430387               0.001156115               0.000000000               0.000000000               0.000000000               0.000000000              -0.000836091               0.005991412               0.001462269              -0.001062458               0.002351270               0.001288811               0.000000000               0.000000000               0.000000000               0.000000000              -0.000300334               0.005918286               0.001303201              -0.000852410               0.002256878               0.001404469               0.000000000               0.000000000               0.000000000               0.000000000               0.000203983               0.005809688               0.001138278              -0.000649716               0.002153115               0.001503399               0.000000000               0.000000000               0.000000000               0.000000000               0.000658234               0.005680760               0.000963729              -0.000463257               0.002047986               0.001584730               0.000000000               0.000000000               0.000000000               0.000000000               0.001037939               0.005530822               0.000768892              -0.000302125               0.001944297               0.001642172               0.000000000               0.000000000               0.000000000               0.000000000               0.001315038               0.005355859               0.000547667              -0.000176343               0.001844050               0.001667706               0.000000000               0.000000000               0.000000000               0.000000000               0.001472592               0.005176282               0.000291968              -0.000094813               0.001757015               0.001662201               0.000000000               0.000000000               0.000000000               0.000000000               0.001518208               0.005088166               0.000153905              -0.000066693               0.001718269               0.001651576               0.000000000               0.000000000               0.000000000               0.000000000              -0.011421925              -0.000842297              -0.001553146              -0.004177932               0.001111870              -0.003066062               0.000000000               0.000000000               0.000000000               0.000000000              -0.008313452               0.000612254               0.000179775              -0.003194073               0.001268767              -0.001925306               0.000000000               0.000000000               0.000000000               0.000000000              -0.006082023               0.001871503               0.001745275              -0.002514693               0.001462055              -0.001052638               0.000000000               0.000000000               0.000000000               0.000000000              -0.004731669               0.002962404               0.002178317              -0.002144673               0.001702346              -0.000442326               0.000000000               0.000000000               0.000000000               0.000000000              -0.003761002               0.003800273               0.002200111              -0.001885406               0.001895213               0.000009806               0.000000000               0.000000000               0.000000000               0.000000000              -0.002974700               0.004421624               0.002086715              -0.001668212               0.002029930               0.000361718               0.000000000               0.000000000               0.000000000               0.000000000              -0.002297618               0.004869154               0.001939941              -0.001470248               0.002113117               0.000642869               0.000000000               0.000000000               0.000000000               0.000000000              -0.001687084               0.005184679               0.001788932              -0.001280739               0.002155121               0.000874382               0.000000000               0.000000000               0.000000000               0.000000000              -0.001115427               0.005399624               0.001641747              -0.001093236               0.002164268               0.001071032               0.000000000               0.000000000               0.000000000               0.000000000              -0.000562434               0.005531398               0.001499165              -0.000902336               0.002144559               0.001242223               0.000000000               0.000000000               0.000000000               0.000000000              -0.000018462               0.005591245               0.001354814              -0.000705828               0.002099005               0.001393178               0.000000000               0.000000000               0.000000000               0.000000000               0.000520302               0.005594134               0.001203937              -0.000504153               0.002032743               0.001528591               0.000000000               0.000000000               0.000000000               0.000000000               0.001044348               0.005552315               0.001039994              -0.000302409               0.001951556               0.001649147               0.000000000               0.000000000               0.000000000               0.000000000               0.001540011               0.005468364               0.000852247              -0.000106042               0.001858117               0.001752075               0.000000000               0.000000000               0.000000000               0.000000000               0.001987767               0.005340454               0.000626672               0.000077855               0.001754182               0.001832037               0.000000000               0.000000000               0.000000000               0.000000000               0.002362976               0.005182006               0.000345035               0.000238363               0.001647864               0.001886227               0.000000000               0.000000000               0.000000000               0.000000000               0.002583035               0.005119862               0.000198274               0.000328652               0.001597053               0.001925705               0.000000000               0.000000000               0.000000000               0.000000000              -0.013235911              -0.001140372              -0.001326023              -0.004820917               0.001226840              -0.003594077               0.000000000               0.000000000               0.000000000               0.000000000              -0.009321824              -0.000125619               0.000027299              -0.003479979               0.001118112              -0.002361866               0.000000000               0.000000000               0.000000000               0.000000000              -0.006323427               0.000675739               0.001281209              -0.002455750               0.001043822              -0.001411928               0.000000000               0.000000000               0.000000000               0.000000000              -0.004632109               0.001680291               0.001678857              -0.001947075               0.001209113              -0.000737962               0.000000000               0.000000000               0.000000000               0.000000000              -0.003509590               0.002582497               0.001744023              -0.001638905               0.001407124              -0.000231782               0.000000000               0.000000000               0.000000000               0.000000000              -0.002664592               0.003323304               0.001686917              -0.001414632               0.001579300               0.000164668               0.000000000               0.000000000               0.000000000               0.000000000              -0.001966520               0.003911707               0.001589716              -0.001226406               0.001712691               0.000486285               0.000000000               0.000000000               0.000000000               0.000000000              -0.001354032               0.004368362               0.001479629              -0.001053805               0.001807374               0.000753569               0.000000000               0.000000000               0.000000000               0.000000000              -0.000783126               0.004721721               0.001368960              -0.000883886               0.001868519               0.000984634               0.000000000               0.000000000               0.000000000               0.000000000              -0.000229855               0.004987569               0.001257930              -0.000709641               0.001899053               0.001189412               0.000000000               0.000000000               0.000000000               0.000000000               0.000320888               0.005176779               0.001144323              -0.000526764               0.001901164               0.001374400               0.000000000               0.000000000               0.000000000               0.000000000               0.000880796               0.005294968               0.001027739              -0.000331572               0.001875496               0.001543923               0.000000000               0.000000000               0.000000000               0.000000000               0.001460182               0.005342645               0.000901175              -0.000120263               0.001820951               0.001700689               0.000000000               0.000000000               0.000000000               0.000000000               0.002058177               0.005335953               0.000750932               0.000104821               0.001743693               0.001848514               0.000000000               0.000000000               0.000000000               0.000000000               0.002667245               0.005278298               0.000562473               0.000340426               0.001645940               0.001986366               0.000000000               0.000000000               0.000000000               0.000000000               0.003281248               0.005160160               0.000315321               0.000585442               0.001524889               0.002110331               0.000000000               0.000000000               0.000000000               0.000000000               0.003714627               0.005133294               0.000190838               0.000751316               0.001460642               0.002211958               0.000000000               0.000000000               0.000000000               0.000000000              -0.014449496              -0.001252946              -0.000763281              -0.005261939               0.001336322              -0.003925617               0.000000000               0.000000000               0.000000000               0.000000000              -0.010010717              -0.000563211              -0.000021366              -0.003683615               0.001040128              -0.002643487               0.000000000               0.000000000               0.000000000               0.000000000              -0.006493186              -0.000101600               0.000676436              -0.002422243               0.000773542              -0.001648700               0.000000000               0.000000000               0.000000000               0.000000000              -0.004550394               0.000809687               0.000915145              -0.001807607               0.000872425              -0.000935182               0.000000000               0.000000000               0.000000000               0.000000000              -0.003310513               0.001725760               0.000968212              -0.001457160               0.001060966              -0.000396194               0.000000000               0.000000000               0.000000000               0.000000000              -0.002413721               0.002531666               0.000949172              -0.001221601               0.001251080               0.000029479               0.000000000               0.000000000               0.000000000               0.000000000              -0.001698870               0.003203295               0.000903620              -0.001037486               0.001413583               0.000376097               0.000000000               0.000000000               0.000000000               0.000000000              -0.001082278               0.003744354               0.000847398              -0.000873897               0.001539404               0.000665507               0.000000000               0.000000000               0.000000000               0.000000000              -0.000511893               0.004181296               0.000789633              -0.000714620               0.001631958               0.000917338               0.000000000               0.000000000               0.000000000               0.000000000               0.000042997               0.004532065               0.000728030              -0.000550383               0.001694134               0.001143751               0.000000000               0.000000000               0.000000000               0.000000000               0.000606017               0.004808607               0.000661795              -0.000373819               0.001727459               0.001353640               0.000000000               0.000000000               0.000000000               0.000000000               0.001190143               0.005009862               0.000596939              -0.000179929               0.001729914               0.001549984               0.000000000               0.000000000               0.000000000               0.000000000               0.001805444               0.005132951               0.000529351               0.000035422               0.001699159               0.001734581               0.000000000               0.000000000               0.000000000               0.000000000               0.002466294               0.005190643               0.000443826               0.000276027               0.001638188               0.001914215               0.000000000               0.000000000               0.000000000               0.000000000               0.003185891               0.005184855               0.000332661               0.000546597               0.001546069               0.002092665               0.000000000               0.000000000               0.000000000               0.000000000               0.003979403               0.005110805               0.000187769               0.000853417               0.001419112               0.002272529               0.000000000               0.000000000               0.000000000               0.000000000               0.004580491               0.005122538               0.000117883               0.001077356               0.001348377               0.002425733               0.000000000               0.000000000               0.000000000               0.000000000               0.000000000               0.000000000               0.000000000               0.000000000               0.000000000               0.000000000               0.000000000               0.000000000               0.000000000               0.000000000               0.000000000               0.000000000               0.000000000               0.000000000               0.000000000               0.000000000               0.000000000               0.000000000               0.000000000               0.000000000               0.000000000               0.000000000               0.000000000               0.000000000               0.000000000               0.000000000               0.000000000               0.000000000               0.000000000               0.000000000               0.000000000               0.000000000               0.000000000               0.000000000               0.000000000               0.000000000               0.000000000               0.000000000               0.000000000               0.000000000               0.000000000               0.000000000               0.000000000               0.000000000               0.000000000               0.000000000               0.000000000               0.000000000               0.000000000               0.000000000               0.000000000               0.000000000               0.000000000               0.000000000               0.000000000               0.000000000               0.000000000               0.000000000               0.000000000               0.000000000               0.000000000               0.000000000               0.000000000               0.000000000               0.000000000               0.000000000               0.000000000               0.000000000               0.000000000               0.000000000               0.000000000               0.000000000               0.000000000               0.000000000               0.000000000               0.000000000               0.000000000               0.000000000               0.000000000               0.000000000               0.000000000               0.000000000               0.000000000               0.000000000               0.000000000               0.000000000               0.000000000               0.000000000               0.000000000               0.000000000               0.000000000               0.000000000               0.000000000               0.000000000               0.000000000               0.000000000               0.000000000               0.000000000               0.000000000               0.000000000               0.000000000               0.000000000               0.000000000               0.000000000               0.000000000               0.000000000               0.000000000               0.000000000               0.000000000               0.000000000               0.000000000               0.000000000               0.000000000               0.000000000               0.000000000               0.000000000               0.000000000               0.000000000               0.000000000               0.000000000               0.000000000               0.000000000               0.000000000               0.000000000               0.000000000               0.000000000               0.000000000               0.000000000               0.000000000               0.000000000               0.000000000               0.000000000               0.000000000               0.000000000               0.000000000               0.000000000               0.000000000               0.000000000               0.000000000               0.000000000               0.000000000               0.000000000               0.000000000               0.000000000               0.000000000               0.000000000               0.000000000               0.000000000               0.000000000               0.000000000               0.000000000               0.000000000               0.000000000               0.000000000               0.000000000               0.000000000               0.000000000               0.000000000               0.000000000               0.000000000               0.000000000               0.000000000               0.000000000               0.000000000               0.000000000               0.000000000               0.000000000               0.000000000               0.000000000               0.000000000 </DataArray>
</PointData>
</Piece>
</UnstructuredGrid> </VTKFile>
