<?xml version="1.0"?>
<VTKFile type="UnstructuredGrid" version="0.1">
<UnstructuredGrid>
<Piece NumberOfPoints="      1156" NumberOfCells="      1024">
<Points>
<DataArray type="Float64"                                    Name="coordinates"                                                      NumberOfComponents=" 3" format="ascii">
              0.133000000               0.000000000               0.000000000               0.155937500               0.000000000               0.000000000               0.178875000               0.000000000               0.000000000               0.201812500               0.000000000               0.000000000               0.224750000               0.000000000               0.000000000               0.247687500               0.000000000               0.000000000               0.270625000               0.000000000               0.000000000               0.293562500               0.000000000               0.000000000               0.316500000               0.000000000               0.000000000               0.339437500               0.000000000               0.000000000               0.362375000               0.000000000               0.000000000               0.385312500               0.000000000               0.000000000               0.408250000               0.000000000               0.000000000               0.431187500               0.000000000               0.000000000               0.454125000               0.000000000               0.000000000               0.477062500               0.000000000               0.000000000               0.500000000               0.000000000               0.000000000               0.132359569               0.013036280               0.000000000               0.155337096               0.016127762               0.000000000               0.178314623               0.019219245               0.000000000               0.201292150               0.022310727               0.000000000               0.224269676               0.025402210               0.000000000               0.247247203               0.028493692               0.000000000               0.270224730               0.031585175               0.000000000               0.293202257               0.034676657               0.000000000               0.316179784               0.037768140               0.000000000               0.339157311               0.040859622               0.000000000               0.362134838               0.043951105               0.000000000               0.385112365               0.047042587               0.000000000               0.408089892               0.050134070               0.000000000               0.431067419               0.053225552               0.000000000               0.454044946               0.056317035               0.000000000               0.477022473               0.059408517               0.000000000               0.500000000               0.062500000               0.000000000               0.130444442               0.025947013               0.000000000               0.153541665               0.032137825               0.000000000               0.176638887               0.038328636               0.000000000               0.199736109               0.044519448               0.000000000               0.222833332               0.050710260               0.000000000               0.245930554               0.056901071               0.000000000               0.269027776               0.063091883               0.000000000               0.292124999               0.069282695               0.000000000               0.315222221               0.075473506               0.000000000               0.338319444               0.081664318               0.000000000               0.361416666               0.087855130               0.000000000               0.384513888               0.094045942               0.000000000               0.407611111               0.100236753               0.000000000               0.430708333               0.106427565               0.000000000               0.453805555               0.112618377               0.000000000               0.476902778               0.118809188               0.000000000               0.500000000               0.125000000               0.000000000               0.127273065               0.038607862               0.000000000               0.150568498               0.047913621               0.000000000               0.173863932               0.057219379               0.000000000               0.197159365               0.066525138               0.000000000               0.220454798               0.075830897               0.000000000               0.243750232               0.085136655               0.000000000               0.267045665               0.094442414               0.000000000               0.290341099               0.103748172               0.000000000               0.313636532               0.113053931               0.000000000               0.336931966               0.122359690               0.000000000               0.360227399               0.131665448               0.000000000               0.383522833               0.140971207               0.000000000               0.406818266               0.150276966               0.000000000               0.430113700               0.159582724               0.000000000               0.453409133               0.168888483               0.000000000               0.476704567               0.178194241               0.000000000               0.500000000               0.187500000               0.000000000               0.122875978               0.050896897               0.000000000               0.146446229               0.063340840               0.000000000               0.170016481               0.075784784               0.000000000               0.193586732               0.088228728               0.000000000               0.217156983               0.100672672               0.000000000               0.240727235               0.113116616               0.000000000               0.264297486               0.125560560               0.000000000               0.287867738               0.138004504               0.000000000               0.311437989               0.150448448               0.000000000               0.335008240               0.162892392               0.000000000               0.358578492               0.175336336               0.000000000               0.382148743               0.187780280               0.000000000               0.405718994               0.200224224               0.000000000               0.429289246               0.212668168               0.000000000               0.452859497               0.225112112               0.000000000               0.476429749               0.237556056               0.000000000               0.500000000               0.250000000               0.000000000               0.117295528               0.062695766               0.000000000               0.141214558               0.078308531               0.000000000               0.165133587               0.093921295               0.000000000               0.189052617               0.109534060               0.000000000               0.212971646               0.125146824               0.000000000               0.236890676               0.140759589               0.000000000               0.260809705               0.156372354               0.000000000               0.284728735               0.171985118               0.000000000               0.308647764               0.187597883               0.000000000               0.332566794               0.203210648               0.000000000               0.356485823               0.218823412               0.000000000               0.380404853               0.234436177               0.000000000               0.404323882               0.250048941               0.000000000               0.428242912               0.265661706               0.000000000               0.452161941               0.281274471               0.000000000               0.476080971               0.296887235               0.000000000               0.500000000               0.312500000               0.000000000               0.110585458               0.073890841               0.000000000               0.134923867               0.092710163               0.000000000               0.159262276               0.111529486               0.000000000               0.183600685               0.130348808               0.000000000               0.207939094               0.149168131               0.000000000               0.232277503               0.167987453               0.000000000               0.256615912               0.186806776               0.000000000               0.280954320               0.205626098               0.000000000               0.305292729               0.224445420               0.000000000               0.329631138               0.243264743               0.000000000               0.353969547               0.262084065               0.000000000               0.378307956               0.280903388               0.000000000               0.402646365               0.299722710               0.000000000               0.426984773               0.318542033               0.000000000               0.451323182               0.337361355               0.000000000               0.475661591               0.356180678               0.000000000               0.500000000               0.375000000               0.000000000               0.102810390               0.084374307               0.000000000               0.127634741               0.106444663               0.000000000               0.152459092               0.128515018               0.000000000               0.177283442               0.150585374               0.000000000               0.202107793               0.172655730               0.000000000               0.226932143               0.194726086               0.000000000               0.251756494               0.216796442               0.000000000               0.276580845               0.238866798               0.000000000               0.301405195               0.260937153               0.000000000               0.326229546               0.283007509               0.000000000               0.351053896               0.305077865               0.000000000               0.375878247               0.327148221               0.000000000               0.400702598               0.349218577               0.000000000               0.425526948               0.371288933               0.000000000               0.450351299               0.393359288               0.000000000               0.475175649               0.415429644               0.000000000               0.500000000               0.437500000               0.000000000               0.094045202               0.094045202               0.000000000               0.119417377               0.119417377               0.000000000               0.144789552               0.144789552               0.000000000               0.170161727               0.170161727               0.000000000               0.195533901               0.195533901               0.000000000               0.220906076               0.220906076               0.000000000               0.246278251               0.246278251               0.000000000               0.271650426               0.271650426               0.000000000               0.297022601               0.297022601               0.000000000               0.322394776               0.322394776               0.000000000               0.347766951               0.347766951               0.000000000               0.373139126               0.373139126               0.000000000               0.398511300               0.398511300               0.000000000               0.423883475               0.423883475               0.000000000               0.449255650               0.449255650               0.000000000               0.474627825               0.474627825               0.000000000               0.500000000               0.500000000               0.000000000               0.084374307               0.102810390               0.000000000               0.106444663               0.127634741               0.000000000               0.128515018               0.152459092               0.000000000               0.150585374               0.177283442               0.000000000               0.172655730               0.202107793               0.000000000               0.194726086               0.226932143               0.000000000               0.216796442               0.251756494               0.000000000               0.238866798               0.276580845               0.000000000               0.260937153               0.301405195               0.000000000               0.283007509               0.326229546               0.000000000               0.305077865               0.351053896               0.000000000               0.327148221               0.375878247               0.000000000               0.349218577               0.400702598               0.000000000               0.371288933               0.425526948               0.000000000               0.393359288               0.450351299               0.000000000               0.415429644               0.475175649               0.000000000               0.437500000               0.500000000               0.000000000               0.073890841               0.110585458               0.000000000               0.092710163               0.134923867               0.000000000               0.111529486               0.159262276               0.000000000               0.130348808               0.183600685               0.000000000               0.149168131               0.207939094               0.000000000               0.167987453               0.232277503               0.000000000               0.186806776               0.256615912               0.000000000               0.205626098               0.280954320               0.000000000               0.224445420               0.305292729               0.000000000               0.243264743               0.329631138               0.000000000               0.262084065               0.353969547               0.000000000               0.280903388               0.378307956               0.000000000               0.299722710               0.402646365               0.000000000               0.318542033               0.426984773               0.000000000               0.337361355               0.451323182               0.000000000               0.356180678               0.475661591               0.000000000               0.375000000               0.500000000               0.000000000               0.062695766               0.117295528               0.000000000               0.078308531               0.141214558               0.000000000               0.093921295               0.165133587               0.000000000               0.109534060               0.189052617               0.000000000               0.125146824               0.212971646               0.000000000               0.140759589               0.236890676               0.000000000               0.156372354               0.260809705               0.000000000               0.171985118               0.284728735               0.000000000               0.187597883               0.308647764               0.000000000               0.203210648               0.332566794               0.000000000               0.218823412               0.356485823               0.000000000               0.234436177               0.380404853               0.000000000               0.250048941               0.404323882               0.000000000               0.265661706               0.428242912               0.000000000               0.281274471               0.452161941               0.000000000               0.296887235               0.476080971               0.000000000               0.312500000               0.500000000               0.000000000               0.050896897               0.122875978               0.000000000               0.063340840               0.146446229               0.000000000               0.075784784               0.170016481               0.000000000               0.088228728               0.193586732               0.000000000               0.100672672               0.217156983               0.000000000               0.113116616               0.240727235               0.000000000               0.125560560               0.264297486               0.000000000               0.138004504               0.287867738               0.000000000               0.150448448               0.311437989               0.000000000               0.162892392               0.335008240               0.000000000               0.175336336               0.358578492               0.000000000               0.187780280               0.382148743               0.000000000               0.200224224               0.405718994               0.000000000               0.212668168               0.429289246               0.000000000               0.225112112               0.452859497               0.000000000               0.237556056               0.476429749               0.000000000               0.250000000               0.500000000               0.000000000               0.038607862               0.127273065               0.000000000               0.047913621               0.150568498               0.000000000               0.057219379               0.173863932               0.000000000               0.066525138               0.197159365               0.000000000               0.075830897               0.220454798               0.000000000               0.085136655               0.243750232               0.000000000               0.094442414               0.267045665               0.000000000               0.103748172               0.290341099               0.000000000               0.113053931               0.313636532               0.000000000               0.122359690               0.336931966               0.000000000               0.131665448               0.360227399               0.000000000               0.140971207               0.383522833               0.000000000               0.150276966               0.406818266               0.000000000               0.159582724               0.430113700               0.000000000               0.168888483               0.453409133               0.000000000               0.178194241               0.476704567               0.000000000               0.187500000               0.500000000               0.000000000               0.025947013               0.130444442               0.000000000               0.032137825               0.153541665               0.000000000               0.038328636               0.176638887               0.000000000               0.044519448               0.199736109               0.000000000               0.050710260               0.222833332               0.000000000               0.056901071               0.245930554               0.000000000               0.063091883               0.269027776               0.000000000               0.069282695               0.292124999               0.000000000               0.075473506               0.315222221               0.000000000               0.081664318               0.338319444               0.000000000               0.087855130               0.361416666               0.000000000               0.094045942               0.384513888               0.000000000               0.100236753               0.407611111               0.000000000               0.106427565               0.430708333               0.000000000               0.112618377               0.453805555               0.000000000               0.118809188               0.476902778               0.000000000               0.125000000               0.500000000               0.000000000               0.013036280               0.132359569               0.000000000               0.016127762               0.155337096               0.000000000               0.019219245               0.178314623               0.000000000               0.022310727               0.201292150               0.000000000               0.025402210               0.224269676               0.000000000               0.028493692               0.247247203               0.000000000               0.031585175               0.270224730               0.000000000               0.034676657               0.293202257               0.000000000               0.037768140               0.316179784               0.000000000               0.040859622               0.339157311               0.000000000               0.043951105               0.362134838               0.000000000               0.047042587               0.385112365               0.000000000               0.050134070               0.408089892               0.000000000               0.053225552               0.431067419               0.000000000               0.056317035               0.454044946               0.000000000               0.059408517               0.477022473               0.000000000               0.062500000               0.500000000               0.000000000               0.000000000               0.133000000               0.000000000               0.000000000               0.155937500               0.000000000               0.000000000               0.178875000               0.000000000               0.000000000               0.201812500               0.000000000               0.000000000               0.224750000               0.000000000               0.000000000               0.247687500               0.000000000               0.000000000               0.270625000               0.000000000               0.000000000               0.293562500               0.000000000               0.000000000               0.316500000               0.000000000               0.000000000               0.339437500               0.000000000               0.000000000               0.362375000               0.000000000               0.000000000               0.385312500               0.000000000               0.000000000               0.408250000               0.000000000               0.000000000               0.431187500               0.000000000               0.000000000               0.454125000               0.000000000               0.000000000               0.477062500               0.000000000               0.000000000               0.500000000               0.000000000               0.133000000               0.000000000               0.000000000               0.155937500               0.000000000               0.000000000               0.178875000               0.000000000               0.000000000               0.201812500               0.000000000               0.000000000               0.224750000               0.000000000               0.000000000               0.247687500               0.000000000               0.000000000               0.270625000               0.000000000               0.000000000               0.293562500               0.000000000               0.000000000               0.316500000               0.000000000               0.000000000               0.339437500               0.000000000               0.000000000               0.362375000               0.000000000               0.000000000               0.385312500               0.000000000               0.000000000               0.408250000               0.000000000               0.000000000               0.431187500               0.000000000               0.000000000               0.454125000               0.000000000               0.000000000               0.477062500               0.000000000               0.000000000               0.500000000               0.000000000               0.000000000               0.132359569              -0.013036280               0.000000000               0.155337096              -0.016127762               0.000000000               0.178314623              -0.019219245               0.000000000               0.201292150              -0.022310727               0.000000000               0.224269676              -0.025402210               0.000000000               0.247247203              -0.028493692               0.000000000               0.270224730              -0.031585175               0.000000000               0.293202257              -0.034676657               0.000000000               0.316179784              -0.037768140               0.000000000               0.339157311              -0.040859622               0.000000000               0.362134838              -0.043951105               0.000000000               0.385112365              -0.047042587               0.000000000               0.408089892              -0.050134070               0.000000000               0.431067419              -0.053225552               0.000000000               0.454044946              -0.056317035               0.000000000               0.477022473              -0.059408517               0.000000000               0.500000000              -0.062500000               0.000000000               0.130444442              -0.025947013               0.000000000               0.153541665              -0.032137825               0.000000000               0.176638887              -0.038328636               0.000000000               0.199736109              -0.044519448               0.000000000               0.222833332              -0.050710260               0.000000000               0.245930554              -0.056901071               0.000000000               0.269027776              -0.063091883               0.000000000               0.292124999              -0.069282695               0.000000000               0.315222221              -0.075473506               0.000000000               0.338319444              -0.081664318               0.000000000               0.361416666              -0.087855130               0.000000000               0.384513888              -0.094045942               0.000000000               0.407611111              -0.100236753               0.000000000               0.430708333              -0.106427565               0.000000000               0.453805555              -0.112618377               0.000000000               0.476902778              -0.118809188               0.000000000               0.500000000              -0.125000000               0.000000000               0.127273065              -0.038607862               0.000000000               0.150568498              -0.047913621               0.000000000               0.173863932              -0.057219379               0.000000000               0.197159365              -0.066525138               0.000000000               0.220454798              -0.075830897               0.000000000               0.243750232              -0.085136655               0.000000000               0.267045665              -0.094442414               0.000000000               0.290341099              -0.103748172               0.000000000               0.313636532              -0.113053931               0.000000000               0.336931966              -0.122359690               0.000000000               0.360227399              -0.131665448               0.000000000               0.383522833              -0.140971207               0.000000000               0.406818266              -0.150276966               0.000000000               0.430113700              -0.159582724               0.000000000               0.453409133              -0.168888483               0.000000000               0.476704567              -0.178194241               0.000000000               0.500000000              -0.187500000               0.000000000               0.122875978              -0.050896897               0.000000000               0.146446229              -0.063340840               0.000000000               0.170016481              -0.075784784               0.000000000               0.193586732              -0.088228728               0.000000000               0.217156983              -0.100672672               0.000000000               0.240727235              -0.113116616               0.000000000               0.264297486              -0.125560560               0.000000000               0.287867738              -0.138004504               0.000000000               0.311437989              -0.150448448               0.000000000               0.335008240              -0.162892392               0.000000000               0.358578492              -0.175336336               0.000000000               0.382148743              -0.187780280               0.000000000               0.405718994              -0.200224224               0.000000000               0.429289246              -0.212668168               0.000000000               0.452859497              -0.225112112               0.000000000               0.476429749              -0.237556056               0.000000000               0.500000000              -0.250000000               0.000000000               0.117295528              -0.062695766               0.000000000               0.141214558              -0.078308531               0.000000000               0.165133587              -0.093921295               0.000000000               0.189052617              -0.109534060               0.000000000               0.212971646              -0.125146824               0.000000000               0.236890676              -0.140759589               0.000000000               0.260809705              -0.156372354               0.000000000               0.284728735              -0.171985118               0.000000000               0.308647764              -0.187597883               0.000000000               0.332566794              -0.203210648               0.000000000               0.356485823              -0.218823412               0.000000000               0.380404853              -0.234436177               0.000000000               0.404323882              -0.250048941               0.000000000               0.428242912              -0.265661706               0.000000000               0.452161941              -0.281274471               0.000000000               0.476080971              -0.296887235               0.000000000               0.500000000              -0.312500000               0.000000000               0.110585458              -0.073890841               0.000000000               0.134923867              -0.092710163               0.000000000               0.159262276              -0.111529486               0.000000000               0.183600685              -0.130348808               0.000000000               0.207939094              -0.149168131               0.000000000               0.232277503              -0.167987453               0.000000000               0.256615912              -0.186806776               0.000000000               0.280954320              -0.205626098               0.000000000               0.305292729              -0.224445420               0.000000000               0.329631138              -0.243264743               0.000000000               0.353969547              -0.262084065               0.000000000               0.378307956              -0.280903388               0.000000000               0.402646365              -0.299722710               0.000000000               0.426984773              -0.318542033               0.000000000               0.451323182              -0.337361355               0.000000000               0.475661591              -0.356180678               0.000000000               0.500000000              -0.375000000               0.000000000               0.102810390              -0.084374307               0.000000000               0.127634741              -0.106444663               0.000000000               0.152459092              -0.128515018               0.000000000               0.177283442              -0.150585374               0.000000000               0.202107793              -0.172655730               0.000000000               0.226932143              -0.194726086               0.000000000               0.251756494              -0.216796442               0.000000000               0.276580845              -0.238866798               0.000000000               0.301405195              -0.260937153               0.000000000               0.326229546              -0.283007509               0.000000000               0.351053896              -0.305077865               0.000000000               0.375878247              -0.327148221               0.000000000               0.400702598              -0.349218577               0.000000000               0.425526948              -0.371288933               0.000000000               0.450351299              -0.393359288               0.000000000               0.475175649              -0.415429644               0.000000000               0.500000000              -0.437500000               0.000000000               0.094045202              -0.094045202               0.000000000               0.119417377              -0.119417377               0.000000000               0.144789552              -0.144789552               0.000000000               0.170161727              -0.170161727               0.000000000               0.195533901              -0.195533901               0.000000000               0.220906076              -0.220906076               0.000000000               0.246278251              -0.246278251               0.000000000               0.271650426              -0.271650426               0.000000000               0.297022601              -0.297022601               0.000000000               0.322394776              -0.322394776               0.000000000               0.347766951              -0.347766951               0.000000000               0.373139126              -0.373139126               0.000000000               0.398511300              -0.398511300               0.000000000               0.423883475              -0.423883475               0.000000000               0.449255650              -0.449255650               0.000000000               0.474627825              -0.474627825               0.000000000               0.500000000              -0.500000000               0.000000000               0.084374307              -0.102810390               0.000000000               0.106444663              -0.127634741               0.000000000               0.128515018              -0.152459092               0.000000000               0.150585374              -0.177283442               0.000000000               0.172655730              -0.202107793               0.000000000               0.194726086              -0.226932143               0.000000000               0.216796442              -0.251756494               0.000000000               0.238866798              -0.276580845               0.000000000               0.260937153              -0.301405195               0.000000000               0.283007509              -0.326229546               0.000000000               0.305077865              -0.351053896               0.000000000               0.327148221              -0.375878247               0.000000000               0.349218577              -0.400702598               0.000000000               0.371288933              -0.425526948               0.000000000               0.393359288              -0.450351299               0.000000000               0.415429644              -0.475175649               0.000000000               0.437500000              -0.500000000               0.000000000               0.073890841              -0.110585458               0.000000000               0.092710163              -0.134923867               0.000000000               0.111529486              -0.159262276               0.000000000               0.130348808              -0.183600685               0.000000000               0.149168131              -0.207939094               0.000000000               0.167987453              -0.232277503               0.000000000               0.186806776              -0.256615912               0.000000000               0.205626098              -0.280954320               0.000000000               0.224445420              -0.305292729               0.000000000               0.243264743              -0.329631138               0.000000000               0.262084065              -0.353969547               0.000000000               0.280903388              -0.378307956               0.000000000               0.299722710              -0.402646365               0.000000000               0.318542033              -0.426984773               0.000000000               0.337361355              -0.451323182               0.000000000               0.356180678              -0.475661591               0.000000000               0.375000000              -0.500000000               0.000000000               0.062695766              -0.117295528               0.000000000               0.078308531              -0.141214558               0.000000000               0.093921295              -0.165133587               0.000000000               0.109534060              -0.189052617               0.000000000               0.125146824              -0.212971646               0.000000000               0.140759589              -0.236890676               0.000000000               0.156372354              -0.260809705               0.000000000               0.171985118              -0.284728735               0.000000000               0.187597883              -0.308647764               0.000000000               0.203210648              -0.332566794               0.000000000               0.218823412              -0.356485823               0.000000000               0.234436177              -0.380404853               0.000000000               0.250048941              -0.404323882               0.000000000               0.265661706              -0.428242912               0.000000000               0.281274471              -0.452161941               0.000000000               0.296887235              -0.476080971               0.000000000               0.312500000              -0.500000000               0.000000000               0.050896897              -0.122875978               0.000000000               0.063340840              -0.146446229               0.000000000               0.075784784              -0.170016481               0.000000000               0.088228728              -0.193586732               0.000000000               0.100672672              -0.217156983               0.000000000               0.113116616              -0.240727235               0.000000000               0.125560560              -0.264297486               0.000000000               0.138004504              -0.287867738               0.000000000               0.150448448              -0.311437989               0.000000000               0.162892392              -0.335008240               0.000000000               0.175336336              -0.358578492               0.000000000               0.187780280              -0.382148743               0.000000000               0.200224224              -0.405718994               0.000000000               0.212668168              -0.429289246               0.000000000               0.225112112              -0.452859497               0.000000000               0.237556056              -0.476429749               0.000000000               0.250000000              -0.500000000               0.000000000               0.038607862              -0.127273065               0.000000000               0.047913621              -0.150568498               0.000000000               0.057219379              -0.173863932               0.000000000               0.066525138              -0.197159365               0.000000000               0.075830897              -0.220454798               0.000000000               0.085136655              -0.243750232               0.000000000               0.094442414              -0.267045665               0.000000000               0.103748172              -0.290341099               0.000000000               0.113053931              -0.313636532               0.000000000               0.122359690              -0.336931966               0.000000000               0.131665448              -0.360227399               0.000000000               0.140971207              -0.383522833               0.000000000               0.150276966              -0.406818266               0.000000000               0.159582724              -0.430113700               0.000000000               0.168888483              -0.453409133               0.000000000               0.178194241              -0.476704567               0.000000000               0.187500000              -0.500000000               0.000000000               0.025947013              -0.130444442               0.000000000               0.032137825              -0.153541665               0.000000000               0.038328636              -0.176638887               0.000000000               0.044519448              -0.199736109               0.000000000               0.050710260              -0.222833332               0.000000000               0.056901071              -0.245930554               0.000000000               0.063091883              -0.269027776               0.000000000               0.069282695              -0.292124999               0.000000000               0.075473506              -0.315222221               0.000000000               0.081664318              -0.338319444               0.000000000               0.087855130              -0.361416666               0.000000000               0.094045942              -0.384513888               0.000000000               0.100236753              -0.407611111               0.000000000               0.106427565              -0.430708333               0.000000000               0.112618377              -0.453805555               0.000000000               0.118809188              -0.476902778               0.000000000               0.125000000              -0.500000000               0.000000000               0.013036280              -0.132359569               0.000000000               0.016127762              -0.155337096               0.000000000               0.019219245              -0.178314623               0.000000000               0.022310727              -0.201292150               0.000000000               0.025402210              -0.224269676               0.000000000               0.028493692              -0.247247203               0.000000000               0.031585175              -0.270224730               0.000000000               0.034676657              -0.293202257               0.000000000               0.037768140              -0.316179784               0.000000000               0.040859622              -0.339157311               0.000000000               0.043951105              -0.362134838               0.000000000               0.047042587              -0.385112365               0.000000000               0.050134070              -0.408089892               0.000000000               0.053225552              -0.431067419               0.000000000               0.056317035              -0.454044946               0.000000000               0.059408517              -0.477022473               0.000000000               0.062500000              -0.500000000               0.000000000               0.000000000              -0.133000000               0.000000000               0.000000000              -0.155937500               0.000000000               0.000000000              -0.178875000               0.000000000               0.000000000              -0.201812500               0.000000000               0.000000000              -0.224750000               0.000000000               0.000000000              -0.247687500               0.000000000               0.000000000              -0.270625000               0.000000000               0.000000000              -0.293562500               0.000000000               0.000000000              -0.316500000               0.000000000               0.000000000              -0.339437500               0.000000000               0.000000000              -0.362375000               0.000000000               0.000000000              -0.385312500               0.000000000               0.000000000              -0.408250000               0.000000000               0.000000000              -0.431187500               0.000000000               0.000000000              -0.454125000               0.000000000               0.000000000              -0.477062500               0.000000000               0.000000000              -0.500000000               0.000000000              -0.133000000               0.000000000               0.000000000              -0.155937500               0.000000000               0.000000000              -0.178875000               0.000000000               0.000000000              -0.201812500               0.000000000               0.000000000              -0.224750000               0.000000000               0.000000000              -0.247687500               0.000000000               0.000000000              -0.270625000               0.000000000               0.000000000              -0.293562500               0.000000000               0.000000000              -0.316500000               0.000000000               0.000000000              -0.339437500               0.000000000               0.000000000              -0.362375000               0.000000000               0.000000000              -0.385312500               0.000000000               0.000000000              -0.408250000               0.000000000               0.000000000              -0.431187500               0.000000000               0.000000000              -0.454125000               0.000000000               0.000000000              -0.477062500               0.000000000               0.000000000              -0.500000000               0.000000000               0.000000000              -0.132359569              -0.013036280               0.000000000              -0.155337096              -0.016127762               0.000000000              -0.178314623              -0.019219245               0.000000000              -0.201292150              -0.022310727               0.000000000              -0.224269676              -0.025402210               0.000000000              -0.247247203              -0.028493692               0.000000000              -0.270224730              -0.031585175               0.000000000              -0.293202257              -0.034676657               0.000000000              -0.316179784              -0.037768140               0.000000000              -0.339157311              -0.040859622               0.000000000              -0.362134838              -0.043951105               0.000000000              -0.385112365              -0.047042587               0.000000000              -0.408089892              -0.050134070               0.000000000              -0.431067419              -0.053225552               0.000000000              -0.454044946              -0.056317035               0.000000000              -0.477022473              -0.059408517               0.000000000              -0.500000000              -0.062500000               0.000000000              -0.130444442              -0.025947013               0.000000000              -0.153541665              -0.032137825               0.000000000              -0.176638887              -0.038328636               0.000000000              -0.199736109              -0.044519448               0.000000000              -0.222833332              -0.050710260               0.000000000              -0.245930554              -0.056901071               0.000000000              -0.269027776              -0.063091883               0.000000000              -0.292124999              -0.069282695               0.000000000              -0.315222221              -0.075473506               0.000000000              -0.338319444              -0.081664318               0.000000000              -0.361416666              -0.087855130               0.000000000              -0.384513888              -0.094045942               0.000000000              -0.407611111              -0.100236753               0.000000000              -0.430708333              -0.106427565               0.000000000              -0.453805555              -0.112618377               0.000000000              -0.476902778              -0.118809188               0.000000000              -0.500000000              -0.125000000               0.000000000              -0.127273065              -0.038607862               0.000000000              -0.150568498              -0.047913621               0.000000000              -0.173863932              -0.057219379               0.000000000              -0.197159365              -0.066525138               0.000000000              -0.220454798              -0.075830897               0.000000000              -0.243750232              -0.085136655               0.000000000              -0.267045665              -0.094442414               0.000000000              -0.290341099              -0.103748172               0.000000000              -0.313636532              -0.113053931               0.000000000              -0.336931966              -0.122359690               0.000000000              -0.360227399              -0.131665448               0.000000000              -0.383522833              -0.140971207               0.000000000              -0.406818266              -0.150276966               0.000000000              -0.430113700              -0.159582724               0.000000000              -0.453409133              -0.168888483               0.000000000              -0.476704567              -0.178194241               0.000000000              -0.500000000              -0.187500000               0.000000000              -0.122875978              -0.050896897               0.000000000              -0.146446229              -0.063340840               0.000000000              -0.170016481              -0.075784784               0.000000000              -0.193586732              -0.088228728               0.000000000              -0.217156983              -0.100672672               0.000000000              -0.240727235              -0.113116616               0.000000000              -0.264297486              -0.125560560               0.000000000              -0.287867738              -0.138004504               0.000000000              -0.311437989              -0.150448448               0.000000000              -0.335008240              -0.162892392               0.000000000              -0.358578492              -0.175336336               0.000000000              -0.382148743              -0.187780280               0.000000000              -0.405718994              -0.200224224               0.000000000              -0.429289246              -0.212668168               0.000000000              -0.452859497              -0.225112112               0.000000000              -0.476429749              -0.237556056               0.000000000              -0.500000000              -0.250000000               0.000000000              -0.117295528              -0.062695766               0.000000000              -0.141214558              -0.078308531               0.000000000              -0.165133587              -0.093921295               0.000000000              -0.189052617              -0.109534060               0.000000000              -0.212971646              -0.125146824               0.000000000              -0.236890676              -0.140759589               0.000000000              -0.260809705              -0.156372354               0.000000000              -0.284728735              -0.171985118               0.000000000              -0.308647764              -0.187597883               0.000000000              -0.332566794              -0.203210648               0.000000000              -0.356485823              -0.218823412               0.000000000              -0.380404853              -0.234436177               0.000000000              -0.404323882              -0.250048941               0.000000000              -0.428242912              -0.265661706               0.000000000              -0.452161941              -0.281274471               0.000000000              -0.476080971              -0.296887235               0.000000000              -0.500000000              -0.312500000               0.000000000              -0.110585458              -0.073890841               0.000000000              -0.134923867              -0.092710163               0.000000000              -0.159262276              -0.111529486               0.000000000              -0.183600685              -0.130348808               0.000000000              -0.207939094              -0.149168131               0.000000000              -0.232277503              -0.167987453               0.000000000              -0.256615912              -0.186806776               0.000000000              -0.280954320              -0.205626098               0.000000000              -0.305292729              -0.224445420               0.000000000              -0.329631138              -0.243264743               0.000000000              -0.353969547              -0.262084065               0.000000000              -0.378307956              -0.280903388               0.000000000              -0.402646365              -0.299722710               0.000000000              -0.426984773              -0.318542033               0.000000000              -0.451323182              -0.337361355               0.000000000              -0.475661591              -0.356180678               0.000000000              -0.500000000              -0.375000000               0.000000000              -0.102810390              -0.084374307               0.000000000              -0.127634741              -0.106444663               0.000000000              -0.152459092              -0.128515018               0.000000000              -0.177283442              -0.150585374               0.000000000              -0.202107793              -0.172655730               0.000000000              -0.226932143              -0.194726086               0.000000000              -0.251756494              -0.216796442               0.000000000              -0.276580845              -0.238866798               0.000000000              -0.301405195              -0.260937153               0.000000000              -0.326229546              -0.283007509               0.000000000              -0.351053896              -0.305077865               0.000000000              -0.375878247              -0.327148221               0.000000000              -0.400702598              -0.349218577               0.000000000              -0.425526948              -0.371288933               0.000000000              -0.450351299              -0.393359288               0.000000000              -0.475175649              -0.415429644               0.000000000              -0.500000000              -0.437500000               0.000000000              -0.094045202              -0.094045202               0.000000000              -0.119417377              -0.119417377               0.000000000              -0.144789552              -0.144789552               0.000000000              -0.170161727              -0.170161727               0.000000000              -0.195533901              -0.195533901               0.000000000              -0.220906076              -0.220906076               0.000000000              -0.246278251              -0.246278251               0.000000000              -0.271650426              -0.271650426               0.000000000              -0.297022601              -0.297022601               0.000000000              -0.322394776              -0.322394776               0.000000000              -0.347766951              -0.347766951               0.000000000              -0.373139126              -0.373139126               0.000000000              -0.398511300              -0.398511300               0.000000000              -0.423883475              -0.423883475               0.000000000              -0.449255650              -0.449255650               0.000000000              -0.474627825              -0.474627825               0.000000000              -0.500000000              -0.500000000               0.000000000              -0.084374307              -0.102810390               0.000000000              -0.106444663              -0.127634741               0.000000000              -0.128515018              -0.152459092               0.000000000              -0.150585374              -0.177283442               0.000000000              -0.172655730              -0.202107793               0.000000000              -0.194726086              -0.226932143               0.000000000              -0.216796442              -0.251756494               0.000000000              -0.238866798              -0.276580845               0.000000000              -0.260937153              -0.301405195               0.000000000              -0.283007509              -0.326229546               0.000000000              -0.305077865              -0.351053896               0.000000000              -0.327148221              -0.375878247               0.000000000              -0.349218577              -0.400702598               0.000000000              -0.371288933              -0.425526948               0.000000000              -0.393359288              -0.450351299               0.000000000              -0.415429644              -0.475175649               0.000000000              -0.437500000              -0.500000000               0.000000000              -0.073890841              -0.110585458               0.000000000              -0.092710163              -0.134923867               0.000000000              -0.111529486              -0.159262276               0.000000000              -0.130348808              -0.183600685               0.000000000              -0.149168131              -0.207939094               0.000000000              -0.167987453              -0.232277503               0.000000000              -0.186806776              -0.256615912               0.000000000              -0.205626098              -0.280954320               0.000000000              -0.224445420              -0.305292729               0.000000000              -0.243264743              -0.329631138               0.000000000              -0.262084065              -0.353969547               0.000000000              -0.280903388              -0.378307956               0.000000000              -0.299722710              -0.402646365               0.000000000              -0.318542033              -0.426984773               0.000000000              -0.337361355              -0.451323182               0.000000000              -0.356180678              -0.475661591               0.000000000              -0.375000000              -0.500000000               0.000000000              -0.062695766              -0.117295528               0.000000000              -0.078308531              -0.141214558               0.000000000              -0.093921295              -0.165133587               0.000000000              -0.109534060              -0.189052617               0.000000000              -0.125146824              -0.212971646               0.000000000              -0.140759589              -0.236890676               0.000000000              -0.156372354              -0.260809705               0.000000000              -0.171985118              -0.284728735               0.000000000              -0.187597883              -0.308647764               0.000000000              -0.203210648              -0.332566794               0.000000000              -0.218823412              -0.356485823               0.000000000              -0.234436177              -0.380404853               0.000000000              -0.250048941              -0.404323882               0.000000000              -0.265661706              -0.428242912               0.000000000              -0.281274471              -0.452161941               0.000000000              -0.296887235              -0.476080971               0.000000000              -0.312500000              -0.500000000               0.000000000              -0.050896897              -0.122875978               0.000000000              -0.063340840              -0.146446229               0.000000000              -0.075784784              -0.170016481               0.000000000              -0.088228728              -0.193586732               0.000000000              -0.100672672              -0.217156983               0.000000000              -0.113116616              -0.240727235               0.000000000              -0.125560560              -0.264297486               0.000000000              -0.138004504              -0.287867738               0.000000000              -0.150448448              -0.311437989               0.000000000              -0.162892392              -0.335008240               0.000000000              -0.175336336              -0.358578492               0.000000000              -0.187780280              -0.382148743               0.000000000              -0.200224224              -0.405718994               0.000000000              -0.212668168              -0.429289246               0.000000000              -0.225112112              -0.452859497               0.000000000              -0.237556056              -0.476429749               0.000000000              -0.250000000              -0.500000000               0.000000000              -0.038607862              -0.127273065               0.000000000              -0.047913621              -0.150568498               0.000000000              -0.057219379              -0.173863932               0.000000000              -0.066525138              -0.197159365               0.000000000              -0.075830897              -0.220454798               0.000000000              -0.085136655              -0.243750232               0.000000000              -0.094442414              -0.267045665               0.000000000              -0.103748172              -0.290341099               0.000000000              -0.113053931              -0.313636532               0.000000000              -0.122359690              -0.336931966               0.000000000              -0.131665448              -0.360227399               0.000000000              -0.140971207              -0.383522833               0.000000000              -0.150276966              -0.406818266               0.000000000              -0.159582724              -0.430113700               0.000000000              -0.168888483              -0.453409133               0.000000000              -0.178194241              -0.476704567               0.000000000              -0.187500000              -0.500000000               0.000000000              -0.025947013              -0.130444442               0.000000000              -0.032137825              -0.153541665               0.000000000              -0.038328636              -0.176638887               0.000000000              -0.044519448              -0.199736109               0.000000000              -0.050710260              -0.222833332               0.000000000              -0.056901071              -0.245930554               0.000000000              -0.063091883              -0.269027776               0.000000000              -0.069282695              -0.292124999               0.000000000              -0.075473506              -0.315222221               0.000000000              -0.081664318              -0.338319444               0.000000000              -0.087855130              -0.361416666               0.000000000              -0.094045942              -0.384513888               0.000000000              -0.100236753              -0.407611111               0.000000000              -0.106427565              -0.430708333               0.000000000              -0.112618377              -0.453805555               0.000000000              -0.118809188              -0.476902778               0.000000000              -0.125000000              -0.500000000               0.000000000              -0.013036280              -0.132359569               0.000000000              -0.016127762              -0.155337096               0.000000000              -0.019219245              -0.178314623               0.000000000              -0.022310727              -0.201292150               0.000000000              -0.025402210              -0.224269676               0.000000000              -0.028493692              -0.247247203               0.000000000              -0.031585175              -0.270224730               0.000000000              -0.034676657              -0.293202257               0.000000000              -0.037768140              -0.316179784               0.000000000              -0.040859622              -0.339157311               0.000000000              -0.043951105              -0.362134838               0.000000000              -0.047042587              -0.385112365               0.000000000              -0.050134070              -0.408089892               0.000000000              -0.053225552              -0.431067419               0.000000000              -0.056317035              -0.454044946               0.000000000              -0.059408517              -0.477022473               0.000000000              -0.062500000              -0.500000000               0.000000000               0.000000000              -0.133000000               0.000000000               0.000000000              -0.155937500               0.000000000               0.000000000              -0.178875000               0.000000000               0.000000000              -0.201812500               0.000000000               0.000000000              -0.224750000               0.000000000               0.000000000              -0.247687500               0.000000000               0.000000000              -0.270625000               0.000000000               0.000000000              -0.293562500               0.000000000               0.000000000              -0.316500000               0.000000000               0.000000000              -0.339437500               0.000000000               0.000000000              -0.362375000               0.000000000               0.000000000              -0.385312500               0.000000000               0.000000000              -0.408250000               0.000000000               0.000000000              -0.431187500               0.000000000               0.000000000              -0.454125000               0.000000000               0.000000000              -0.477062500               0.000000000               0.000000000              -0.500000000               0.000000000              -0.133000000               0.000000000               0.000000000              -0.155937500               0.000000000               0.000000000              -0.178875000               0.000000000               0.000000000              -0.201812500               0.000000000               0.000000000              -0.224750000               0.000000000               0.000000000              -0.247687500               0.000000000               0.000000000              -0.270625000               0.000000000               0.000000000              -0.293562500               0.000000000               0.000000000              -0.316500000               0.000000000               0.000000000              -0.339437500               0.000000000               0.000000000              -0.362375000               0.000000000               0.000000000              -0.385312500               0.000000000               0.000000000              -0.408250000               0.000000000               0.000000000              -0.431187500               0.000000000               0.000000000              -0.454125000               0.000000000               0.000000000              -0.477062500               0.000000000               0.000000000              -0.500000000               0.000000000               0.000000000              -0.132359569               0.013036280               0.000000000              -0.155337096               0.016127762               0.000000000              -0.178314623               0.019219245               0.000000000              -0.201292150               0.022310727               0.000000000              -0.224269676               0.025402210               0.000000000              -0.247247203               0.028493692               0.000000000              -0.270224730               0.031585175               0.000000000              -0.293202257               0.034676657               0.000000000              -0.316179784               0.037768140               0.000000000              -0.339157311               0.040859622               0.000000000              -0.362134838               0.043951105               0.000000000              -0.385112365               0.047042587               0.000000000              -0.408089892               0.050134070               0.000000000              -0.431067419               0.053225552               0.000000000              -0.454044946               0.056317035               0.000000000              -0.477022473               0.059408517               0.000000000              -0.500000000               0.062500000               0.000000000              -0.130444442               0.025947013               0.000000000              -0.153541665               0.032137825               0.000000000              -0.176638887               0.038328636               0.000000000              -0.199736109               0.044519448               0.000000000              -0.222833332               0.050710260               0.000000000              -0.245930554               0.056901071               0.000000000              -0.269027776               0.063091883               0.000000000              -0.292124999               0.069282695               0.000000000              -0.315222221               0.075473506               0.000000000              -0.338319444               0.081664318               0.000000000              -0.361416666               0.087855130               0.000000000              -0.384513888               0.094045942               0.000000000              -0.407611111               0.100236753               0.000000000              -0.430708333               0.106427565               0.000000000              -0.453805555               0.112618377               0.000000000              -0.476902778               0.118809188               0.000000000              -0.500000000               0.125000000               0.000000000              -0.127273065               0.038607862               0.000000000              -0.150568498               0.047913621               0.000000000              -0.173863932               0.057219379               0.000000000              -0.197159365               0.066525138               0.000000000              -0.220454798               0.075830897               0.000000000              -0.243750232               0.085136655               0.000000000              -0.267045665               0.094442414               0.000000000              -0.290341099               0.103748172               0.000000000              -0.313636532               0.113053931               0.000000000              -0.336931966               0.122359690               0.000000000              -0.360227399               0.131665448               0.000000000              -0.383522833               0.140971207               0.000000000              -0.406818266               0.150276966               0.000000000              -0.430113700               0.159582724               0.000000000              -0.453409133               0.168888483               0.000000000              -0.476704567               0.178194241               0.000000000              -0.500000000               0.187500000               0.000000000              -0.122875978               0.050896897               0.000000000              -0.146446229               0.063340840               0.000000000              -0.170016481               0.075784784               0.000000000              -0.193586732               0.088228728               0.000000000              -0.217156983               0.100672672               0.000000000              -0.240727235               0.113116616               0.000000000              -0.264297486               0.125560560               0.000000000              -0.287867738               0.138004504               0.000000000              -0.311437989               0.150448448               0.000000000              -0.335008240               0.162892392               0.000000000              -0.358578492               0.175336336               0.000000000              -0.382148743               0.187780280               0.000000000              -0.405718994               0.200224224               0.000000000              -0.429289246               0.212668168               0.000000000              -0.452859497               0.225112112               0.000000000              -0.476429749               0.237556056               0.000000000              -0.500000000               0.250000000               0.000000000              -0.117295528               0.062695766               0.000000000              -0.141214558               0.078308531               0.000000000              -0.165133587               0.093921295               0.000000000              -0.189052617               0.109534060               0.000000000              -0.212971646               0.125146824               0.000000000              -0.236890676               0.140759589               0.000000000              -0.260809705               0.156372354               0.000000000              -0.284728735               0.171985118               0.000000000              -0.308647764               0.187597883               0.000000000              -0.332566794               0.203210648               0.000000000              -0.356485823               0.218823412               0.000000000              -0.380404853               0.234436177               0.000000000              -0.404323882               0.250048941               0.000000000              -0.428242912               0.265661706               0.000000000              -0.452161941               0.281274471               0.000000000              -0.476080971               0.296887235               0.000000000              -0.500000000               0.312500000               0.000000000              -0.110585458               0.073890841               0.000000000              -0.134923867               0.092710163               0.000000000              -0.159262276               0.111529486               0.000000000              -0.183600685               0.130348808               0.000000000              -0.207939094               0.149168131               0.000000000              -0.232277503               0.167987453               0.000000000              -0.256615912               0.186806776               0.000000000              -0.280954320               0.205626098               0.000000000              -0.305292729               0.224445420               0.000000000              -0.329631138               0.243264743               0.000000000              -0.353969547               0.262084065               0.000000000              -0.378307956               0.280903388               0.000000000              -0.402646365               0.299722710               0.000000000              -0.426984773               0.318542033               0.000000000              -0.451323182               0.337361355               0.000000000              -0.475661591               0.356180678               0.000000000              -0.500000000               0.375000000               0.000000000              -0.102810390               0.084374307               0.000000000              -0.127634741               0.106444663               0.000000000              -0.152459092               0.128515018               0.000000000              -0.177283442               0.150585374               0.000000000              -0.202107793               0.172655730               0.000000000              -0.226932143               0.194726086               0.000000000              -0.251756494               0.216796442               0.000000000              -0.276580845               0.238866798               0.000000000              -0.301405195               0.260937153               0.000000000              -0.326229546               0.283007509               0.000000000              -0.351053896               0.305077865               0.000000000              -0.375878247               0.327148221               0.000000000              -0.400702598               0.349218577               0.000000000              -0.425526948               0.371288933               0.000000000              -0.450351299               0.393359288               0.000000000              -0.475175649               0.415429644               0.000000000              -0.500000000               0.437500000               0.000000000              -0.094045202               0.094045202               0.000000000              -0.119417377               0.119417377               0.000000000              -0.144789552               0.144789552               0.000000000              -0.170161727               0.170161727               0.000000000              -0.195533901               0.195533901               0.000000000              -0.220906076               0.220906076               0.000000000              -0.246278251               0.246278251               0.000000000              -0.271650426               0.271650426               0.000000000              -0.297022601               0.297022601               0.000000000              -0.322394776               0.322394776               0.000000000              -0.347766951               0.347766951               0.000000000              -0.373139126               0.373139126               0.000000000              -0.398511300               0.398511300               0.000000000              -0.423883475               0.423883475               0.000000000              -0.449255650               0.449255650               0.000000000              -0.474627825               0.474627825               0.000000000              -0.500000000               0.500000000               0.000000000              -0.084374307               0.102810390               0.000000000              -0.106444663               0.127634741               0.000000000              -0.128515018               0.152459092               0.000000000              -0.150585374               0.177283442               0.000000000              -0.172655730               0.202107793               0.000000000              -0.194726086               0.226932143               0.000000000              -0.216796442               0.251756494               0.000000000              -0.238866798               0.276580845               0.000000000              -0.260937153               0.301405195               0.000000000              -0.283007509               0.326229546               0.000000000              -0.305077865               0.351053896               0.000000000              -0.327148221               0.375878247               0.000000000              -0.349218577               0.400702598               0.000000000              -0.371288933               0.425526948               0.000000000              -0.393359288               0.450351299               0.000000000              -0.415429644               0.475175649               0.000000000              -0.437500000               0.500000000               0.000000000              -0.073890841               0.110585458               0.000000000              -0.092710163               0.134923867               0.000000000              -0.111529486               0.159262276               0.000000000              -0.130348808               0.183600685               0.000000000              -0.149168131               0.207939094               0.000000000              -0.167987453               0.232277503               0.000000000              -0.186806776               0.256615912               0.000000000              -0.205626098               0.280954320               0.000000000              -0.224445420               0.305292729               0.000000000              -0.243264743               0.329631138               0.000000000              -0.262084065               0.353969547               0.000000000              -0.280903388               0.378307956               0.000000000              -0.299722710               0.402646365               0.000000000              -0.318542033               0.426984773               0.000000000              -0.337361355               0.451323182               0.000000000              -0.356180678               0.475661591               0.000000000              -0.375000000               0.500000000               0.000000000              -0.062695766               0.117295528               0.000000000              -0.078308531               0.141214558               0.000000000              -0.093921295               0.165133587               0.000000000              -0.109534060               0.189052617               0.000000000              -0.125146824               0.212971646               0.000000000              -0.140759589               0.236890676               0.000000000              -0.156372354               0.260809705               0.000000000              -0.171985118               0.284728735               0.000000000              -0.187597883               0.308647764               0.000000000              -0.203210648               0.332566794               0.000000000              -0.218823412               0.356485823               0.000000000              -0.234436177               0.380404853               0.000000000              -0.250048941               0.404323882               0.000000000              -0.265661706               0.428242912               0.000000000              -0.281274471               0.452161941               0.000000000              -0.296887235               0.476080971               0.000000000              -0.312500000               0.500000000               0.000000000              -0.050896897               0.122875978               0.000000000              -0.063340840               0.146446229               0.000000000              -0.075784784               0.170016481               0.000000000              -0.088228728               0.193586732               0.000000000              -0.100672672               0.217156983               0.000000000              -0.113116616               0.240727235               0.000000000              -0.125560560               0.264297486               0.000000000              -0.138004504               0.287867738               0.000000000              -0.150448448               0.311437989               0.000000000              -0.162892392               0.335008240               0.000000000              -0.175336336               0.358578492               0.000000000              -0.187780280               0.382148743               0.000000000              -0.200224224               0.405718994               0.000000000              -0.212668168               0.429289246               0.000000000              -0.225112112               0.452859497               0.000000000              -0.237556056               0.476429749               0.000000000              -0.250000000               0.500000000               0.000000000              -0.038607862               0.127273065               0.000000000              -0.047913621               0.150568498               0.000000000              -0.057219379               0.173863932               0.000000000              -0.066525138               0.197159365               0.000000000              -0.075830897               0.220454798               0.000000000              -0.085136655               0.243750232               0.000000000              -0.094442414               0.267045665               0.000000000              -0.103748172               0.290341099               0.000000000              -0.113053931               0.313636532               0.000000000              -0.122359690               0.336931966               0.000000000              -0.131665448               0.360227399               0.000000000              -0.140971207               0.383522833               0.000000000              -0.150276966               0.406818266               0.000000000              -0.159582724               0.430113700               0.000000000              -0.168888483               0.453409133               0.000000000              -0.178194241               0.476704567               0.000000000              -0.187500000               0.500000000               0.000000000              -0.025947013               0.130444442               0.000000000              -0.032137825               0.153541665               0.000000000              -0.038328636               0.176638887               0.000000000              -0.044519448               0.199736109               0.000000000              -0.050710260               0.222833332               0.000000000              -0.056901071               0.245930554               0.000000000              -0.063091883               0.269027776               0.000000000              -0.069282695               0.292124999               0.000000000              -0.075473506               0.315222221               0.000000000              -0.081664318               0.338319444               0.000000000              -0.087855130               0.361416666               0.000000000              -0.094045942               0.384513888               0.000000000              -0.100236753               0.407611111               0.000000000              -0.106427565               0.430708333               0.000000000              -0.112618377               0.453805555               0.000000000              -0.118809188               0.476902778               0.000000000              -0.125000000               0.500000000               0.000000000              -0.013036280               0.132359569               0.000000000              -0.016127762               0.155337096               0.000000000              -0.019219245               0.178314623               0.000000000              -0.022310727               0.201292150               0.000000000              -0.025402210               0.224269676               0.000000000              -0.028493692               0.247247203               0.000000000              -0.031585175               0.270224730               0.000000000              -0.034676657               0.293202257               0.000000000              -0.037768140               0.316179784               0.000000000              -0.040859622               0.339157311               0.000000000              -0.043951105               0.362134838               0.000000000              -0.047042587               0.385112365               0.000000000              -0.050134070               0.408089892               0.000000000              -0.053225552               0.431067419               0.000000000              -0.056317035               0.454044946               0.000000000              -0.059408517               0.477022473               0.000000000              -0.062500000               0.500000000               0.000000000               0.000000000               0.133000000               0.000000000               0.000000000               0.155937500               0.000000000               0.000000000               0.178875000               0.000000000               0.000000000               0.201812500               0.000000000               0.000000000               0.224750000               0.000000000               0.000000000               0.247687500               0.000000000               0.000000000               0.270625000               0.000000000               0.000000000               0.293562500               0.000000000               0.000000000               0.316500000               0.000000000               0.000000000               0.339437500               0.000000000               0.000000000               0.362375000               0.000000000               0.000000000               0.385312500               0.000000000               0.000000000               0.408250000               0.000000000               0.000000000               0.431187500               0.000000000               0.000000000               0.454125000               0.000000000               0.000000000               0.477062500               0.000000000               0.000000000               0.500000000               0.000000000 </DataArray>
</Points>
<Cells>
<DataArray type="Int32"                                    Name="connectivity"                                                      NumberOfComponents=" 1" format="ascii">
         0          1         18         17          1          2         19         18          2          3         20         19          3          4         21         20          4          5         22         21          5          6         23         22          6          7         24         23          7          8         25         24          8          9         26         25          9         10         27         26         10         11         28         27         11         12         29         28         12         13         30         29         13         14         31         30         14         15         32         31         15         16         33         32         17         18         35         34         18         19         36         35         19         20         37         36         20         21         38         37         21         22         39         38         22         23         40         39         23         24         41         40         24         25         42         41         25         26         43         42         26         27         44         43         27         28         45         44         28         29         46         45         29         30         47         46         30         31         48         47         31         32         49         48         32         33         50         49         34         35         52         51         35         36         53         52         36         37         54         53         37         38         55         54         38         39         56         55         39         40         57         56         40         41         58         57         41         42         59         58         42         43         60         59         43         44         61         60         44         45         62         61         45         46         63         62         46         47         64         63         47         48         65         64         48         49         66         65         49         50         67         66         51         52         69         68         52         53         70         69         53         54         71         70         54         55         72         71         55         56         73         72         56         57         74         73         57         58         75         74         58         59         76         75         59         60         77         76         60         61         78         77         61         62         79         78         62         63         80         79         63         64         81         80         64         65         82         81         65         66         83         82         66         67         84         83         68         69         86         85         69         70         87         86         70         71         88         87         71         72         89         88         72         73         90         89         73         74         91         90         74         75         92         91         75         76         93         92         76         77         94         93         77         78         95         94         78         79         96         95         79         80         97         96         80         81         98         97         81         82         99         98         82         83        100         99         83         84        101        100         85         86        103        102         86         87        104        103         87         88        105        104         88         89        106        105         89         90        107        106         90         91        108        107         91         92        109        108         92         93        110        109         93         94        111        110         94         95        112        111         95         96        113        112         96         97        114        113         97         98        115        114         98         99        116        115         99        100        117        116        100        101        118        117        102        103        120        119        103        104        121        120        104        105        122        121        105        106        123        122        106        107        124        123        107        108        125        124        108        109        126        125        109        110        127        126        110        111        128        127        111        112        129        128        112        113        130        129        113        114        131        130        114        115        132        131        115        116        133        132        116        117        134        133        117        118        135        134        119        120        137        136        120        121        138        137        121        122        139        138        122        123        140        139        123        124        141        140        124        125        142        141        125        126        143        142        126        127        144        143        127        128        145        144        128        129        146        145        129        130        147        146        130        131        148        147        131        132        149        148        132        133        150        149        133        134        151        150        134        135        152        151        136        137        154        153        137        138        155        154        138        139        156        155        139        140        157        156        140        141        158        157        141        142        159        158        142        143        160        159        143        144        161        160        144        145        162        161        145        146        163        162        146        147        164        163        147        148        165        164        148        149        166        165        149        150        167        166        150        151        168        167        151        152        169        168        153        154        171        170        154        155        172        171        155        156        173        172        156        157        174        173        157        158        175        174        158        159        176        175        159        160        177        176        160        161        178        177        161        162        179        178        162        163        180        179        163        164        181        180        164        165        182        181        165        166        183        182        166        167        184        183        167        168        185        184        168        169        186        185        170        171        188        187        171        172        189        188        172        173        190        189        173        174        191        190        174        175        192        191        175        176        193        192        176        177        194        193        177        178        195        194        178        179        196        195        179        180        197        196        180        181        198        197        181        182        199        198        182        183        200        199        183        184        201        200        184        185        202        201        185        186        203        202        187        188        205        204        188        189        206        205        189        190        207        206        190        191        208        207        191        192        209        208        192        193        210        209        193        194        211        210        194        195        212        211        195        196        213        212        196        197        214        213        197        198        215        214        198        199        216        215        199        200        217        216        200        201        218        217        201        202        219        218        202        203        220        219        204        205        222        221        205        206        223        222        206        207        224        223        207        208        225        224        208        209        226        225        209        210        227        226        210        211        228        227        211        212        229        228        212        213        230        229        213        214        231        230        214        215        232        231        215        216        233        232        216        217        234        233        217        218        235        234        218        219        236        235        219        220        237        236        221        222        239        238        222        223        240        239        223        224        241        240        224        225        242        241        225        226        243        242        226        227        244        243        227        228        245        244        228        229        246        245        229        230        247        246        230        231        248        247        231        232        249        248        232        233        250        249        233        234        251        250        234        235        252        251        235        236        253        252        236        237        254        253        238        239        256        255        239        240        257        256        240        241        258        257        241        242        259        258        242        243        260        259        243        244        261        260        244        245        262        261        245        246        263        262        246        247        264        263        247        248        265        264        248        249        266        265        249        250        267        266        250        251        268        267        251        252        269        268        252        253        270        269        253        254        271        270        255        256        273        272        256        257        274        273        257        258        275        274        258        259        276        275        259        260        277        276        260        261        278        277        261        262        279        278        262        263        280        279        263        264        281        280        264        265        282        281        265        266        283        282        266        267        284        283        267        268        285        284        268        269        286        285        269        270        287        286        270        271        288        287        306        307          1          0        307        308          2          1        308        309          3          2        309        310          4          3        310        311          5          4        311        312          6          5        312        313          7          6        313        314          8          7        314        315          9          8        315        316         10          9        316        317         11         10        317        318         12         11        318        319         13         12        319        320         14         13        320        321         15         14        321        322         16         15        323        324        307        306        324        325        308        307        325        326        309        308        326        327        310        309        327        328        311        310        328        329        312        311        329        330        313        312        330        331        314        313        331        332        315        314        332        333        316        315        333        334        317        316        334        335        318        317        335        336        319        318        336        337        320        319        337        338        321        320        338        339        322        321        340        341        324        323        341        342        325        324        342        343        326        325        343        344        327        326        344        345        328        327        345        346        329        328        346        347        330        329        347        348        331        330        348        349        332        331        349        350        333        332        350        351        334        333        351        352        335        334        352        353        336        335        353        354        337        336        354        355        338        337        355        356        339        338        357        358        341        340        358        359        342        341        359        360        343        342        360        361        344        343        361        362        345        344        362        363        346        345        363        364        347        346        364        365        348        347        365        366        349        348        366        367        350        349        367        368        351        350        368        369        352        351        369        370        353        352        370        371        354        353        371        372        355        354        372        373        356        355        374        375        358        357        375        376        359        358        376        377        360        359        377        378        361        360        378        379        362        361        379        380        363        362        380        381        364        363        381        382        365        364        382        383        366        365        383        384        367        366        384        385        368        367        385        386        369        368        386        387        370        369        387        388        371        370        388        389        372        371        389        390        373        372        391        392        375        374        392        393        376        375        393        394        377        376        394        395        378        377        395        396        379        378        396        397        380        379        397        398        381        380        398        399        382        381        399        400        383        382        400        401        384        383        401        402        385        384        402        403        386        385        403        404        387        386        404        405        388        387        405        406        389        388        406        407        390        389        408        409        392        391        409        410        393        392        410        411        394        393        411        412        395        394        412        413        396        395        413        414        397        396        414        415        398        397        415        416        399        398        416        417        400        399        417        418        401        400        418        419        402        401        419        420        403        402        420        421        404        403        421        422        405        404        422        423        406        405        423        424        407        406        425        426        409        408        426        427        410        409        427        428        411        410        428        429        412        411        429        430        413        412        430        431        414        413        431        432        415        414        432        433        416        415        433        434        417        416        434        435        418        417        435        436        419        418        436        437        420        419        437        438        421        420        438        439        422        421        439        440        423        422        440        441        424        423        442        443        426        425        443        444        427        426        444        445        428        427        445        446        429        428        446        447        430        429        447        448        431        430        448        449        432        431        449        450        433        432        450        451        434        433        451        452        435        434        452        453        436        435        453        454        437        436        454        455        438        437        455        456        439        438        456        457        440        439        457        458        441        440        459        460        443        442        460        461        444        443        461        462        445        444        462        463        446        445        463        464        447        446        464        465        448        447        465        466        449        448        466        467        450        449        467        468        451        450        468        469        452        451        469        470        453        452        470        471        454        453        471        472        455        454        472        473        456        455        473        474        457        456        474        475        458        457        476        477        460        459        477        478        461        460        478        479        462        461        479        480        463        462        480        481        464        463        481        482        465        464        482        483        466        465        483        484        467        466        484        485        468        467        485        486        469        468        486        487        470        469        487        488        471        470        488        489        472        471        489        490        473        472        490        491        474        473        491        492        475        474        493        494        477        476        494        495        478        477        495        496        479        478        496        497        480        479        497        498        481        480        498        499        482        481        499        500        483        482        500        501        484        483        501        502        485        484        502        503        486        485        503        504        487        486        504        505        488        487        505        506        489        488        506        507        490        489        507        508        491        490        508        509        492        491        510        511        494        493        511        512        495        494        512        513        496        495        513        514        497        496        514        515        498        497        515        516        499        498        516        517        500        499        517        518        501        500        518        519        502        501        519        520        503        502        520        521        504        503        521        522        505        504        522        523        506        505        523        524        507        506        524        525        508        507        525        526        509        508        527        528        511        510        528        529        512        511        529        530        513        512        530        531        514        513        531        532        515        514        532        533        516        515        533        534        517        516        534        535        518        517        535        536        519        518        536        537        520        519        537        538        521        520        538        539        522        521        539        540        523        522        540        541        524        523        541        542        525        524        542        543        526        525        544        545        528        527        545        546        529        528        546        547        530        529        547        548        531        530        548        549        532        531        549        550        533        532        550        551        534        533        551        552        535        534        552        553        536        535        553        554        537        536        554        555        538        537        555        556        539        538        556        557        540        539        557        558        541        540        558        559        542        541        559        560        543        542        561        562        545        544        562        563        546        545        563        564        547        546        564        565        548        547        565        566        549        548        566        567        550        549        567        568        551        550        568        569        552        551        569        570        553        552        570        571        554        553        571        572        555        554        572        573        556        555        573        574        557        556        574        575        558        557        575        576        559        558        576        577        560        559        578        579        596        595        579        580        597        596        580        581        598        597        581        582        599        598        582        583        600        599        583        584        601        600        584        585        602        601        585        586        603        602        586        587        604        603        587        588        605        604        588        589        606        605        589        590        607        606        590        591        608        607        591        592        609        608        592        593        610        609        593        594        611        610        595        596        613        612        596        597        614        613        597        598        615        614        598        599        616        615        599        600        617        616        600        601        618        617        601        602        619        618        602        603        620        619        603        604        621        620        604        605        622        621        605        606        623        622        606        607        624        623        607        608        625        624        608        609        626        625        609        610        627        626        610        611        628        627        612        613        630        629        613        614        631        630        614        615        632        631        615        616        633        632        616        617        634        633        617        618        635        634        618        619        636        635        619        620        637        636        620        621        638        637        621        622        639        638        622        623        640        639        623        624        641        640        624        625        642        641        625        626        643        642        626        627        644        643        627        628        645        644        629        630        647        646        630        631        648        647        631        632        649        648        632        633        650        649        633        634        651        650        634        635        652        651        635        636        653        652        636        637        654        653        637        638        655        654        638        639        656        655        639        640        657        656        640        641        658        657        641        642        659        658        642        643        660        659        643        644        661        660        644        645        662        661        646        647        664        663        647        648        665        664        648        649        666        665        649        650        667        666        650        651        668        667        651        652        669        668        652        653        670        669        653        654        671        670        654        655        672        671        655        656        673        672        656        657        674        673        657        658        675        674        658        659        676        675        659        660        677        676        660        661        678        677        661        662        679        678        663        664        681        680        664        665        682        681        665        666        683        682        666        667        684        683        667        668        685        684        668        669        686        685        669        670        687        686        670        671        688        687        671        672        689        688        672        673        690        689        673        674        691        690        674        675        692        691        675        676        693        692        676        677        694        693        677        678        695        694        678        679        696        695        680        681        698        697        681        682        699        698        682        683        700        699        683        684        701        700        684        685        702        701        685        686        703        702        686        687        704        703        687        688        705        704        688        689        706        705        689        690        707        706        690        691        708        707        691        692        709        708        692        693        710        709        693        694        711        710        694        695        712        711        695        696        713        712        697        698        715        714        698        699        716        715        699        700        717        716        700        701        718        717        701        702        719        718        702        703        720        719        703        704        721        720        704        705        722        721        705        706        723        722        706        707        724        723        707        708        725        724        708        709        726        725        709        710        727        726        710        711        728        727        711        712        729        728        712        713        730        729        714        715        732        731        715        716        733        732        716        717        734        733        717        718        735        734        718        719        736        735        719        720        737        736        720        721        738        737        721        722        739        738        722        723        740        739        723        724        741        740        724        725        742        741        725        726        743        742        726        727        744        743        727        728        745        744        728        729        746        745        729        730        747        746        731        732        749        748        732        733        750        749        733        734        751        750        734        735        752        751        735        736        753        752        736        737        754        753        737        738        755        754        738        739        756        755        739        740        757        756        740        741        758        757        741        742        759        758        742        743        760        759        743        744        761        760        744        745        762        761        745        746        763        762        746        747        764        763        748        749        766        765        749        750        767        766        750        751        768        767        751        752        769        768        752        753        770        769        753        754        771        770        754        755        772        771        755        756        773        772        756        757        774        773        757        758        775        774        758        759        776        775        759        760        777        776        760        761        778        777        761        762        779        778        762        763        780        779        763        764        781        780        765        766        783        782        766        767        784        783        767        768        785        784        768        769        786        785        769        770        787        786        770        771        788        787        771        772        789        788        772        773        790        789        773        774        791        790        774        775        792        791        775        776        793        792        776        777        794        793        777        778        795        794        778        779        796        795        779        780        797        796        780        781        798        797        782        783        800        799        783        784        801        800        784        785        802        801        785        786        803        802        786        787        804        803        787        788        805        804        788        789        806        805        789        790        807        806        790        791        808        807        791        792        809        808        792        793        810        809        793        794        811        810        794        795        812        811        795        796        813        812        796        797        814        813        797        798        815        814        799        800        817        816        800        801        818        817        801        802        819        818        802        803        820        819        803        804        821        820        804        805        822        821        805        806        823        822        806        807        824        823        807        808        825        824        808        809        826        825        809        810        827        826        810        811        828        827        811        812        829        828        812        813        830        829        813        814        831        830        814        815        832        831        816        817        834        833        817        818        835        834        818        819        836        835        819        820        837        836        820        821        838        837        821        822        839        838        822        823        840        839        823        824        841        840        824        825        842        841        825        826        843        842        826        827        844        843        827        828        845        844        828        829        846        845        829        830        847        846        830        831        848        847        831        832        849        848        833        834        562        561        834        835        563        562        835        836        564        563        836        837        565        564        837        838        566        565        838        839        567        566        839        840        568        567        840        841        569        568        841        842        570        569        842        843        571        570        843        844        572        571        844        845        573        572        845        846        574        573        846        847        575        574        847        848        576        575        848        849        577        576        884        885        579        578        885        886        580        579        886        887        581        580        887        888        582        581        888        889        583        582        889        890        584        583        890        891        585        584        891        892        586        585        892        893        587        586        893        894        588        587        894        895        589        588        895        896        590        589        896        897        591        590        897        898        592        591        898        899        593        592        899        900        594        593        901        902        885        884        902        903        886        885        903        904        887        886        904        905        888        887        905        906        889        888        906        907        890        889        907        908        891        890        908        909        892        891        909        910        893        892        910        911        894        893        911        912        895        894        912        913        896        895        913        914        897        896        914        915        898        897        915        916        899        898        916        917        900        899        918        919        902        901        919        920        903        902        920        921        904        903        921        922        905        904        922        923        906        905        923        924        907        906        924        925        908        907        925        926        909        908        926        927        910        909        927        928        911        910        928        929        912        911        929        930        913        912        930        931        914        913        931        932        915        914        932        933        916        915        933        934        917        916        935        936        919        918        936        937        920        919        937        938        921        920        938        939        922        921        939        940        923        922        940        941        924        923        941        942        925        924        942        943        926        925        943        944        927        926        944        945        928        927        945        946        929        928        946        947        930        929        947        948        931        930        948        949        932        931        949        950        933        932        950        951        934        933        952        953        936        935        953        954        937        936        954        955        938        937        955        956        939        938        956        957        940        939        957        958        941        940        958        959        942        941        959        960        943        942        960        961        944        943        961        962        945        944        962        963        946        945        963        964        947        946        964        965        948        947        965        966        949        948        966        967        950        949        967        968        951        950        969        970        953        952        970        971        954        953        971        972        955        954        972        973        956        955        973        974        957        956        974        975        958        957        975        976        959        958        976        977        960        959        977        978        961        960        978        979        962        961        979        980        963        962        980        981        964        963        981        982        965        964        982        983        966        965        983        984        967        966        984        985        968        967        986        987        970        969        987        988        971        970        988        989        972        971        989        990        973        972        990        991        974        973        991        992        975        974        992        993        976        975        993        994        977        976        994        995        978        977        995        996        979        978        996        997        980        979        997        998        981        980        998        999        982        981        999       1000        983        982       1000       1001        984        983       1001       1002        985        984       1003       1004        987        986       1004       1005        988        987       1005       1006        989        988       1006       1007        990        989       1007       1008        991        990       1008       1009        992        991       1009       1010        993        992       1010       1011        994        993       1011       1012        995        994       1012       1013        996        995       1013       1014        997        996       1014       1015        998        997       1015       1016        999        998       1016       1017       1000        999       1017       1018       1001       1000       1018       1019       1002       1001       1020       1021       1004       1003       1021       1022       1005       1004       1022       1023       1006       1005       1023       1024       1007       1006       1024       1025       1008       1007       1025       1026       1009       1008       1026       1027       1010       1009       1027       1028       1011       1010       1028       1029       1012       1011       1029       1030       1013       1012       1030       1031       1014       1013       1031       1032       1015       1014       1032       1033       1016       1015       1033       1034       1017       1016       1034       1035       1018       1017       1035       1036       1019       1018       1037       1038       1021       1020       1038       1039       1022       1021       1039       1040       1023       1022       1040       1041       1024       1023       1041       1042       1025       1024       1042       1043       1026       1025       1043       1044       1027       1026       1044       1045       1028       1027       1045       1046       1029       1028       1046       1047       1030       1029       1047       1048       1031       1030       1048       1049       1032       1031       1049       1050       1033       1032       1050       1051       1034       1033       1051       1052       1035       1034       1052       1053       1036       1035       1054       1055       1038       1037       1055       1056       1039       1038       1056       1057       1040       1039       1057       1058       1041       1040       1058       1059       1042       1041       1059       1060       1043       1042       1060       1061       1044       1043       1061       1062       1045       1044       1062       1063       1046       1045       1063       1064       1047       1046       1064       1065       1048       1047       1065       1066       1049       1048       1066       1067       1050       1049       1067       1068       1051       1050       1068       1069       1052       1051       1069       1070       1053       1052       1071       1072       1055       1054       1072       1073       1056       1055       1073       1074       1057       1056       1074       1075       1058       1057       1075       1076       1059       1058       1076       1077       1060       1059       1077       1078       1061       1060       1078       1079       1062       1061       1079       1080       1063       1062       1080       1081       1064       1063       1081       1082       1065       1064       1082       1083       1066       1065       1083       1084       1067       1066       1084       1085       1068       1067       1085       1086       1069       1068       1086       1087       1070       1069       1088       1089       1072       1071       1089       1090       1073       1072       1090       1091       1074       1073       1091       1092       1075       1074       1092       1093       1076       1075       1093       1094       1077       1076       1094       1095       1078       1077       1095       1096       1079       1078       1096       1097       1080       1079       1097       1098       1081       1080       1098       1099       1082       1081       1099       1100       1083       1082       1100       1101       1084       1083       1101       1102       1085       1084       1102       1103       1086       1085       1103       1104       1087       1086       1105       1106       1089       1088       1106       1107       1090       1089       1107       1108       1091       1090       1108       1109       1092       1091       1109       1110       1093       1092       1110       1111       1094       1093       1111       1112       1095       1094       1112       1113       1096       1095       1113       1114       1097       1096       1114       1115       1098       1097       1115       1116       1099       1098       1116       1117       1100       1099       1117       1118       1101       1100       1118       1119       1102       1101       1119       1120       1103       1102       1120       1121       1104       1103       1122       1123       1106       1105       1123       1124       1107       1106       1124       1125       1108       1107       1125       1126       1109       1108       1126       1127       1110       1109       1127       1128       1111       1110       1128       1129       1112       1111       1129       1130       1113       1112       1130       1131       1114       1113       1131       1132       1115       1114       1132       1133       1116       1115       1133       1134       1117       1116       1134       1135       1118       1117       1135       1136       1119       1118       1136       1137       1120       1119       1137       1138       1121       1120        272        273       1123       1122        273        274       1124       1123        274        275       1125       1124        275        276       1126       1125        276        277       1127       1126        277        278       1128       1127        278        279       1129       1128        279        280       1130       1129        280        281       1131       1130        281        282       1132       1131        282        283       1133       1132        283        284       1134       1133        284        285       1135       1134        285        286       1136       1135        286        287       1137       1136        287        288       1138       1137 </DataArray>
<DataArray type="Int32"                                    Name="offsets"                                                      NumberOfComponents=" 1" format="ascii">
         4          8         12         16         20         24         28         32         36         40         44         48         52         56         60         64         68         72         76         80         84         88         92         96        100        104        108        112        116        120        124        128        132        136        140        144        148        152        156        160        164        168        172        176        180        184        188        192        196        200        204        208        212        216        220        224        228        232        236        240        244        248        252        256        260        264        268        272        276        280        284        288        292        296        300        304        308        312        316        320        324        328        332        336        340        344        348        352        356        360        364        368        372        376        380        384        388        392        396        400        404        408        412        416        420        424        428        432        436        440        444        448        452        456        460        464        468        472        476        480        484        488        492        496        500        504        508        512        516        520        524        528        532        536        540        544        548        552        556        560        564        568        572        576        580        584        588        592        596        600        604        608        612        616        620        624        628        632        636        640        644        648        652        656        660        664        668        672        676        680        684        688        692        696        700        704        708        712        716        720        724        728        732        736        740        744        748        752        756        760        764        768        772        776        780        784        788        792        796        800        804        808        812        816        820        824        828        832        836        840        844        848        852        856        860        864        868        872        876        880        884        888        892        896        900        904        908        912        916        920        924        928        932        936        940        944        948        952        956        960        964        968        972        976        980        984        988        992        996       1000       1004       1008       1012       1016       1020       1024       1028       1032       1036       1040       1044       1048       1052       1056       1060       1064       1068       1072       1076       1080       1084       1088       1092       1096       1100       1104       1108       1112       1116       1120       1124       1128       1132       1136       1140       1144       1148       1152       1156       1160       1164       1168       1172       1176       1180       1184       1188       1192       1196       1200       1204       1208       1212       1216       1220       1224       1228       1232       1236       1240       1244       1248       1252       1256       1260       1264       1268       1272       1276       1280       1284       1288       1292       1296       1300       1304       1308       1312       1316       1320       1324       1328       1332       1336       1340       1344       1348       1352       1356       1360       1364       1368       1372       1376       1380       1384       1388       1392       1396       1400       1404       1408       1412       1416       1420       1424       1428       1432       1436       1440       1444       1448       1452       1456       1460       1464       1468       1472       1476       1480       1484       1488       1492       1496       1500       1504       1508       1512       1516       1520       1524       1528       1532       1536       1540       1544       1548       1552       1556       1560       1564       1568       1572       1576       1580       1584       1588       1592       1596       1600       1604       1608       1612       1616       1620       1624       1628       1632       1636       1640       1644       1648       1652       1656       1660       1664       1668       1672       1676       1680       1684       1688       1692       1696       1700       1704       1708       1712       1716       1720       1724       1728       1732       1736       1740       1744       1748       1752       1756       1760       1764       1768       1772       1776       1780       1784       1788       1792       1796       1800       1804       1808       1812       1816       1820       1824       1828       1832       1836       1840       1844       1848       1852       1856       1860       1864       1868       1872       1876       1880       1884       1888       1892       1896       1900       1904       1908       1912       1916       1920       1924       1928       1932       1936       1940       1944       1948       1952       1956       1960       1964       1968       1972       1976       1980       1984       1988       1992       1996       2000       2004       2008       2012       2016       2020       2024       2028       2032       2036       2040       2044       2048       2052       2056       2060       2064       2068       2072       2076       2080       2084       2088       2092       2096       2100       2104       2108       2112       2116       2120       2124       2128       2132       2136       2140       2144       2148       2152       2156       2160       2164       2168       2172       2176       2180       2184       2188       2192       2196       2200       2204       2208       2212       2216       2220       2224       2228       2232       2236       2240       2244       2248       2252       2256       2260       2264       2268       2272       2276       2280       2284       2288       2292       2296       2300       2304       2308       2312       2316       2320       2324       2328       2332       2336       2340       2344       2348       2352       2356       2360       2364       2368       2372       2376       2380       2384       2388       2392       2396       2400       2404       2408       2412       2416       2420       2424       2428       2432       2436       2440       2444       2448       2452       2456       2460       2464       2468       2472       2476       2480       2484       2488       2492       2496       2500       2504       2508       2512       2516       2520       2524       2528       2532       2536       2540       2544       2548       2552       2556       2560       2564       2568       2572       2576       2580       2584       2588       2592       2596       2600       2604       2608       2612       2616       2620       2624       2628       2632       2636       2640       2644       2648       2652       2656       2660       2664       2668       2672       2676       2680       2684       2688       2692       2696       2700       2704       2708       2712       2716       2720       2724       2728       2732       2736       2740       2744       2748       2752       2756       2760       2764       2768       2772       2776       2780       2784       2788       2792       2796       2800       2804       2808       2812       2816       2820       2824       2828       2832       2836       2840       2844       2848       2852       2856       2860       2864       2868       2872       2876       2880       2884       2888       2892       2896       2900       2904       2908       2912       2916       2920       2924       2928       2932       2936       2940       2944       2948       2952       2956       2960       2964       2968       2972       2976       2980       2984       2988       2992       2996       3000       3004       3008       3012       3016       3020       3024       3028       3032       3036       3040       3044       3048       3052       3056       3060       3064       3068       3072       3076       3080       3084       3088       3092       3096       3100       3104       3108       3112       3116       3120       3124       3128       3132       3136       3140       3144       3148       3152       3156       3160       3164       3168       3172       3176       3180       3184       3188       3192       3196       3200       3204       3208       3212       3216       3220       3224       3228       3232       3236       3240       3244       3248       3252       3256       3260       3264       3268       3272       3276       3280       3284       3288       3292       3296       3300       3304       3308       3312       3316       3320       3324       3328       3332       3336       3340       3344       3348       3352       3356       3360       3364       3368       3372       3376       3380       3384       3388       3392       3396       3400       3404       3408       3412       3416       3420       3424       3428       3432       3436       3440       3444       3448       3452       3456       3460       3464       3468       3472       3476       3480       3484       3488       3492       3496       3500       3504       3508       3512       3516       3520       3524       3528       3532       3536       3540       3544       3548       3552       3556       3560       3564       3568       3572       3576       3580       3584       3588       3592       3596       3600       3604       3608       3612       3616       3620       3624       3628       3632       3636       3640       3644       3648       3652       3656       3660       3664       3668       3672       3676       3680       3684       3688       3692       3696       3700       3704       3708       3712       3716       3720       3724       3728       3732       3736       3740       3744       3748       3752       3756       3760       3764       3768       3772       3776       3780       3784       3788       3792       3796       3800       3804       3808       3812       3816       3820       3824       3828       3832       3836       3840       3844       3848       3852       3856       3860       3864       3868       3872       3876       3880       3884       3888       3892       3896       3900       3904       3908       3912       3916       3920       3924       3928       3932       3936       3940       3944       3948       3952       3956       3960       3964       3968       3972       3976       3980       3984       3988       3992       3996       4000       4004       4008       4012       4016       4020       4024       4028       4032       4036       4040       4044       4048       4052       4056       4060       4064       4068       4072       4076       4080       4084       4088       4092       4096 </DataArray>
<DataArray type="UInt8"                                    Name="types"                                                      NumberOfComponents=" 1" format="ascii">
         9          9          9          9          9          9          9          9          9          9          9          9          9          9          9          9          9          9          9          9          9          9          9          9          9          9          9          9          9          9          9          9          9          9          9          9          9          9          9          9          9          9          9          9          9          9          9          9          9          9          9          9          9          9          9          9          9          9          9          9          9          9          9          9          9          9          9          9          9          9          9          9          9          9          9          9          9          9          9          9          9          9          9          9          9          9          9          9          9          9          9          9          9          9          9          9          9          9          9          9          9          9          9          9          9          9          9          9          9          9          9          9          9          9          9          9          9          9          9          9          9          9          9          9          9          9          9          9          9          9          9          9          9          9          9          9          9          9          9          9          9          9          9          9          9          9          9          9          9          9          9          9          9          9          9          9          9          9          9          9          9          9          9          9          9          9          9          9          9          9          9          9          9          9          9          9          9          9          9          9          9          9          9          9          9          9          9          9          9          9          9          9          9          9          9          9          9          9          9          9          9          9          9          9          9          9          9          9          9          9          9          9          9          9          9          9          9          9          9          9          9          9          9          9          9          9          9          9          9          9          9          9          9          9          9          9          9          9          9          9          9          9          9          9          9          9          9          9          9          9          9          9          9          9          9          9          9          9          9          9          9          9          9          9          9          9          9          9          9          9          9          9          9          9          9          9          9          9          9          9          9          9          9          9          9          9          9          9          9          9          9          9          9          9          9          9          9          9          9          9          9          9          9          9          9          9          9          9          9          9          9          9          9          9          9          9          9          9          9          9          9          9          9          9          9          9          9          9          9          9          9          9          9          9          9          9          9          9          9          9          9          9          9          9          9          9          9          9          9          9          9          9          9          9          9          9          9          9          9          9          9          9          9          9          9          9          9          9          9          9          9          9          9          9          9          9          9          9          9          9          9          9          9          9          9          9          9          9          9          9          9          9          9          9          9          9          9          9          9          9          9          9          9          9          9          9          9          9          9          9          9          9          9          9          9          9          9          9          9          9          9          9          9          9          9          9          9          9          9          9          9          9          9          9          9          9          9          9          9          9          9          9          9          9          9          9          9          9          9          9          9          9          9          9          9          9          9          9          9          9          9          9          9          9          9          9          9          9          9          9          9          9          9          9          9          9          9          9          9          9          9          9          9          9          9          9          9          9          9          9          9          9          9          9          9          9          9          9          9          9          9          9          9          9          9          9          9          9          9          9          9          9          9          9          9          9          9          9          9          9          9          9          9          9          9          9          9          9          9          9          9          9          9          9          9          9          9          9          9          9          9          9          9          9          9          9          9          9          9          9          9          9          9          9          9          9          9          9          9          9          9          9          9          9          9          9          9          9          9          9          9          9          9          9          9          9          9          9          9          9          9          9          9          9          9          9          9          9          9          9          9          9          9          9          9          9          9          9          9          9          9          9          9          9          9          9          9          9          9          9          9          9          9          9          9          9          9          9          9          9          9          9          9          9          9          9          9          9          9          9          9          9          9          9          9          9          9          9          9          9          9          9          9          9          9          9          9          9          9          9          9          9          9          9          9          9          9          9          9          9          9          9          9          9          9          9          9          9          9          9          9          9          9          9          9          9          9          9          9          9          9          9          9          9          9          9          9          9          9          9          9          9          9          9          9          9          9          9          9          9          9          9          9          9          9          9          9          9          9          9          9          9          9          9          9          9          9          9          9          9          9          9          9          9          9          9          9          9          9          9          9          9          9          9          9          9          9          9          9          9          9          9          9          9          9          9          9          9          9          9          9          9          9          9          9          9          9          9          9          9          9          9          9          9          9          9          9          9          9          9          9          9          9          9          9          9          9          9          9          9          9          9          9          9          9          9          9          9          9          9          9          9          9          9          9          9          9          9          9          9          9          9          9          9          9          9          9          9          9          9          9          9          9          9          9          9          9          9          9          9          9          9          9          9          9          9          9          9          9          9          9          9          9          9          9          9          9          9          9          9          9          9          9          9          9          9          9          9          9          9          9          9          9          9          9          9          9          9          9          9          9          9          9          9          9          9          9          9          9          9          9          9          9          9          9          9          9          9          9          9          9          9          9          9          9          9          9          9          9          9          9          9          9          9          9          9          9          9          9          9          9          9          9          9          9          9          9          9          9          9          9          9          9          9          9          9          9          9          9          9          9          9          9          9          9          9          9          9          9          9          9          9          9          9          9          9          9          9          9          9          9          9          9          9          9          9          9          9          9          9          9          9          9          9          9          9          9          9          9          9          9          9          9          9          9          9          9          9          9          9          9          9          9          9          9          9          9          9          9          9          9          9          9          9          9          9          9          9          9          9          9          9          9          9          9          9          9          9          9          9          9          9          9          9          9          9          9          9          9          9          9          9          9          9          9          9          9          9          9          9          9          9          9          9 </DataArray>
</Cells>
<CellData>
<DataArray type="Int32"                                    Name="material"                                                      NumberOfComponents=" 1" format="ascii">
         1          1          1          1          1          1          1          1          1          1          1          1          1          1          1          1          1          1          1          1          1          1          1          1          1          1          1          1          1          1          1          1          1          1          1          1          1          1          1          1          1          1          1          1          1          1          1          1          1          1          1          1          1          1          1          1          1          1          1          1          1          1          1          1          1          1          1          1          1          1          1          1          1          1          1          1          1          1          1          1          1          1          1          1          1          1          1          1          1          1          1          1          1          1          1          1          1          1          1          1          1          1          1          1          1          1          1          1          1          1          1          1          1          1          1          1          1          1          1          1          1          1          1          1          1          1          1          1          1          1          1          1          1          1          1          1          1          1          1          1          1          1          1          1          1          1          1          1          1          1          1          1          1          1          1          1          1          1          1          1          1          1          1          1          1          1          1          1          1          1          1          1          1          1          1          1          1          1          1          1          1          1          1          1          1          1          1          1          1          1          1          1          1          1          1          1          1          1          1          1          1          1          1          1          1          1          1          1          1          1          1          1          1          1          1          1          1          1          1          1          1          1          1          1          1          1          1          1          1          1          1          1          1          1          1          1          1          1          1          1          1          1          1          1          1          1          1          1          1          1          1          1          1          1          1          1          1          1          1          1          1          1          1          1          1          1          1          1          1          1          1          1          1          1          1          1          1          1          1          1          1          1          1          1          1          1          1          1          1          1          1          1          1          1          1          1          1          1          1          1          1          1          1          1          1          1          1          1          1          1          1          1          1          1          1          1          1          1          1          1          1          1          1          1          1          1          1          1          1          1          1          1          1          1          1          1          1          1          1          1          1          1          1          1          1          1          1          1          1          1          1          1          1          1          1          1          1          1          1          1          1          1          1          1          1          1          1          1          1          1          1          1          1          1          1          1          1          1          1          1          1          1          1          1          1          1          1          1          1          1          1          1          1          1          1          1          1          1          1          1          1          1          1          1          1          1          1          1          1          1          1          1          1          1          1          1          1          1          1          1          1          1          1          1          1          1          1          1          1          1          1          1          1          1          1          1          1          1          1          1          1          1          1          1          1          1          1          1          1          1          1          1          1          1          1          1          1          1          1          1          1          1          1          1          1          1          1          1          1          1          1          1          1          1          1          1          1          1          1          1          1          1          1          1          1          1          1          1          1          1          1          1          1          1          1          1          1          1          1          1          1          1          1          1          1          1          1          1          1          1          1          1          1          1          1          1          1          1          1          1          1          1          1          1          1          1          1          1          1          1          1          1          1          1          1          1          1          1          1          1          1          1          1          1          1          1          1          1          1          1          1          1          1          1          1          1          1          1          1          1          1          1          1          1          1          1          1          1          1          1          1          1          1          1          1          1          1          1          1          1          1          1          1          1          1          1          1          1          1          1          1          1          1          1          1          1          1          1          1          1          1          1          1          1          1          1          1          1          1          1          1          1          1          1          1          1          1          1          1          1          1          1          1          1          1          1          1          1          1          1          1          1          1          1          1          1          1          1          1          1          1          1          1          1          1          1          1          1          1          1          1          1          1          1          1          1          1          1          1          1          1          1          1          1          1          1          1          1          1          1          1          1          1          1          1          1          1          1          1          1          1          1          1          1          1          1          1          1          1          1          1          1          1          1          1          1          1          1          1          1          1          1          1          1          1          1          1          1          1          1          1          1          1          1          1          1          1          1          1          1          1          1          1          1          1          1          1          1          1          1          1          1          1          1          1          1          1          1          1          1          1          1          1          1          1          1          1          1          1          1          1          1          1          1          1          1          1          1          1          1          1          1          1          1          1          1          1          1          1          1          1          1          1          1          1          1          1          1          1          1          1          1          1          1          1          1          1          1          1          1          1          1          1          1          1          1          1          1          1          1          1          1          1          1          1          1          1          1          1          1          1          1          1          1          1          1          1          1          1          1          1          1          1          1          1          1          1          1          1          1          1          1          1          1          1          1          1          1          1          1          1          1          1          1          1          1          1          1          1          1          1          1          1          1          1          1          1          1          1          1          1          1          1          1          1          1          1          1          1          1          1          1          1          1          1          1          1          1          1          1          1          1          1          1          1          1          1          1          1          1          1          1          1          1          1          1          1          1          1          1          1          1          1          1          1          1          1          1          1          1          1          1          1          1          1          1          1          1          1          1          1          1          1          1          1          1          1          1          1          1          1          1          1          1          1          1          1          1          1          1          1          1          1          1          1          1          1          1          1          1          1          1          1          1          1          1          1          1          1          1          1          1          1          1          1          1          1          1          1          1          1          1          1          1          1          1          1          1          1          1          1          1          1          1          1          1          1          1          1          1          1          1          1          1          1          1          1          1          1          1          1          1          1          1          1          1          1          1          1          1          1          1          1          1          1          1          1          1          1          1          1          1          1          1 </DataArray>
</CellData>
<PointData>
<DataArray type="Float64"                                    Name="u"                                                      NumberOfComponents=" 3" format="ascii">
              0.000007451              -0.000000000               0.999999998              -0.000001728              -0.000000000               0.999999998              -0.000006176              -0.000000000               0.999999998              -0.000008675              -0.000000000               0.999999998              -0.000010476              -0.000000000               0.999999998              -0.000012177               0.000000000               0.999999998              -0.000014078               0.000000000               0.999999998              -0.000016356              -0.000000000               0.999999998              -0.000019082              -0.000000000               0.999999998              -0.000022358              -0.000000000               0.999999998              -0.000026225              -0.000000000               0.999999998              -0.000030570              -0.000000000               0.999999998              -0.000035397              -0.000000000               0.999999998              -0.000040750              -0.000000000               0.999999998              -0.000046629              -0.000000000               0.999999998              -0.000052960               0.000000000               0.999999998              -0.000059688              -0.000000000               0.999999998               0.000007346               0.000022641               0.999999998              -0.000001518               0.000020427               0.999999998              -0.000005774               0.000019958               0.999999998              -0.000008225               0.000020491               0.999999998              -0.000010057               0.000021708               0.999999998              -0.000011800               0.000023380               0.999999998              -0.000013828               0.000025407               0.999999998              -0.000016241               0.000027769               0.999999998              -0.000019135               0.000030283               0.999999998              -0.000022570               0.000033038               0.999999998              -0.000026519               0.000035887               0.999999998              -0.000031014               0.000038959               0.999999998              -0.000036043               0.000042143               0.999999998              -0.000041587               0.000045658               0.999999998              -0.000047626               0.000049310               0.999999998              -0.000054117               0.000052988               0.999999998              -0.000061003               0.000056760               0.999999998               0.000007050               0.000045080               0.999999998              -0.000000896               0.000040635               0.999999998              -0.000004676               0.000039761               0.999999998              -0.000006957               0.000040939               0.999999998              -0.000008856               0.000043416               0.999999998              -0.000010863               0.000046847               0.999999998              -0.000013217               0.000050962               0.999999998              -0.000016034               0.000055577               0.999999998              -0.000019375               0.000060696               0.999999998              -0.000023263               0.000066108               0.999999998              -0.000027706               0.000071860               0.999999998              -0.000032726               0.000077912               0.999999998              -0.000038244               0.000084416               0.999999998              -0.000044291               0.000091376               0.999999998              -0.000050844               0.000098589               0.999999998              -0.000057784               0.000105784               0.999999998              -0.000065052               0.000113201               0.999999998               0.000006637               0.000067123               0.999999998               0.000000160               0.000060398               0.999999998              -0.000002934               0.000059244               0.999999998              -0.000005068               0.000061186               0.999999998              -0.000007202               0.000065064               0.999999998              -0.000009643               0.000070267               0.999999998              -0.000012575               0.000076473               0.999999998              -0.000016091               0.000083514               0.999999998              -0.000020147               0.000091117               0.999999998              -0.000024800               0.000099256               0.999999998              -0.000030038               0.000107850               0.999999998              -0.000035844               0.000117030               0.999999998              -0.000042236               0.000126689               0.999999998              -0.000049106               0.000136967               0.999999998              -0.000056362               0.000147490               0.999999998              -0.000063928               0.000158009               0.999999998              -0.000071793               0.000168853               0.999999998               0.000006110               0.000088553               0.999999998               0.000001610               0.000079516               0.999999998              -0.000000709               0.000078289               0.999999998              -0.000002852               0.000081198               0.999999998              -0.000005419               0.000086619               0.999999998              -0.000008562               0.000093724               0.999999998              -0.000012402               0.000102112               0.999999998              -0.000016821               0.000111459               0.999999998              -0.000021854               0.000121581               0.999999998              -0.000027482               0.000132359               0.999999998              -0.000033693               0.000143845               0.999999998              -0.000040516               0.000156021               0.999999998              -0.000047890               0.000168906               0.999999998              -0.000055684               0.000182295               0.999999998              -0.000063737               0.000195919               0.999999998              -0.000072061               0.000209586               0.999999998              -0.000080666               0.000223589               0.999999998               0.000005544               0.000109158               0.999999998               0.000003454               0.000097961               0.999999998               0.000001765               0.000096915               0.999999998              -0.000000627               0.000100953               0.999999998              -0.000003885               0.000107994               0.999999998              -0.000008035               0.000116996               0.999999998              -0.000012902               0.000127545               0.999999998              -0.000018410               0.000139176               0.999999998              -0.000024518               0.000151797               0.999999998              -0.000031254               0.000165229               0.999999998              -0.000038592               0.000179628               0.999999998              -0.000046455               0.000194901               0.999999998              -0.000054817               0.000210940               0.999999998              -0.000063459               0.000227255               0.999999998              -0.000072319               0.000243848               0.999999998              -0.000081386               0.000260566               0.999999998              -0.000090671               0.000277608               0.999999998               0.000005029               0.000128754               0.999999998               0.000005523               0.000115722               0.999999998               0.000004226               0.000115036               0.999999998               0.000001362               0.000120308               0.999999998              -0.000002873               0.000128990               0.999999998              -0.000008129               0.000139980               0.999999998              -0.000014123               0.000152667               0.999999998              -0.000020777               0.000166644               0.999999998              -0.000028037               0.000181772               0.999999998              -0.000035866               0.000198033               0.999999998              -0.000044219               0.000215358               0.999999998              -0.000053046               0.000233794               0.999999998              -0.000062263               0.000252906               0.999999998              -0.000071714               0.000272119               0.999999998              -0.000081318               0.000291528               0.999999998              -0.000091160               0.000311210               0.999999998              -0.000101332               0.000331404               0.999999998               0.000004527               0.000147121               0.999999998               0.000007647               0.000132708               0.999999998               0.000006517               0.000132532               0.999999998               0.000002874               0.000139089               0.999999998              -0.000002440               0.000149479               0.999999998              -0.000008814               0.000162492               0.999999998              -0.000015956               0.000177347               0.999999998              -0.000023741               0.000193803               0.999999998              -0.000032040               0.000211644               0.999999998              -0.000040801               0.000230809               0.999999998              -0.000050163               0.000251163               0.999999998              -0.000059968               0.000272599               0.999999998              -0.000070020               0.000294549               0.999999998              -0.000080151               0.000316696               0.999999998              -0.000090571               0.000339288               0.999999998              -0.000101380               0.000362468               0.999999998              -0.000112611               0.000386388               0.999999998               0.000003935               0.000163911               0.999999998               0.000009744               0.000148867               0.999999998               0.000008347               0.000149287               0.999999998               0.000003783               0.000157123               0.999999998              -0.000002578               0.000169323               0.999999998              -0.000010059               0.000184398               0.999999998              -0.000018238               0.000201610               0.999999998              -0.000026912               0.000220684               0.999999998              -0.000036048               0.000241385               0.999999998              -0.000045833               0.000263569               0.999999998              -0.000056141               0.000287001               0.999999998              -0.000066788               0.000311390               0.999999998              -0.000077445               0.000336444               0.999999998              -0.000088319               0.000362156               0.999999998              -0.000099582               0.000388765               0.999999998              -0.000111261               0.000416367               0.999999998              -0.000123322               0.000444826               0.999999998               0.000003087               0.000179613               0.999999998               0.000010972               0.000165616               0.999999998               0.000010562               0.000164453               0.999999998               0.000006811               0.000170392               0.999999998               0.000001159               0.000180723               0.999999998              -0.000005547               0.000193969               0.999999998              -0.000012891               0.000209353               0.999999998              -0.000020593               0.000226487               0.999999998              -0.000028600               0.000245228               0.999999998              -0.000037032               0.000265382               0.999999998              -0.000046003               0.000286791               0.999999998              -0.000055404               0.000309301               0.999999998              -0.000064873               0.000332612               0.999999998              -0.000074409               0.000356797               0.999999998              -0.000084056               0.000381700               0.999999998              -0.000093840               0.000407732               0.999999998              -0.000104028               0.000434930               0.999999998               0.000002387               0.000193776               0.999999998               0.000011396               0.000181632               0.999999998               0.000012041               0.000179705               0.999999998               0.000009226               0.000184119               0.999999998               0.000004431               0.000192797               0.999999998              -0.000001424               0.000204382               0.999999998              -0.000007881               0.000218037               0.999999998              -0.000014553               0.000233414               0.999999998              -0.000021546               0.000250321               0.999999998              -0.000028694               0.000268617               0.999999998              -0.000036240               0.000288178               0.999999998              -0.000044340               0.000308849               0.999999998              -0.000052656               0.000330417               0.999999998              -0.000060959               0.000352869               0.999999998              -0.000069156               0.000376236               0.999999998              -0.000077200               0.000400612               0.999999998              -0.000085459               0.000426154               0.999999998               0.000001777               0.000206117               0.999999998               0.000011035               0.000196486               0.999999998               0.000012529               0.000194428               0.999999998               0.000010641               0.000197830               0.999999998               0.000006860               0.000205132               0.999999998               0.000001912               0.000215242               0.999999998              -0.000003582               0.000227410               0.999999998              -0.000009340               0.000241172               0.999999998              -0.000015224               0.000256454               0.999999998              -0.000021211               0.000273071               0.999999998              -0.000027433               0.000290965               0.999999998              -0.000034170               0.000309978               0.999999998              -0.000041205               0.000329929               0.999999998              -0.000048150               0.000350831               0.999999998              -0.000054727               0.000372700               0.999999998              -0.000061183               0.000395586               0.999999998              -0.000067578               0.000419607               0.999999998               0.000001254               0.000216453               0.999999998               0.000009889               0.000209588               0.999999998               0.000011893               0.000208015               0.999999998               0.000010830               0.000210859               0.999999998               0.000008058               0.000217152               0.999999998               0.000004159               0.000226043               0.999999998              -0.000000344               0.000236983               0.999999998              -0.000005120               0.000249478               0.999999998              -0.000009905               0.000263372               0.999999998              -0.000014744               0.000278604               0.999999998              -0.000019684               0.000295083               0.999999998              -0.000025018               0.000312744               0.999999998              -0.000030550               0.000331398               0.999999998              -0.000036024               0.000350910               0.999999998              -0.000041231               0.000371360               0.999999998              -0.000045951               0.000392923               0.999999998              -0.000050334               0.000415644               0.999999998               0.000000830               0.000224656               0.999999998               0.000008040               0.000220418               0.999999998               0.000010137               0.000219687               0.999999998               0.000009711               0.000222390               0.999999998               0.000007810               0.000228044               0.999999998               0.000005018               0.000236112               0.999999998               0.000001585               0.000246070               0.999999998              -0.000002029               0.000257658               0.999999998              -0.000005688               0.000270625               0.999999998              -0.000009339               0.000284795               0.999999998              -0.000013139               0.000300192               0.999999998              -0.000017025               0.000316772               0.999999998              -0.000021141               0.000334460               0.999999998              -0.000025234               0.000353004               0.999999998              -0.000028911               0.000372447               0.999999998              -0.000031926               0.000392959               0.999999998              -0.000034330               0.000414649               0.999999998               0.000000513               0.000230603               0.999999998               0.000005659               0.000228572               0.999999998               0.000007396               0.000228701               0.999999998               0.000007329               0.000231534               0.999999998               0.000006211               0.000236898               0.999999998               0.000004383               0.000244412               0.999999998               0.000002144               0.000253768               0.999999998              -0.000000320               0.000264726               0.999999998              -0.000002705               0.000277055               0.999999998              -0.000005168               0.000290568               0.999999998              -0.000007781               0.000305233               0.999999998              -0.000010455               0.000321025               0.999999998              -0.000013125               0.000337962               0.999999998              -0.000015757               0.000355976               0.999999998              -0.000017984               0.000374978               0.999999998              -0.000019641               0.000394918               0.999999998              -0.000020544               0.000416000               0.999999998               0.000000244               0.000234178               0.999999998               0.000002918               0.000233603               0.999999998               0.000003907               0.000234418               0.999999998               0.000003930               0.000237448               0.999999998               0.000003434               0.000242696               0.999999998               0.000002560               0.000249954               0.999999998               0.000001442               0.000258948               0.999999998               0.000000198               0.000269505               0.999999998              -0.000000996               0.000281466               0.999999998              -0.000002173               0.000294669               0.999999998              -0.000003532               0.000308944               0.999999998              -0.000005080               0.000324331               0.999999998              -0.000006296               0.000340891               0.999999998              -0.000007290               0.000358599               0.999999998              -0.000008506               0.000377437               0.999999998              -0.000009249               0.000397298               0.999999998              -0.000009268               0.000418204               0.999999998              -0.000000000               0.000235419               0.999999998              -0.000000000               0.000235346               0.999999998              -0.000000000               0.000236380               0.999999998               0.000000000               0.000239482               0.999999998               0.000000000               0.000244720               0.999999998               0.000000000               0.000251891               0.999999998               0.000000000               0.000260793               0.999999998               0.000000000               0.000271280               0.999999998               0.000000000               0.000283076               0.999999998               0.000000000               0.000296070               0.999999998              -0.000000000               0.000310284               0.999999998              -0.000000000               0.000325623               0.999999998              -0.000000000               0.000342039               0.999999998               0.000000000               0.000359608               0.999999998              -0.000000000               0.000378400               0.999999998               0.000000000               0.000398370               0.999999998               0.000000000               0.000419319               0.999999998               0.000007451              -0.000000000               0.999999998              -0.000001728              -0.000000000               0.999999998              -0.000006176              -0.000000000               0.999999998              -0.000008675              -0.000000000               0.999999998              -0.000010476              -0.000000000               0.999999998              -0.000012177               0.000000000               0.999999998              -0.000014078               0.000000000               0.999999998              -0.000016356              -0.000000000               0.999999998              -0.000019082              -0.000000000               0.999999998              -0.000022358              -0.000000000               0.999999998              -0.000026225              -0.000000000               0.999999998              -0.000030570              -0.000000000               0.999999998              -0.000035397              -0.000000000               0.999999998              -0.000040750              -0.000000000               0.999999998              -0.000046629              -0.000000000               0.999999998              -0.000052960               0.000000000               0.999999998              -0.000059688              -0.000000000               0.999999998               0.000007346              -0.000022641               0.999999998              -0.000001518              -0.000020427               0.999999998              -0.000005774              -0.000019958               0.999999998              -0.000008225              -0.000020491               0.999999998              -0.000010057              -0.000021708               0.999999998              -0.000011800              -0.000023380               0.999999998              -0.000013828              -0.000025407               0.999999998              -0.000016241              -0.000027769               0.999999998              -0.000019135              -0.000030283               0.999999998              -0.000022570              -0.000033038               0.999999998              -0.000026519              -0.000035887               0.999999998              -0.000031014              -0.000038959               0.999999998              -0.000036043              -0.000042143               0.999999998              -0.000041587              -0.000045658               0.999999998              -0.000047626              -0.000049310               0.999999998              -0.000054117              -0.000052988               0.999999998              -0.000061003              -0.000056760               0.999999998               0.000007050              -0.000045080               0.999999998              -0.000000896              -0.000040635               0.999999998              -0.000004676              -0.000039761               0.999999998              -0.000006957              -0.000040939               0.999999998              -0.000008856              -0.000043416               0.999999998              -0.000010863              -0.000046847               0.999999998              -0.000013217              -0.000050962               0.999999998              -0.000016034              -0.000055577               0.999999998              -0.000019375              -0.000060696               0.999999998              -0.000023263              -0.000066108               0.999999998              -0.000027706              -0.000071860               0.999999998              -0.000032726              -0.000077912               0.999999998              -0.000038244              -0.000084416               0.999999998              -0.000044291              -0.000091376               0.999999998              -0.000050844              -0.000098589               0.999999998              -0.000057784              -0.000105784               0.999999998              -0.000065052              -0.000113201               0.999999998               0.000006637              -0.000067123               0.999999998               0.000000160              -0.000060398               0.999999998              -0.000002934              -0.000059244               0.999999998              -0.000005068              -0.000061186               0.999999998              -0.000007202              -0.000065064               0.999999998              -0.000009643              -0.000070267               0.999999998              -0.000012575              -0.000076473               0.999999998              -0.000016091              -0.000083514               0.999999998              -0.000020147              -0.000091117               0.999999998              -0.000024800              -0.000099256               0.999999998              -0.000030038              -0.000107850               0.999999998              -0.000035844              -0.000117030               0.999999998              -0.000042236              -0.000126689               0.999999998              -0.000049106              -0.000136967               0.999999998              -0.000056362              -0.000147490               0.999999998              -0.000063928              -0.000158009               0.999999998              -0.000071793              -0.000168853               0.999999998               0.000006110              -0.000088553               0.999999998               0.000001610              -0.000079516               0.999999998              -0.000000709              -0.000078289               0.999999998              -0.000002852              -0.000081198               0.999999998              -0.000005419              -0.000086619               0.999999998              -0.000008562              -0.000093724               0.999999998              -0.000012402              -0.000102112               0.999999998              -0.000016821              -0.000111459               0.999999998              -0.000021854              -0.000121581               0.999999998              -0.000027482              -0.000132359               0.999999998              -0.000033693              -0.000143845               0.999999998              -0.000040516              -0.000156021               0.999999998              -0.000047890              -0.000168906               0.999999998              -0.000055684              -0.000182295               0.999999998              -0.000063737              -0.000195919               0.999999998              -0.000072061              -0.000209586               0.999999998              -0.000080666              -0.000223589               0.999999998               0.000005544              -0.000109158               0.999999998               0.000003454              -0.000097961               0.999999998               0.000001765              -0.000096915               0.999999998              -0.000000627              -0.000100953               0.999999998              -0.000003885              -0.000107994               0.999999998              -0.000008035              -0.000116996               0.999999998              -0.000012902              -0.000127545               0.999999998              -0.000018410              -0.000139176               0.999999998              -0.000024518              -0.000151797               0.999999998              -0.000031254              -0.000165229               0.999999998              -0.000038592              -0.000179628               0.999999998              -0.000046455              -0.000194901               0.999999998              -0.000054817              -0.000210940               0.999999998              -0.000063459              -0.000227255               0.999999998              -0.000072319              -0.000243848               0.999999998              -0.000081386              -0.000260566               0.999999998              -0.000090671              -0.000277608               0.999999998               0.000005029              -0.000128754               0.999999998               0.000005523              -0.000115722               0.999999998               0.000004226              -0.000115036               0.999999998               0.000001362              -0.000120308               0.999999998              -0.000002873              -0.000128990               0.999999998              -0.000008129              -0.000139980               0.999999998              -0.000014123              -0.000152667               0.999999998              -0.000020777              -0.000166644               0.999999998              -0.000028037              -0.000181772               0.999999998              -0.000035866              -0.000198033               0.999999998              -0.000044219              -0.000215358               0.999999998              -0.000053046              -0.000233794               0.999999998              -0.000062263              -0.000252906               0.999999998              -0.000071714              -0.000272119               0.999999998              -0.000081318              -0.000291528               0.999999998              -0.000091160              -0.000311210               0.999999998              -0.000101332              -0.000331404               0.999999998               0.000004527              -0.000147121               0.999999998               0.000007647              -0.000132708               0.999999998               0.000006517              -0.000132532               0.999999998               0.000002874              -0.000139089               0.999999998              -0.000002440              -0.000149479               0.999999998              -0.000008814              -0.000162492               0.999999998              -0.000015956              -0.000177347               0.999999998              -0.000023741              -0.000193803               0.999999998              -0.000032040              -0.000211644               0.999999998              -0.000040801              -0.000230809               0.999999998              -0.000050163              -0.000251163               0.999999998              -0.000059968              -0.000272599               0.999999998              -0.000070020              -0.000294549               0.999999998              -0.000080151              -0.000316696               0.999999998              -0.000090571              -0.000339288               0.999999998              -0.000101380              -0.000362468               0.999999998              -0.000112611              -0.000386388               0.999999998               0.000003935              -0.000163911               0.999999998               0.000009744              -0.000148867               0.999999998               0.000008347              -0.000149287               0.999999998               0.000003783              -0.000157123               0.999999998              -0.000002578              -0.000169323               0.999999998              -0.000010059              -0.000184398               0.999999998              -0.000018238              -0.000201610               0.999999998              -0.000026912              -0.000220684               0.999999998              -0.000036048              -0.000241385               0.999999998              -0.000045833              -0.000263569               0.999999998              -0.000056141              -0.000287001               0.999999998              -0.000066788              -0.000311390               0.999999998              -0.000077445              -0.000336444               0.999999998              -0.000088319              -0.000362156               0.999999998              -0.000099582              -0.000388765               0.999999998              -0.000111261              -0.000416367               0.999999998              -0.000123322              -0.000444826               0.999999998               0.000003087              -0.000179613               0.999999998               0.000010972              -0.000165616               0.999999998               0.000010562              -0.000164453               0.999999998               0.000006811              -0.000170392               0.999999998               0.000001159              -0.000180723               0.999999998              -0.000005547              -0.000193969               0.999999998              -0.000012891              -0.000209353               0.999999998              -0.000020593              -0.000226487               0.999999998              -0.000028600              -0.000245228               0.999999998              -0.000037032              -0.000265382               0.999999998              -0.000046003              -0.000286791               0.999999998              -0.000055404              -0.000309301               0.999999998              -0.000064873              -0.000332612               0.999999998              -0.000074409              -0.000356797               0.999999998              -0.000084056              -0.000381700               0.999999998              -0.000093840              -0.000407732               0.999999998              -0.000104028              -0.000434930               0.999999998               0.000002387              -0.000193776               0.999999998               0.000011396              -0.000181632               0.999999998               0.000012041              -0.000179705               0.999999998               0.000009226              -0.000184119               0.999999998               0.000004431              -0.000192797               0.999999998              -0.000001424              -0.000204382               0.999999998              -0.000007881              -0.000218037               0.999999998              -0.000014553              -0.000233414               0.999999998              -0.000021546              -0.000250321               0.999999998              -0.000028694              -0.000268617               0.999999998              -0.000036240              -0.000288178               0.999999998              -0.000044340              -0.000308849               0.999999998              -0.000052656              -0.000330417               0.999999998              -0.000060959              -0.000352869               0.999999998              -0.000069156              -0.000376236               0.999999998              -0.000077200              -0.000400612               0.999999998              -0.000085459              -0.000426154               0.999999998               0.000001777              -0.000206117               0.999999998               0.000011035              -0.000196486               0.999999998               0.000012529              -0.000194428               0.999999998               0.000010641              -0.000197830               0.999999998               0.000006860              -0.000205132               0.999999998               0.000001912              -0.000215242               0.999999998              -0.000003582              -0.000227410               0.999999998              -0.000009340              -0.000241172               0.999999998              -0.000015224              -0.000256454               0.999999998              -0.000021211              -0.000273071               0.999999998              -0.000027433              -0.000290965               0.999999998              -0.000034170              -0.000309978               0.999999998              -0.000041205              -0.000329929               0.999999998              -0.000048150              -0.000350831               0.999999998              -0.000054727              -0.000372700               0.999999998              -0.000061183              -0.000395586               0.999999998              -0.000067578              -0.000419607               0.999999998               0.000001254              -0.000216453               0.999999998               0.000009889              -0.000209588               0.999999998               0.000011893              -0.000208015               0.999999998               0.000010830              -0.000210859               0.999999998               0.000008058              -0.000217152               0.999999998               0.000004159              -0.000226043               0.999999998              -0.000000344              -0.000236983               0.999999998              -0.000005120              -0.000249478               0.999999998              -0.000009905              -0.000263372               0.999999998              -0.000014744              -0.000278604               0.999999998              -0.000019684              -0.000295083               0.999999998              -0.000025018              -0.000312744               0.999999998              -0.000030550              -0.000331398               0.999999998              -0.000036024              -0.000350910               0.999999998              -0.000041231              -0.000371360               0.999999998              -0.000045951              -0.000392923               0.999999998              -0.000050334              -0.000415644               0.999999998               0.000000830              -0.000224656               0.999999998               0.000008040              -0.000220418               0.999999998               0.000010137              -0.000219687               0.999999998               0.000009711              -0.000222390               0.999999998               0.000007810              -0.000228044               0.999999998               0.000005018              -0.000236112               0.999999998               0.000001585              -0.000246070               0.999999998              -0.000002029              -0.000257658               0.999999998              -0.000005688              -0.000270625               0.999999998              -0.000009339              -0.000284795               0.999999998              -0.000013139              -0.000300192               0.999999998              -0.000017025              -0.000316772               0.999999998              -0.000021141              -0.000334460               0.999999998              -0.000025234              -0.000353004               0.999999998              -0.000028911              -0.000372447               0.999999998              -0.000031926              -0.000392959               0.999999998              -0.000034330              -0.000414649               0.999999998               0.000000513              -0.000230603               0.999999998               0.000005659              -0.000228572               0.999999998               0.000007396              -0.000228701               0.999999998               0.000007329              -0.000231534               0.999999998               0.000006211              -0.000236898               0.999999998               0.000004383              -0.000244412               0.999999998               0.000002144              -0.000253768               0.999999998              -0.000000320              -0.000264726               0.999999998              -0.000002705              -0.000277055               0.999999998              -0.000005168              -0.000290568               0.999999998              -0.000007781              -0.000305233               0.999999998              -0.000010455              -0.000321025               0.999999998              -0.000013125              -0.000337962               0.999999998              -0.000015757              -0.000355976               0.999999998              -0.000017984              -0.000374978               0.999999998              -0.000019641              -0.000394918               0.999999998              -0.000020544              -0.000416000               0.999999998               0.000000244              -0.000234178               0.999999998               0.000002918              -0.000233603               0.999999998               0.000003907              -0.000234418               0.999999998               0.000003930              -0.000237448               0.999999998               0.000003434              -0.000242696               0.999999998               0.000002560              -0.000249954               0.999999998               0.000001442              -0.000258948               0.999999998               0.000000198              -0.000269505               0.999999998              -0.000000996              -0.000281466               0.999999998              -0.000002173              -0.000294669               0.999999998              -0.000003532              -0.000308944               0.999999998              -0.000005080              -0.000324331               0.999999998              -0.000006296              -0.000340891               0.999999998              -0.000007290              -0.000358599               0.999999998              -0.000008506              -0.000377437               0.999999998              -0.000009249              -0.000397298               0.999999998              -0.000009268              -0.000418204               0.999999998              -0.000000000              -0.000235419               0.999999998               0.000000000              -0.000235346               0.999999998              -0.000000000              -0.000236380               0.999999998              -0.000000000              -0.000239482               0.999999998              -0.000000000              -0.000244720               0.999999998               0.000000000              -0.000251891               0.999999998               0.000000000              -0.000260793               0.999999998              -0.000000000              -0.000271280               0.999999998               0.000000000              -0.000283076               0.999999998               0.000000000              -0.000296070               0.999999998              -0.000000000              -0.000310284               0.999999998               0.000000000              -0.000325623               0.999999998              -0.000000000              -0.000342039               0.999999998              -0.000000000              -0.000359608               0.999999998              -0.000000000              -0.000378400               0.999999998               0.000000000              -0.000398370               0.999999998               0.000000000              -0.000419319               0.999999998              -0.000007451               0.000000000               0.999999998               0.000001728               0.000000000               0.999999998               0.000006176               0.000000000               0.999999998               0.000008675               0.000000000               0.999999998               0.000010476               0.000000000               0.999999998               0.000012177               0.000000000               0.999999998               0.000014078               0.000000000               0.999999998               0.000016356               0.000000000               0.999999998               0.000019082               0.000000000               0.999999998               0.000022358               0.000000000               0.999999998               0.000026225               0.000000000               0.999999998               0.000030570               0.000000000               0.999999998               0.000035397               0.000000000               0.999999998               0.000040750               0.000000000               0.999999998               0.000046629               0.000000000               0.999999998               0.000052960               0.000000000               0.999999998               0.000059688               0.000000000               0.999999998              -0.000007346              -0.000022641               0.999999998               0.000001518              -0.000020427               0.999999998               0.000005774              -0.000019958               0.999999998               0.000008225              -0.000020491               0.999999998               0.000010057              -0.000021708               0.999999998               0.000011800              -0.000023380               0.999999998               0.000013828              -0.000025407               0.999999998               0.000016241              -0.000027769               0.999999998               0.000019135              -0.000030283               0.999999998               0.000022570              -0.000033038               0.999999998               0.000026519              -0.000035887               0.999999998               0.000031014              -0.000038959               0.999999998               0.000036043              -0.000042143               0.999999998               0.000041587              -0.000045658               0.999999998               0.000047626              -0.000049310               0.999999998               0.000054117              -0.000052988               0.999999998               0.000061003              -0.000056760               0.999999998              -0.000007050              -0.000045080               0.999999998               0.000000896              -0.000040635               0.999999998               0.000004676              -0.000039761               0.999999998               0.000006957              -0.000040939               0.999999998               0.000008856              -0.000043416               0.999999998               0.000010863              -0.000046847               0.999999998               0.000013217              -0.000050962               0.999999998               0.000016034              -0.000055577               0.999999998               0.000019375              -0.000060696               0.999999998               0.000023263              -0.000066108               0.999999998               0.000027706              -0.000071860               0.999999998               0.000032726              -0.000077912               0.999999998               0.000038244              -0.000084416               0.999999998               0.000044291              -0.000091376               0.999999998               0.000050844              -0.000098589               0.999999998               0.000057784              -0.000105784               0.999999998               0.000065052              -0.000113201               0.999999998              -0.000006637              -0.000067123               0.999999998              -0.000000160              -0.000060398               0.999999998               0.000002934              -0.000059244               0.999999998               0.000005068              -0.000061186               0.999999998               0.000007202              -0.000065064               0.999999998               0.000009643              -0.000070267               0.999999998               0.000012575              -0.000076473               0.999999998               0.000016091              -0.000083514               0.999999998               0.000020147              -0.000091117               0.999999998               0.000024800              -0.000099256               0.999999998               0.000030038              -0.000107850               0.999999998               0.000035844              -0.000117030               0.999999998               0.000042236              -0.000126689               0.999999998               0.000049106              -0.000136967               0.999999998               0.000056362              -0.000147490               0.999999998               0.000063928              -0.000158009               0.999999998               0.000071793              -0.000168853               0.999999998              -0.000006110              -0.000088553               0.999999998              -0.000001610              -0.000079516               0.999999998               0.000000709              -0.000078289               0.999999998               0.000002852              -0.000081198               0.999999998               0.000005419              -0.000086619               0.999999998               0.000008562              -0.000093724               0.999999998               0.000012402              -0.000102112               0.999999998               0.000016821              -0.000111459               0.999999998               0.000021854              -0.000121581               0.999999998               0.000027482              -0.000132359               0.999999998               0.000033693              -0.000143845               0.999999998               0.000040516              -0.000156021               0.999999998               0.000047890              -0.000168906               0.999999998               0.000055684              -0.000182295               0.999999998               0.000063737              -0.000195919               0.999999998               0.000072061              -0.000209586               0.999999998               0.000080666              -0.000223589               0.999999998              -0.000005544              -0.000109158               0.999999998              -0.000003454              -0.000097961               0.999999998              -0.000001765              -0.000096915               0.999999998               0.000000627              -0.000100953               0.999999998               0.000003885              -0.000107994               0.999999998               0.000008035              -0.000116996               0.999999998               0.000012902              -0.000127545               0.999999998               0.000018410              -0.000139176               0.999999998               0.000024518              -0.000151797               0.999999998               0.000031254              -0.000165229               0.999999998               0.000038592              -0.000179628               0.999999998               0.000046455              -0.000194901               0.999999998               0.000054817              -0.000210940               0.999999998               0.000063459              -0.000227255               0.999999998               0.000072319              -0.000243848               0.999999998               0.000081386              -0.000260566               0.999999998               0.000090671              -0.000277608               0.999999998              -0.000005029              -0.000128754               0.999999998              -0.000005523              -0.000115722               0.999999998              -0.000004226              -0.000115036               0.999999998              -0.000001362              -0.000120308               0.999999998               0.000002873              -0.000128990               0.999999998               0.000008129              -0.000139980               0.999999998               0.000014123              -0.000152667               0.999999998               0.000020777              -0.000166644               0.999999998               0.000028037              -0.000181772               0.999999998               0.000035866              -0.000198033               0.999999998               0.000044219              -0.000215358               0.999999998               0.000053046              -0.000233794               0.999999998               0.000062263              -0.000252906               0.999999998               0.000071714              -0.000272119               0.999999998               0.000081318              -0.000291528               0.999999998               0.000091160              -0.000311210               0.999999998               0.000101332              -0.000331404               0.999999998              -0.000004527              -0.000147121               0.999999998              -0.000007647              -0.000132708               0.999999998              -0.000006517              -0.000132532               0.999999998              -0.000002874              -0.000139089               0.999999998               0.000002440              -0.000149479               0.999999998               0.000008814              -0.000162492               0.999999998               0.000015956              -0.000177347               0.999999998               0.000023741              -0.000193803               0.999999998               0.000032040              -0.000211644               0.999999998               0.000040801              -0.000230809               0.999999998               0.000050163              -0.000251163               0.999999998               0.000059968              -0.000272599               0.999999998               0.000070020              -0.000294549               0.999999998               0.000080151              -0.000316696               0.999999998               0.000090571              -0.000339288               0.999999998               0.000101380              -0.000362468               0.999999998               0.000112611              -0.000386388               0.999999998              -0.000003935              -0.000163911               0.999999998              -0.000009744              -0.000148867               0.999999998              -0.000008347              -0.000149287               0.999999998              -0.000003783              -0.000157123               0.999999998               0.000002578              -0.000169323               0.999999998               0.000010059              -0.000184398               0.999999998               0.000018238              -0.000201610               0.999999998               0.000026912              -0.000220684               0.999999998               0.000036048              -0.000241385               0.999999998               0.000045833              -0.000263569               0.999999998               0.000056141              -0.000287001               0.999999998               0.000066788              -0.000311390               0.999999998               0.000077445              -0.000336444               0.999999998               0.000088319              -0.000362156               0.999999998               0.000099582              -0.000388765               0.999999998               0.000111261              -0.000416367               0.999999998               0.000123322              -0.000444826               0.999999998              -0.000003087              -0.000179613               0.999999998              -0.000010972              -0.000165616               0.999999998              -0.000010562              -0.000164453               0.999999998              -0.000006811              -0.000170392               0.999999998              -0.000001159              -0.000180723               0.999999998               0.000005547              -0.000193969               0.999999998               0.000012891              -0.000209353               0.999999998               0.000020593              -0.000226487               0.999999998               0.000028600              -0.000245228               0.999999998               0.000037032              -0.000265382               0.999999998               0.000046003              -0.000286791               0.999999998               0.000055404              -0.000309301               0.999999998               0.000064873              -0.000332612               0.999999998               0.000074409              -0.000356797               0.999999998               0.000084056              -0.000381700               0.999999998               0.000093840              -0.000407732               0.999999998               0.000104028              -0.000434930               0.999999998              -0.000002387              -0.000193776               0.999999998              -0.000011396              -0.000181632               0.999999998              -0.000012041              -0.000179705               0.999999998              -0.000009226              -0.000184119               0.999999998              -0.000004431              -0.000192797               0.999999998               0.000001424              -0.000204382               0.999999998               0.000007881              -0.000218037               0.999999998               0.000014553              -0.000233414               0.999999998               0.000021546              -0.000250321               0.999999998               0.000028694              -0.000268617               0.999999998               0.000036240              -0.000288178               0.999999998               0.000044340              -0.000308849               0.999999998               0.000052656              -0.000330417               0.999999998               0.000060959              -0.000352869               0.999999998               0.000069156              -0.000376236               0.999999998               0.000077200              -0.000400612               0.999999998               0.000085459              -0.000426154               0.999999998              -0.000001777              -0.000206117               0.999999998              -0.000011035              -0.000196486               0.999999998              -0.000012529              -0.000194428               0.999999998              -0.000010641              -0.000197830               0.999999998              -0.000006860              -0.000205132               0.999999998              -0.000001912              -0.000215242               0.999999998               0.000003582              -0.000227410               0.999999998               0.000009340              -0.000241172               0.999999998               0.000015224              -0.000256454               0.999999998               0.000021211              -0.000273071               0.999999998               0.000027433              -0.000290965               0.999999998               0.000034170              -0.000309978               0.999999998               0.000041205              -0.000329929               0.999999998               0.000048150              -0.000350831               0.999999998               0.000054727              -0.000372700               0.999999998               0.000061183              -0.000395586               0.999999998               0.000067578              -0.000419607               0.999999998              -0.000001254              -0.000216453               0.999999998              -0.000009889              -0.000209588               0.999999998              -0.000011893              -0.000208015               0.999999998              -0.000010830              -0.000210859               0.999999998              -0.000008058              -0.000217152               0.999999998              -0.000004159              -0.000226043               0.999999998               0.000000344              -0.000236983               0.999999998               0.000005120              -0.000249478               0.999999998               0.000009905              -0.000263372               0.999999998               0.000014744              -0.000278604               0.999999998               0.000019684              -0.000295083               0.999999998               0.000025018              -0.000312744               0.999999998               0.000030550              -0.000331398               0.999999998               0.000036024              -0.000350910               0.999999998               0.000041231              -0.000371360               0.999999998               0.000045951              -0.000392923               0.999999998               0.000050334              -0.000415644               0.999999998              -0.000000830              -0.000224656               0.999999998              -0.000008040              -0.000220418               0.999999998              -0.000010137              -0.000219687               0.999999998              -0.000009711              -0.000222390               0.999999998              -0.000007810              -0.000228044               0.999999998              -0.000005018              -0.000236112               0.999999998              -0.000001585              -0.000246070               0.999999998               0.000002029              -0.000257658               0.999999998               0.000005688              -0.000270625               0.999999998               0.000009339              -0.000284795               0.999999998               0.000013139              -0.000300192               0.999999998               0.000017025              -0.000316772               0.999999998               0.000021141              -0.000334460               0.999999998               0.000025234              -0.000353004               0.999999998               0.000028911              -0.000372447               0.999999998               0.000031926              -0.000392959               0.999999998               0.000034330              -0.000414649               0.999999998              -0.000000513              -0.000230603               0.999999998              -0.000005659              -0.000228572               0.999999998              -0.000007396              -0.000228701               0.999999998              -0.000007329              -0.000231534               0.999999998              -0.000006211              -0.000236898               0.999999998              -0.000004383              -0.000244412               0.999999998              -0.000002144              -0.000253768               0.999999998               0.000000320              -0.000264726               0.999999998               0.000002705              -0.000277055               0.999999998               0.000005168              -0.000290568               0.999999998               0.000007781              -0.000305233               0.999999998               0.000010455              -0.000321025               0.999999998               0.000013125              -0.000337962               0.999999998               0.000015757              -0.000355976               0.999999998               0.000017984              -0.000374978               0.999999998               0.000019641              -0.000394918               0.999999998               0.000020544              -0.000416000               0.999999998              -0.000000244              -0.000234178               0.999999998              -0.000002918              -0.000233603               0.999999998              -0.000003907              -0.000234418               0.999999998              -0.000003930              -0.000237448               0.999999998              -0.000003434              -0.000242696               0.999999998              -0.000002560              -0.000249954               0.999999998              -0.000001442              -0.000258948               0.999999998              -0.000000198              -0.000269505               0.999999998               0.000000996              -0.000281466               0.999999998               0.000002173              -0.000294669               0.999999998               0.000003532              -0.000308944               0.999999998               0.000005080              -0.000324331               0.999999998               0.000006296              -0.000340891               0.999999998               0.000007290              -0.000358599               0.999999998               0.000008506              -0.000377437               0.999999998               0.000009249              -0.000397298               0.999999998               0.000009268              -0.000418204               0.999999998              -0.000000000              -0.000235419               0.999999998               0.000000000              -0.000235346               0.999999998              -0.000000000              -0.000236380               0.999999998              -0.000000000              -0.000239482               0.999999998              -0.000000000              -0.000244720               0.999999998               0.000000000              -0.000251891               0.999999998               0.000000000              -0.000260793               0.999999998              -0.000000000              -0.000271280               0.999999998               0.000000000              -0.000283076               0.999999998               0.000000000              -0.000296070               0.999999998              -0.000000000              -0.000310284               0.999999998               0.000000000              -0.000325623               0.999999998              -0.000000000              -0.000342039               0.999999998              -0.000000000              -0.000359608               0.999999998              -0.000000000              -0.000378400               0.999999998               0.000000000              -0.000398370               0.999999998               0.000000000              -0.000419319               0.999999998              -0.000007451               0.000000000               0.999999998               0.000001728               0.000000000               0.999999998               0.000006176               0.000000000               0.999999998               0.000008675               0.000000000               0.999999998               0.000010476               0.000000000               0.999999998               0.000012177               0.000000000               0.999999998               0.000014078               0.000000000               0.999999998               0.000016356               0.000000000               0.999999998               0.000019082               0.000000000               0.999999998               0.000022358               0.000000000               0.999999998               0.000026225               0.000000000               0.999999998               0.000030570               0.000000000               0.999999998               0.000035397               0.000000000               0.999999998               0.000040750               0.000000000               0.999999998               0.000046629               0.000000000               0.999999998               0.000052960               0.000000000               0.999999998               0.000059688               0.000000000               0.999999998              -0.000007346               0.000022641               0.999999998               0.000001518               0.000020427               0.999999998               0.000005774               0.000019958               0.999999998               0.000008225               0.000020491               0.999999998               0.000010057               0.000021708               0.999999998               0.000011800               0.000023380               0.999999998               0.000013828               0.000025407               0.999999998               0.000016241               0.000027769               0.999999998               0.000019135               0.000030283               0.999999998               0.000022570               0.000033038               0.999999998               0.000026519               0.000035887               0.999999998               0.000031014               0.000038959               0.999999998               0.000036043               0.000042143               0.999999998               0.000041587               0.000045658               0.999999998               0.000047626               0.000049310               0.999999998               0.000054117               0.000052988               0.999999998               0.000061003               0.000056760               0.999999998              -0.000007050               0.000045080               0.999999998               0.000000896               0.000040635               0.999999998               0.000004676               0.000039761               0.999999998               0.000006957               0.000040939               0.999999998               0.000008856               0.000043416               0.999999998               0.000010863               0.000046847               0.999999998               0.000013217               0.000050962               0.999999998               0.000016034               0.000055577               0.999999998               0.000019375               0.000060696               0.999999998               0.000023263               0.000066108               0.999999998               0.000027706               0.000071860               0.999999998               0.000032726               0.000077912               0.999999998               0.000038244               0.000084416               0.999999998               0.000044291               0.000091376               0.999999998               0.000050844               0.000098589               0.999999998               0.000057784               0.000105784               0.999999998               0.000065052               0.000113201               0.999999998              -0.000006637               0.000067123               0.999999998              -0.000000160               0.000060398               0.999999998               0.000002934               0.000059244               0.999999998               0.000005068               0.000061186               0.999999998               0.000007202               0.000065064               0.999999998               0.000009643               0.000070267               0.999999998               0.000012575               0.000076473               0.999999998               0.000016091               0.000083514               0.999999998               0.000020147               0.000091117               0.999999998               0.000024800               0.000099256               0.999999998               0.000030038               0.000107850               0.999999998               0.000035844               0.000117030               0.999999998               0.000042236               0.000126689               0.999999998               0.000049106               0.000136967               0.999999998               0.000056362               0.000147490               0.999999998               0.000063928               0.000158009               0.999999998               0.000071793               0.000168853               0.999999998              -0.000006110               0.000088553               0.999999998              -0.000001610               0.000079516               0.999999998               0.000000709               0.000078289               0.999999998               0.000002852               0.000081198               0.999999998               0.000005419               0.000086619               0.999999998               0.000008562               0.000093724               0.999999998               0.000012402               0.000102112               0.999999998               0.000016821               0.000111459               0.999999998               0.000021854               0.000121581               0.999999998               0.000027482               0.000132359               0.999999998               0.000033693               0.000143845               0.999999998               0.000040516               0.000156021               0.999999998               0.000047890               0.000168906               0.999999998               0.000055684               0.000182295               0.999999998               0.000063737               0.000195919               0.999999998               0.000072061               0.000209586               0.999999998               0.000080666               0.000223589               0.999999998              -0.000005544               0.000109158               0.999999998              -0.000003454               0.000097961               0.999999998              -0.000001765               0.000096915               0.999999998               0.000000627               0.000100953               0.999999998               0.000003885               0.000107994               0.999999998               0.000008035               0.000116996               0.999999998               0.000012902               0.000127545               0.999999998               0.000018410               0.000139176               0.999999998               0.000024518               0.000151797               0.999999998               0.000031254               0.000165229               0.999999998               0.000038592               0.000179628               0.999999998               0.000046455               0.000194901               0.999999998               0.000054817               0.000210940               0.999999998               0.000063459               0.000227255               0.999999998               0.000072319               0.000243848               0.999999998               0.000081386               0.000260566               0.999999998               0.000090671               0.000277608               0.999999998              -0.000005029               0.000128754               0.999999998              -0.000005523               0.000115722               0.999999998              -0.000004226               0.000115036               0.999999998              -0.000001362               0.000120308               0.999999998               0.000002873               0.000128990               0.999999998               0.000008129               0.000139980               0.999999998               0.000014123               0.000152667               0.999999998               0.000020777               0.000166644               0.999999998               0.000028037               0.000181772               0.999999998               0.000035866               0.000198033               0.999999998               0.000044219               0.000215358               0.999999998               0.000053046               0.000233794               0.999999998               0.000062263               0.000252906               0.999999998               0.000071714               0.000272119               0.999999998               0.000081318               0.000291528               0.999999998               0.000091160               0.000311210               0.999999998               0.000101332               0.000331404               0.999999998              -0.000004527               0.000147121               0.999999998              -0.000007647               0.000132708               0.999999998              -0.000006517               0.000132532               0.999999998              -0.000002874               0.000139089               0.999999998               0.000002440               0.000149479               0.999999998               0.000008814               0.000162492               0.999999998               0.000015956               0.000177347               0.999999998               0.000023741               0.000193803               0.999999998               0.000032040               0.000211644               0.999999998               0.000040801               0.000230809               0.999999998               0.000050163               0.000251163               0.999999998               0.000059968               0.000272599               0.999999998               0.000070020               0.000294549               0.999999998               0.000080151               0.000316696               0.999999998               0.000090571               0.000339288               0.999999998               0.000101380               0.000362468               0.999999998               0.000112611               0.000386388               0.999999998              -0.000003935               0.000163911               0.999999998              -0.000009744               0.000148867               0.999999998              -0.000008347               0.000149287               0.999999998              -0.000003783               0.000157123               0.999999998               0.000002578               0.000169323               0.999999998               0.000010059               0.000184398               0.999999998               0.000018238               0.000201610               0.999999998               0.000026912               0.000220684               0.999999998               0.000036048               0.000241385               0.999999998               0.000045833               0.000263569               0.999999998               0.000056141               0.000287001               0.999999998               0.000066788               0.000311390               0.999999998               0.000077445               0.000336444               0.999999998               0.000088319               0.000362156               0.999999998               0.000099582               0.000388765               0.999999998               0.000111261               0.000416367               0.999999998               0.000123322               0.000444826               0.999999998              -0.000003087               0.000179613               0.999999998              -0.000010972               0.000165616               0.999999998              -0.000010562               0.000164453               0.999999998              -0.000006811               0.000170392               0.999999998              -0.000001159               0.000180723               0.999999998               0.000005547               0.000193969               0.999999998               0.000012891               0.000209353               0.999999998               0.000020593               0.000226487               0.999999998               0.000028600               0.000245228               0.999999998               0.000037032               0.000265382               0.999999998               0.000046003               0.000286791               0.999999998               0.000055404               0.000309301               0.999999998               0.000064873               0.000332612               0.999999998               0.000074409               0.000356797               0.999999998               0.000084056               0.000381700               0.999999998               0.000093840               0.000407732               0.999999998               0.000104028               0.000434930               0.999999998              -0.000002387               0.000193776               0.999999998              -0.000011396               0.000181632               0.999999998              -0.000012041               0.000179705               0.999999998              -0.000009226               0.000184119               0.999999998              -0.000004431               0.000192797               0.999999998               0.000001424               0.000204382               0.999999998               0.000007881               0.000218037               0.999999998               0.000014553               0.000233414               0.999999998               0.000021546               0.000250321               0.999999998               0.000028694               0.000268617               0.999999998               0.000036240               0.000288178               0.999999998               0.000044340               0.000308849               0.999999998               0.000052656               0.000330417               0.999999998               0.000060959               0.000352869               0.999999998               0.000069156               0.000376236               0.999999998               0.000077200               0.000400612               0.999999998               0.000085459               0.000426154               0.999999998              -0.000001777               0.000206117               0.999999998              -0.000011035               0.000196486               0.999999998              -0.000012529               0.000194428               0.999999998              -0.000010641               0.000197830               0.999999998              -0.000006860               0.000205132               0.999999998              -0.000001912               0.000215242               0.999999998               0.000003582               0.000227410               0.999999998               0.000009340               0.000241172               0.999999998               0.000015224               0.000256454               0.999999998               0.000021211               0.000273071               0.999999998               0.000027433               0.000290965               0.999999998               0.000034170               0.000309978               0.999999998               0.000041205               0.000329929               0.999999998               0.000048150               0.000350831               0.999999998               0.000054727               0.000372700               0.999999998               0.000061183               0.000395586               0.999999998               0.000067578               0.000419607               0.999999998              -0.000001254               0.000216453               0.999999998              -0.000009889               0.000209588               0.999999998              -0.000011893               0.000208015               0.999999998              -0.000010830               0.000210859               0.999999998              -0.000008058               0.000217152               0.999999998              -0.000004159               0.000226043               0.999999998               0.000000344               0.000236983               0.999999998               0.000005120               0.000249478               0.999999998               0.000009905               0.000263372               0.999999998               0.000014744               0.000278604               0.999999998               0.000019684               0.000295083               0.999999998               0.000025018               0.000312744               0.999999998               0.000030550               0.000331398               0.999999998               0.000036024               0.000350910               0.999999998               0.000041231               0.000371360               0.999999998               0.000045951               0.000392923               0.999999998               0.000050334               0.000415644               0.999999998              -0.000000830               0.000224656               0.999999998              -0.000008040               0.000220418               0.999999998              -0.000010137               0.000219687               0.999999998              -0.000009711               0.000222390               0.999999998              -0.000007810               0.000228044               0.999999998              -0.000005018               0.000236112               0.999999998              -0.000001585               0.000246070               0.999999998               0.000002029               0.000257658               0.999999998               0.000005688               0.000270625               0.999999998               0.000009339               0.000284795               0.999999998               0.000013139               0.000300192               0.999999998               0.000017025               0.000316772               0.999999998               0.000021141               0.000334460               0.999999998               0.000025234               0.000353004               0.999999998               0.000028911               0.000372447               0.999999998               0.000031926               0.000392959               0.999999998               0.000034330               0.000414649               0.999999998              -0.000000513               0.000230603               0.999999998              -0.000005659               0.000228572               0.999999998              -0.000007396               0.000228701               0.999999998              -0.000007329               0.000231534               0.999999998              -0.000006211               0.000236898               0.999999998              -0.000004383               0.000244412               0.999999998              -0.000002144               0.000253768               0.999999998               0.000000320               0.000264726               0.999999998               0.000002705               0.000277055               0.999999998               0.000005168               0.000290568               0.999999998               0.000007781               0.000305233               0.999999998               0.000010455               0.000321025               0.999999998               0.000013125               0.000337962               0.999999998               0.000015757               0.000355976               0.999999998               0.000017984               0.000374978               0.999999998               0.000019641               0.000394918               0.999999998               0.000020544               0.000416000               0.999999998              -0.000000244               0.000234178               0.999999998              -0.000002918               0.000233603               0.999999998              -0.000003907               0.000234418               0.999999998              -0.000003930               0.000237448               0.999999998              -0.000003434               0.000242696               0.999999998              -0.000002560               0.000249954               0.999999998              -0.000001442               0.000258948               0.999999998              -0.000000198               0.000269505               0.999999998               0.000000996               0.000281466               0.999999998               0.000002173               0.000294669               0.999999998               0.000003532               0.000308944               0.999999998               0.000005080               0.000324331               0.999999998               0.000006296               0.000340891               0.999999998               0.000007290               0.000358599               0.999999998               0.000008506               0.000377437               0.999999998               0.000009249               0.000397298               0.999999998               0.000009268               0.000418204               0.999999998              -0.000000000               0.000235419               0.999999998              -0.000000000               0.000235346               0.999999998              -0.000000000               0.000236380               0.999999998               0.000000000               0.000239482               0.999999998               0.000000000               0.000244720               0.999999998               0.000000000               0.000251891               0.999999998               0.000000000               0.000260793               0.999999998               0.000000000               0.000271280               0.999999998               0.000000000               0.000283076               0.999999998               0.000000000               0.000296070               0.999999998              -0.000000000               0.000310284               0.999999998              -0.000000000               0.000325623               0.999999998              -0.000000000               0.000342039               0.999999998               0.000000000               0.000359608               0.999999998              -0.000000000               0.000378400               0.999999998               0.000000000               0.000398370               0.999999998               0.000000000               0.000419319               0.999999998 </DataArray>
<DataArray type="Float64"                                    Name="defo"                                                      NumberOfComponents=" 3" format="ascii">
              0.000007451              -0.000000000               0.999999998              -0.000001728              -0.000000000               0.999999998              -0.000006176              -0.000000000               0.999999998              -0.000008675              -0.000000000               0.999999998              -0.000010476              -0.000000000               0.999999998              -0.000012177               0.000000000               0.999999998              -0.000014078               0.000000000               0.999999998              -0.000016356              -0.000000000               0.999999998              -0.000019082              -0.000000000               0.999999998              -0.000022358              -0.000000000               0.999999998              -0.000026225              -0.000000000               0.999999998              -0.000030570              -0.000000000               0.999999998              -0.000035397              -0.000000000               0.999999998              -0.000040750              -0.000000000               0.999999998              -0.000046629              -0.000000000               0.999999998              -0.000052960               0.000000000               0.999999998              -0.000059688              -0.000000000               0.999999998               0.000007346               0.000022641               0.999999998              -0.000001518               0.000020427               0.999999998              -0.000005774               0.000019958               0.999999998              -0.000008225               0.000020491               0.999999998              -0.000010057               0.000021708               0.999999998              -0.000011800               0.000023380               0.999999998              -0.000013828               0.000025407               0.999999998              -0.000016241               0.000027769               0.999999998              -0.000019135               0.000030283               0.999999998              -0.000022570               0.000033038               0.999999998              -0.000026519               0.000035887               0.999999998              -0.000031014               0.000038959               0.999999998              -0.000036043               0.000042143               0.999999998              -0.000041587               0.000045658               0.999999998              -0.000047626               0.000049310               0.999999998              -0.000054117               0.000052988               0.999999998              -0.000061003               0.000056760               0.999999998               0.000007050               0.000045080               0.999999998              -0.000000896               0.000040635               0.999999998              -0.000004676               0.000039761               0.999999998              -0.000006957               0.000040939               0.999999998              -0.000008856               0.000043416               0.999999998              -0.000010863               0.000046847               0.999999998              -0.000013217               0.000050962               0.999999998              -0.000016034               0.000055577               0.999999998              -0.000019375               0.000060696               0.999999998              -0.000023263               0.000066108               0.999999998              -0.000027706               0.000071860               0.999999998              -0.000032726               0.000077912               0.999999998              -0.000038244               0.000084416               0.999999998              -0.000044291               0.000091376               0.999999998              -0.000050844               0.000098589               0.999999998              -0.000057784               0.000105784               0.999999998              -0.000065052               0.000113201               0.999999998               0.000006637               0.000067123               0.999999998               0.000000160               0.000060398               0.999999998              -0.000002934               0.000059244               0.999999998              -0.000005068               0.000061186               0.999999998              -0.000007202               0.000065064               0.999999998              -0.000009643               0.000070267               0.999999998              -0.000012575               0.000076473               0.999999998              -0.000016091               0.000083514               0.999999998              -0.000020147               0.000091117               0.999999998              -0.000024800               0.000099256               0.999999998              -0.000030038               0.000107850               0.999999998              -0.000035844               0.000117030               0.999999998              -0.000042236               0.000126689               0.999999998              -0.000049106               0.000136967               0.999999998              -0.000056362               0.000147490               0.999999998              -0.000063928               0.000158009               0.999999998              -0.000071793               0.000168853               0.999999998               0.000006110               0.000088553               0.999999998               0.000001610               0.000079516               0.999999998              -0.000000709               0.000078289               0.999999998              -0.000002852               0.000081198               0.999999998              -0.000005419               0.000086619               0.999999998              -0.000008562               0.000093724               0.999999998              -0.000012402               0.000102112               0.999999998              -0.000016821               0.000111459               0.999999998              -0.000021854               0.000121581               0.999999998              -0.000027482               0.000132359               0.999999998              -0.000033693               0.000143845               0.999999998              -0.000040516               0.000156021               0.999999998              -0.000047890               0.000168906               0.999999998              -0.000055684               0.000182295               0.999999998              -0.000063737               0.000195919               0.999999998              -0.000072061               0.000209586               0.999999998              -0.000080666               0.000223589               0.999999998               0.000005544               0.000109158               0.999999998               0.000003454               0.000097961               0.999999998               0.000001765               0.000096915               0.999999998              -0.000000627               0.000100953               0.999999998              -0.000003885               0.000107994               0.999999998              -0.000008035               0.000116996               0.999999998              -0.000012902               0.000127545               0.999999998              -0.000018410               0.000139176               0.999999998              -0.000024518               0.000151797               0.999999998              -0.000031254               0.000165229               0.999999998              -0.000038592               0.000179628               0.999999998              -0.000046455               0.000194901               0.999999998              -0.000054817               0.000210940               0.999999998              -0.000063459               0.000227255               0.999999998              -0.000072319               0.000243848               0.999999998              -0.000081386               0.000260566               0.999999998              -0.000090671               0.000277608               0.999999998               0.000005029               0.000128754               0.999999998               0.000005523               0.000115722               0.999999998               0.000004226               0.000115036               0.999999998               0.000001362               0.000120308               0.999999998              -0.000002873               0.000128990               0.999999998              -0.000008129               0.000139980               0.999999998              -0.000014123               0.000152667               0.999999998              -0.000020777               0.000166644               0.999999998              -0.000028037               0.000181772               0.999999998              -0.000035866               0.000198033               0.999999998              -0.000044219               0.000215358               0.999999998              -0.000053046               0.000233794               0.999999998              -0.000062263               0.000252906               0.999999998              -0.000071714               0.000272119               0.999999998              -0.000081318               0.000291528               0.999999998              -0.000091160               0.000311210               0.999999998              -0.000101332               0.000331404               0.999999998               0.000004527               0.000147121               0.999999998               0.000007647               0.000132708               0.999999998               0.000006517               0.000132532               0.999999998               0.000002874               0.000139089               0.999999998              -0.000002440               0.000149479               0.999999998              -0.000008814               0.000162492               0.999999998              -0.000015956               0.000177347               0.999999998              -0.000023741               0.000193803               0.999999998              -0.000032040               0.000211644               0.999999998              -0.000040801               0.000230809               0.999999998              -0.000050163               0.000251163               0.999999998              -0.000059968               0.000272599               0.999999998              -0.000070020               0.000294549               0.999999998              -0.000080151               0.000316696               0.999999998              -0.000090571               0.000339288               0.999999998              -0.000101380               0.000362468               0.999999998              -0.000112611               0.000386388               0.999999998               0.000003935               0.000163911               0.999999998               0.000009744               0.000148867               0.999999998               0.000008347               0.000149287               0.999999998               0.000003783               0.000157123               0.999999998              -0.000002578               0.000169323               0.999999998              -0.000010059               0.000184398               0.999999998              -0.000018238               0.000201610               0.999999998              -0.000026912               0.000220684               0.999999998              -0.000036048               0.000241385               0.999999998              -0.000045833               0.000263569               0.999999998              -0.000056141               0.000287001               0.999999998              -0.000066788               0.000311390               0.999999998              -0.000077445               0.000336444               0.999999998              -0.000088319               0.000362156               0.999999998              -0.000099582               0.000388765               0.999999998              -0.000111261               0.000416367               0.999999998              -0.000123322               0.000444826               0.999999998               0.000003087               0.000179613               0.999999998               0.000010972               0.000165616               0.999999998               0.000010562               0.000164453               0.999999998               0.000006811               0.000170392               0.999999998               0.000001159               0.000180723               0.999999998              -0.000005547               0.000193969               0.999999998              -0.000012891               0.000209353               0.999999998              -0.000020593               0.000226487               0.999999998              -0.000028600               0.000245228               0.999999998              -0.000037032               0.000265382               0.999999998              -0.000046003               0.000286791               0.999999998              -0.000055404               0.000309301               0.999999998              -0.000064873               0.000332612               0.999999998              -0.000074409               0.000356797               0.999999998              -0.000084056               0.000381700               0.999999998              -0.000093840               0.000407732               0.999999998              -0.000104028               0.000434930               0.999999998               0.000002387               0.000193776               0.999999998               0.000011396               0.000181632               0.999999998               0.000012041               0.000179705               0.999999998               0.000009226               0.000184119               0.999999998               0.000004431               0.000192797               0.999999998              -0.000001424               0.000204382               0.999999998              -0.000007881               0.000218037               0.999999998              -0.000014553               0.000233414               0.999999998              -0.000021546               0.000250321               0.999999998              -0.000028694               0.000268617               0.999999998              -0.000036240               0.000288178               0.999999998              -0.000044340               0.000308849               0.999999998              -0.000052656               0.000330417               0.999999998              -0.000060959               0.000352869               0.999999998              -0.000069156               0.000376236               0.999999998              -0.000077200               0.000400612               0.999999998              -0.000085459               0.000426154               0.999999998               0.000001777               0.000206117               0.999999998               0.000011035               0.000196486               0.999999998               0.000012529               0.000194428               0.999999998               0.000010641               0.000197830               0.999999998               0.000006860               0.000205132               0.999999998               0.000001912               0.000215242               0.999999998              -0.000003582               0.000227410               0.999999998              -0.000009340               0.000241172               0.999999998              -0.000015224               0.000256454               0.999999998              -0.000021211               0.000273071               0.999999998              -0.000027433               0.000290965               0.999999998              -0.000034170               0.000309978               0.999999998              -0.000041205               0.000329929               0.999999998              -0.000048150               0.000350831               0.999999998              -0.000054727               0.000372700               0.999999998              -0.000061183               0.000395586               0.999999998              -0.000067578               0.000419607               0.999999998               0.000001254               0.000216453               0.999999998               0.000009889               0.000209588               0.999999998               0.000011893               0.000208015               0.999999998               0.000010830               0.000210859               0.999999998               0.000008058               0.000217152               0.999999998               0.000004159               0.000226043               0.999999998              -0.000000344               0.000236983               0.999999998              -0.000005120               0.000249478               0.999999998              -0.000009905               0.000263372               0.999999998              -0.000014744               0.000278604               0.999999998              -0.000019684               0.000295083               0.999999998              -0.000025018               0.000312744               0.999999998              -0.000030550               0.000331398               0.999999998              -0.000036024               0.000350910               0.999999998              -0.000041231               0.000371360               0.999999998              -0.000045951               0.000392923               0.999999998              -0.000050334               0.000415644               0.999999998               0.000000830               0.000224656               0.999999998               0.000008040               0.000220418               0.999999998               0.000010137               0.000219687               0.999999998               0.000009711               0.000222390               0.999999998               0.000007810               0.000228044               0.999999998               0.000005018               0.000236112               0.999999998               0.000001585               0.000246070               0.999999998              -0.000002029               0.000257658               0.999999998              -0.000005688               0.000270625               0.999999998              -0.000009339               0.000284795               0.999999998              -0.000013139               0.000300192               0.999999998              -0.000017025               0.000316772               0.999999998              -0.000021141               0.000334460               0.999999998              -0.000025234               0.000353004               0.999999998              -0.000028911               0.000372447               0.999999998              -0.000031926               0.000392959               0.999999998              -0.000034330               0.000414649               0.999999998               0.000000513               0.000230603               0.999999998               0.000005659               0.000228572               0.999999998               0.000007396               0.000228701               0.999999998               0.000007329               0.000231534               0.999999998               0.000006211               0.000236898               0.999999998               0.000004383               0.000244412               0.999999998               0.000002144               0.000253768               0.999999998              -0.000000320               0.000264726               0.999999998              -0.000002705               0.000277055               0.999999998              -0.000005168               0.000290568               0.999999998              -0.000007781               0.000305233               0.999999998              -0.000010455               0.000321025               0.999999998              -0.000013125               0.000337962               0.999999998              -0.000015757               0.000355976               0.999999998              -0.000017984               0.000374978               0.999999998              -0.000019641               0.000394918               0.999999998              -0.000020544               0.000416000               0.999999998               0.000000244               0.000234178               0.999999998               0.000002918               0.000233603               0.999999998               0.000003907               0.000234418               0.999999998               0.000003930               0.000237448               0.999999998               0.000003434               0.000242696               0.999999998               0.000002560               0.000249954               0.999999998               0.000001442               0.000258948               0.999999998               0.000000198               0.000269505               0.999999998              -0.000000996               0.000281466               0.999999998              -0.000002173               0.000294669               0.999999998              -0.000003532               0.000308944               0.999999998              -0.000005080               0.000324331               0.999999998              -0.000006296               0.000340891               0.999999998              -0.000007290               0.000358599               0.999999998              -0.000008506               0.000377437               0.999999998              -0.000009249               0.000397298               0.999999998              -0.000009268               0.000418204               0.999999998              -0.000000000               0.000235419               0.999999998              -0.000000000               0.000235346               0.999999998              -0.000000000               0.000236380               0.999999998               0.000000000               0.000239482               0.999999998               0.000000000               0.000244720               0.999999998               0.000000000               0.000251891               0.999999998               0.000000000               0.000260793               0.999999998               0.000000000               0.000271280               0.999999998               0.000000000               0.000283076               0.999999998               0.000000000               0.000296070               0.999999998              -0.000000000               0.000310284               0.999999998              -0.000000000               0.000325623               0.999999998              -0.000000000               0.000342039               0.999999998               0.000000000               0.000359608               0.999999998              -0.000000000               0.000378400               0.999999998               0.000000000               0.000398370               0.999999998               0.000000000               0.000419319               0.999999998               0.000007451              -0.000000000               0.999999998              -0.000001728              -0.000000000               0.999999998              -0.000006176              -0.000000000               0.999999998              -0.000008675              -0.000000000               0.999999998              -0.000010476              -0.000000000               0.999999998              -0.000012177               0.000000000               0.999999998              -0.000014078               0.000000000               0.999999998              -0.000016356              -0.000000000               0.999999998              -0.000019082              -0.000000000               0.999999998              -0.000022358              -0.000000000               0.999999998              -0.000026225              -0.000000000               0.999999998              -0.000030570              -0.000000000               0.999999998              -0.000035397              -0.000000000               0.999999998              -0.000040750              -0.000000000               0.999999998              -0.000046629              -0.000000000               0.999999998              -0.000052960               0.000000000               0.999999998              -0.000059688              -0.000000000               0.999999998               0.000007346              -0.000022641               0.999999998              -0.000001518              -0.000020427               0.999999998              -0.000005774              -0.000019958               0.999999998              -0.000008225              -0.000020491               0.999999998              -0.000010057              -0.000021708               0.999999998              -0.000011800              -0.000023380               0.999999998              -0.000013828              -0.000025407               0.999999998              -0.000016241              -0.000027769               0.999999998              -0.000019135              -0.000030283               0.999999998              -0.000022570              -0.000033038               0.999999998              -0.000026519              -0.000035887               0.999999998              -0.000031014              -0.000038959               0.999999998              -0.000036043              -0.000042143               0.999999998              -0.000041587              -0.000045658               0.999999998              -0.000047626              -0.000049310               0.999999998              -0.000054117              -0.000052988               0.999999998              -0.000061003              -0.000056760               0.999999998               0.000007050              -0.000045080               0.999999998              -0.000000896              -0.000040635               0.999999998              -0.000004676              -0.000039761               0.999999998              -0.000006957              -0.000040939               0.999999998              -0.000008856              -0.000043416               0.999999998              -0.000010863              -0.000046847               0.999999998              -0.000013217              -0.000050962               0.999999998              -0.000016034              -0.000055577               0.999999998              -0.000019375              -0.000060696               0.999999998              -0.000023263              -0.000066108               0.999999998              -0.000027706              -0.000071860               0.999999998              -0.000032726              -0.000077912               0.999999998              -0.000038244              -0.000084416               0.999999998              -0.000044291              -0.000091376               0.999999998              -0.000050844              -0.000098589               0.999999998              -0.000057784              -0.000105784               0.999999998              -0.000065052              -0.000113201               0.999999998               0.000006637              -0.000067123               0.999999998               0.000000160              -0.000060398               0.999999998              -0.000002934              -0.000059244               0.999999998              -0.000005068              -0.000061186               0.999999998              -0.000007202              -0.000065064               0.999999998              -0.000009643              -0.000070267               0.999999998              -0.000012575              -0.000076473               0.999999998              -0.000016091              -0.000083514               0.999999998              -0.000020147              -0.000091117               0.999999998              -0.000024800              -0.000099256               0.999999998              -0.000030038              -0.000107850               0.999999998              -0.000035844              -0.000117030               0.999999998              -0.000042236              -0.000126689               0.999999998              -0.000049106              -0.000136967               0.999999998              -0.000056362              -0.000147490               0.999999998              -0.000063928              -0.000158009               0.999999998              -0.000071793              -0.000168853               0.999999998               0.000006110              -0.000088553               0.999999998               0.000001610              -0.000079516               0.999999998              -0.000000709              -0.000078289               0.999999998              -0.000002852              -0.000081198               0.999999998              -0.000005419              -0.000086619               0.999999998              -0.000008562              -0.000093724               0.999999998              -0.000012402              -0.000102112               0.999999998              -0.000016821              -0.000111459               0.999999998              -0.000021854              -0.000121581               0.999999998              -0.000027482              -0.000132359               0.999999998              -0.000033693              -0.000143845               0.999999998              -0.000040516              -0.000156021               0.999999998              -0.000047890              -0.000168906               0.999999998              -0.000055684              -0.000182295               0.999999998              -0.000063737              -0.000195919               0.999999998              -0.000072061              -0.000209586               0.999999998              -0.000080666              -0.000223589               0.999999998               0.000005544              -0.000109158               0.999999998               0.000003454              -0.000097961               0.999999998               0.000001765              -0.000096915               0.999999998              -0.000000627              -0.000100953               0.999999998              -0.000003885              -0.000107994               0.999999998              -0.000008035              -0.000116996               0.999999998              -0.000012902              -0.000127545               0.999999998              -0.000018410              -0.000139176               0.999999998              -0.000024518              -0.000151797               0.999999998              -0.000031254              -0.000165229               0.999999998              -0.000038592              -0.000179628               0.999999998              -0.000046455              -0.000194901               0.999999998              -0.000054817              -0.000210940               0.999999998              -0.000063459              -0.000227255               0.999999998              -0.000072319              -0.000243848               0.999999998              -0.000081386              -0.000260566               0.999999998              -0.000090671              -0.000277608               0.999999998               0.000005029              -0.000128754               0.999999998               0.000005523              -0.000115722               0.999999998               0.000004226              -0.000115036               0.999999998               0.000001362              -0.000120308               0.999999998              -0.000002873              -0.000128990               0.999999998              -0.000008129              -0.000139980               0.999999998              -0.000014123              -0.000152667               0.999999998              -0.000020777              -0.000166644               0.999999998              -0.000028037              -0.000181772               0.999999998              -0.000035866              -0.000198033               0.999999998              -0.000044219              -0.000215358               0.999999998              -0.000053046              -0.000233794               0.999999998              -0.000062263              -0.000252906               0.999999998              -0.000071714              -0.000272119               0.999999998              -0.000081318              -0.000291528               0.999999998              -0.000091160              -0.000311210               0.999999998              -0.000101332              -0.000331404               0.999999998               0.000004527              -0.000147121               0.999999998               0.000007647              -0.000132708               0.999999998               0.000006517              -0.000132532               0.999999998               0.000002874              -0.000139089               0.999999998              -0.000002440              -0.000149479               0.999999998              -0.000008814              -0.000162492               0.999999998              -0.000015956              -0.000177347               0.999999998              -0.000023741              -0.000193803               0.999999998              -0.000032040              -0.000211644               0.999999998              -0.000040801              -0.000230809               0.999999998              -0.000050163              -0.000251163               0.999999998              -0.000059968              -0.000272599               0.999999998              -0.000070020              -0.000294549               0.999999998              -0.000080151              -0.000316696               0.999999998              -0.000090571              -0.000339288               0.999999998              -0.000101380              -0.000362468               0.999999998              -0.000112611              -0.000386388               0.999999998               0.000003935              -0.000163911               0.999999998               0.000009744              -0.000148867               0.999999998               0.000008347              -0.000149287               0.999999998               0.000003783              -0.000157123               0.999999998              -0.000002578              -0.000169323               0.999999998              -0.000010059              -0.000184398               0.999999998              -0.000018238              -0.000201610               0.999999998              -0.000026912              -0.000220684               0.999999998              -0.000036048              -0.000241385               0.999999998              -0.000045833              -0.000263569               0.999999998              -0.000056141              -0.000287001               0.999999998              -0.000066788              -0.000311390               0.999999998              -0.000077445              -0.000336444               0.999999998              -0.000088319              -0.000362156               0.999999998              -0.000099582              -0.000388765               0.999999998              -0.000111261              -0.000416367               0.999999998              -0.000123322              -0.000444826               0.999999998               0.000003087              -0.000179613               0.999999998               0.000010972              -0.000165616               0.999999998               0.000010562              -0.000164453               0.999999998               0.000006811              -0.000170392               0.999999998               0.000001159              -0.000180723               0.999999998              -0.000005547              -0.000193969               0.999999998              -0.000012891              -0.000209353               0.999999998              -0.000020593              -0.000226487               0.999999998              -0.000028600              -0.000245228               0.999999998              -0.000037032              -0.000265382               0.999999998              -0.000046003              -0.000286791               0.999999998              -0.000055404              -0.000309301               0.999999998              -0.000064873              -0.000332612               0.999999998              -0.000074409              -0.000356797               0.999999998              -0.000084056              -0.000381700               0.999999998              -0.000093840              -0.000407732               0.999999998              -0.000104028              -0.000434930               0.999999998               0.000002387              -0.000193776               0.999999998               0.000011396              -0.000181632               0.999999998               0.000012041              -0.000179705               0.999999998               0.000009226              -0.000184119               0.999999998               0.000004431              -0.000192797               0.999999998              -0.000001424              -0.000204382               0.999999998              -0.000007881              -0.000218037               0.999999998              -0.000014553              -0.000233414               0.999999998              -0.000021546              -0.000250321               0.999999998              -0.000028694              -0.000268617               0.999999998              -0.000036240              -0.000288178               0.999999998              -0.000044340              -0.000308849               0.999999998              -0.000052656              -0.000330417               0.999999998              -0.000060959              -0.000352869               0.999999998              -0.000069156              -0.000376236               0.999999998              -0.000077200              -0.000400612               0.999999998              -0.000085459              -0.000426154               0.999999998               0.000001777              -0.000206117               0.999999998               0.000011035              -0.000196486               0.999999998               0.000012529              -0.000194428               0.999999998               0.000010641              -0.000197830               0.999999998               0.000006860              -0.000205132               0.999999998               0.000001912              -0.000215242               0.999999998              -0.000003582              -0.000227410               0.999999998              -0.000009340              -0.000241172               0.999999998              -0.000015224              -0.000256454               0.999999998              -0.000021211              -0.000273071               0.999999998              -0.000027433              -0.000290965               0.999999998              -0.000034170              -0.000309978               0.999999998              -0.000041205              -0.000329929               0.999999998              -0.000048150              -0.000350831               0.999999998              -0.000054727              -0.000372700               0.999999998              -0.000061183              -0.000395586               0.999999998              -0.000067578              -0.000419607               0.999999998               0.000001254              -0.000216453               0.999999998               0.000009889              -0.000209588               0.999999998               0.000011893              -0.000208015               0.999999998               0.000010830              -0.000210859               0.999999998               0.000008058              -0.000217152               0.999999998               0.000004159              -0.000226043               0.999999998              -0.000000344              -0.000236983               0.999999998              -0.000005120              -0.000249478               0.999999998              -0.000009905              -0.000263372               0.999999998              -0.000014744              -0.000278604               0.999999998              -0.000019684              -0.000295083               0.999999998              -0.000025018              -0.000312744               0.999999998              -0.000030550              -0.000331398               0.999999998              -0.000036024              -0.000350910               0.999999998              -0.000041231              -0.000371360               0.999999998              -0.000045951              -0.000392923               0.999999998              -0.000050334              -0.000415644               0.999999998               0.000000830              -0.000224656               0.999999998               0.000008040              -0.000220418               0.999999998               0.000010137              -0.000219687               0.999999998               0.000009711              -0.000222390               0.999999998               0.000007810              -0.000228044               0.999999998               0.000005018              -0.000236112               0.999999998               0.000001585              -0.000246070               0.999999998              -0.000002029              -0.000257658               0.999999998              -0.000005688              -0.000270625               0.999999998              -0.000009339              -0.000284795               0.999999998              -0.000013139              -0.000300192               0.999999998              -0.000017025              -0.000316772               0.999999998              -0.000021141              -0.000334460               0.999999998              -0.000025234              -0.000353004               0.999999998              -0.000028911              -0.000372447               0.999999998              -0.000031926              -0.000392959               0.999999998              -0.000034330              -0.000414649               0.999999998               0.000000513              -0.000230603               0.999999998               0.000005659              -0.000228572               0.999999998               0.000007396              -0.000228701               0.999999998               0.000007329              -0.000231534               0.999999998               0.000006211              -0.000236898               0.999999998               0.000004383              -0.000244412               0.999999998               0.000002144              -0.000253768               0.999999998              -0.000000320              -0.000264726               0.999999998              -0.000002705              -0.000277055               0.999999998              -0.000005168              -0.000290568               0.999999998              -0.000007781              -0.000305233               0.999999998              -0.000010455              -0.000321025               0.999999998              -0.000013125              -0.000337962               0.999999998              -0.000015757              -0.000355976               0.999999998              -0.000017984              -0.000374978               0.999999998              -0.000019641              -0.000394918               0.999999998              -0.000020544              -0.000416000               0.999999998               0.000000244              -0.000234178               0.999999998               0.000002918              -0.000233603               0.999999998               0.000003907              -0.000234418               0.999999998               0.000003930              -0.000237448               0.999999998               0.000003434              -0.000242696               0.999999998               0.000002560              -0.000249954               0.999999998               0.000001442              -0.000258948               0.999999998               0.000000198              -0.000269505               0.999999998              -0.000000996              -0.000281466               0.999999998              -0.000002173              -0.000294669               0.999999998              -0.000003532              -0.000308944               0.999999998              -0.000005080              -0.000324331               0.999999998              -0.000006296              -0.000340891               0.999999998              -0.000007290              -0.000358599               0.999999998              -0.000008506              -0.000377437               0.999999998              -0.000009249              -0.000397298               0.999999998              -0.000009268              -0.000418204               0.999999998              -0.000000000              -0.000235419               0.999999998               0.000000000              -0.000235346               0.999999998              -0.000000000              -0.000236380               0.999999998              -0.000000000              -0.000239482               0.999999998              -0.000000000              -0.000244720               0.999999998               0.000000000              -0.000251891               0.999999998               0.000000000              -0.000260793               0.999999998              -0.000000000              -0.000271280               0.999999998               0.000000000              -0.000283076               0.999999998               0.000000000              -0.000296070               0.999999998              -0.000000000              -0.000310284               0.999999998               0.000000000              -0.000325623               0.999999998              -0.000000000              -0.000342039               0.999999998              -0.000000000              -0.000359608               0.999999998              -0.000000000              -0.000378400               0.999999998               0.000000000              -0.000398370               0.999999998               0.000000000              -0.000419319               0.999999998              -0.000007451               0.000000000               0.999999998               0.000001728               0.000000000               0.999999998               0.000006176               0.000000000               0.999999998               0.000008675               0.000000000               0.999999998               0.000010476               0.000000000               0.999999998               0.000012177               0.000000000               0.999999998               0.000014078               0.000000000               0.999999998               0.000016356               0.000000000               0.999999998               0.000019082               0.000000000               0.999999998               0.000022358               0.000000000               0.999999998               0.000026225               0.000000000               0.999999998               0.000030570               0.000000000               0.999999998               0.000035397               0.000000000               0.999999998               0.000040750               0.000000000               0.999999998               0.000046629               0.000000000               0.999999998               0.000052960               0.000000000               0.999999998               0.000059688               0.000000000               0.999999998              -0.000007346              -0.000022641               0.999999998               0.000001518              -0.000020427               0.999999998               0.000005774              -0.000019958               0.999999998               0.000008225              -0.000020491               0.999999998               0.000010057              -0.000021708               0.999999998               0.000011800              -0.000023380               0.999999998               0.000013828              -0.000025407               0.999999998               0.000016241              -0.000027769               0.999999998               0.000019135              -0.000030283               0.999999998               0.000022570              -0.000033038               0.999999998               0.000026519              -0.000035887               0.999999998               0.000031014              -0.000038959               0.999999998               0.000036043              -0.000042143               0.999999998               0.000041587              -0.000045658               0.999999998               0.000047626              -0.000049310               0.999999998               0.000054117              -0.000052988               0.999999998               0.000061003              -0.000056760               0.999999998              -0.000007050              -0.000045080               0.999999998               0.000000896              -0.000040635               0.999999998               0.000004676              -0.000039761               0.999999998               0.000006957              -0.000040939               0.999999998               0.000008856              -0.000043416               0.999999998               0.000010863              -0.000046847               0.999999998               0.000013217              -0.000050962               0.999999998               0.000016034              -0.000055577               0.999999998               0.000019375              -0.000060696               0.999999998               0.000023263              -0.000066108               0.999999998               0.000027706              -0.000071860               0.999999998               0.000032726              -0.000077912               0.999999998               0.000038244              -0.000084416               0.999999998               0.000044291              -0.000091376               0.999999998               0.000050844              -0.000098589               0.999999998               0.000057784              -0.000105784               0.999999998               0.000065052              -0.000113201               0.999999998              -0.000006637              -0.000067123               0.999999998              -0.000000160              -0.000060398               0.999999998               0.000002934              -0.000059244               0.999999998               0.000005068              -0.000061186               0.999999998               0.000007202              -0.000065064               0.999999998               0.000009643              -0.000070267               0.999999998               0.000012575              -0.000076473               0.999999998               0.000016091              -0.000083514               0.999999998               0.000020147              -0.000091117               0.999999998               0.000024800              -0.000099256               0.999999998               0.000030038              -0.000107850               0.999999998               0.000035844              -0.000117030               0.999999998               0.000042236              -0.000126689               0.999999998               0.000049106              -0.000136967               0.999999998               0.000056362              -0.000147490               0.999999998               0.000063928              -0.000158009               0.999999998               0.000071793              -0.000168853               0.999999998              -0.000006110              -0.000088553               0.999999998              -0.000001610              -0.000079516               0.999999998               0.000000709              -0.000078289               0.999999998               0.000002852              -0.000081198               0.999999998               0.000005419              -0.000086619               0.999999998               0.000008562              -0.000093724               0.999999998               0.000012402              -0.000102112               0.999999998               0.000016821              -0.000111459               0.999999998               0.000021854              -0.000121581               0.999999998               0.000027482              -0.000132359               0.999999998               0.000033693              -0.000143845               0.999999998               0.000040516              -0.000156021               0.999999998               0.000047890              -0.000168906               0.999999998               0.000055684              -0.000182295               0.999999998               0.000063737              -0.000195919               0.999999998               0.000072061              -0.000209586               0.999999998               0.000080666              -0.000223589               0.999999998              -0.000005544              -0.000109158               0.999999998              -0.000003454              -0.000097961               0.999999998              -0.000001765              -0.000096915               0.999999998               0.000000627              -0.000100953               0.999999998               0.000003885              -0.000107994               0.999999998               0.000008035              -0.000116996               0.999999998               0.000012902              -0.000127545               0.999999998               0.000018410              -0.000139176               0.999999998               0.000024518              -0.000151797               0.999999998               0.000031254              -0.000165229               0.999999998               0.000038592              -0.000179628               0.999999998               0.000046455              -0.000194901               0.999999998               0.000054817              -0.000210940               0.999999998               0.000063459              -0.000227255               0.999999998               0.000072319              -0.000243848               0.999999998               0.000081386              -0.000260566               0.999999998               0.000090671              -0.000277608               0.999999998              -0.000005029              -0.000128754               0.999999998              -0.000005523              -0.000115722               0.999999998              -0.000004226              -0.000115036               0.999999998              -0.000001362              -0.000120308               0.999999998               0.000002873              -0.000128990               0.999999998               0.000008129              -0.000139980               0.999999998               0.000014123              -0.000152667               0.999999998               0.000020777              -0.000166644               0.999999998               0.000028037              -0.000181772               0.999999998               0.000035866              -0.000198033               0.999999998               0.000044219              -0.000215358               0.999999998               0.000053046              -0.000233794               0.999999998               0.000062263              -0.000252906               0.999999998               0.000071714              -0.000272119               0.999999998               0.000081318              -0.000291528               0.999999998               0.000091160              -0.000311210               0.999999998               0.000101332              -0.000331404               0.999999998              -0.000004527              -0.000147121               0.999999998              -0.000007647              -0.000132708               0.999999998              -0.000006517              -0.000132532               0.999999998              -0.000002874              -0.000139089               0.999999998               0.000002440              -0.000149479               0.999999998               0.000008814              -0.000162492               0.999999998               0.000015956              -0.000177347               0.999999998               0.000023741              -0.000193803               0.999999998               0.000032040              -0.000211644               0.999999998               0.000040801              -0.000230809               0.999999998               0.000050163              -0.000251163               0.999999998               0.000059968              -0.000272599               0.999999998               0.000070020              -0.000294549               0.999999998               0.000080151              -0.000316696               0.999999998               0.000090571              -0.000339288               0.999999998               0.000101380              -0.000362468               0.999999998               0.000112611              -0.000386388               0.999999998              -0.000003935              -0.000163911               0.999999998              -0.000009744              -0.000148867               0.999999998              -0.000008347              -0.000149287               0.999999998              -0.000003783              -0.000157123               0.999999998               0.000002578              -0.000169323               0.999999998               0.000010059              -0.000184398               0.999999998               0.000018238              -0.000201610               0.999999998               0.000026912              -0.000220684               0.999999998               0.000036048              -0.000241385               0.999999998               0.000045833              -0.000263569               0.999999998               0.000056141              -0.000287001               0.999999998               0.000066788              -0.000311390               0.999999998               0.000077445              -0.000336444               0.999999998               0.000088319              -0.000362156               0.999999998               0.000099582              -0.000388765               0.999999998               0.000111261              -0.000416367               0.999999998               0.000123322              -0.000444826               0.999999998              -0.000003087              -0.000179613               0.999999998              -0.000010972              -0.000165616               0.999999998              -0.000010562              -0.000164453               0.999999998              -0.000006811              -0.000170392               0.999999998              -0.000001159              -0.000180723               0.999999998               0.000005547              -0.000193969               0.999999998               0.000012891              -0.000209353               0.999999998               0.000020593              -0.000226487               0.999999998               0.000028600              -0.000245228               0.999999998               0.000037032              -0.000265382               0.999999998               0.000046003              -0.000286791               0.999999998               0.000055404              -0.000309301               0.999999998               0.000064873              -0.000332612               0.999999998               0.000074409              -0.000356797               0.999999998               0.000084056              -0.000381700               0.999999998               0.000093840              -0.000407732               0.999999998               0.000104028              -0.000434930               0.999999998              -0.000002387              -0.000193776               0.999999998              -0.000011396              -0.000181632               0.999999998              -0.000012041              -0.000179705               0.999999998              -0.000009226              -0.000184119               0.999999998              -0.000004431              -0.000192797               0.999999998               0.000001424              -0.000204382               0.999999998               0.000007881              -0.000218037               0.999999998               0.000014553              -0.000233414               0.999999998               0.000021546              -0.000250321               0.999999998               0.000028694              -0.000268617               0.999999998               0.000036240              -0.000288178               0.999999998               0.000044340              -0.000308849               0.999999998               0.000052656              -0.000330417               0.999999998               0.000060959              -0.000352869               0.999999998               0.000069156              -0.000376236               0.999999998               0.000077200              -0.000400612               0.999999998               0.000085459              -0.000426154               0.999999998              -0.000001777              -0.000206117               0.999999998              -0.000011035              -0.000196486               0.999999998              -0.000012529              -0.000194428               0.999999998              -0.000010641              -0.000197830               0.999999998              -0.000006860              -0.000205132               0.999999998              -0.000001912              -0.000215242               0.999999998               0.000003582              -0.000227410               0.999999998               0.000009340              -0.000241172               0.999999998               0.000015224              -0.000256454               0.999999998               0.000021211              -0.000273071               0.999999998               0.000027433              -0.000290965               0.999999998               0.000034170              -0.000309978               0.999999998               0.000041205              -0.000329929               0.999999998               0.000048150              -0.000350831               0.999999998               0.000054727              -0.000372700               0.999999998               0.000061183              -0.000395586               0.999999998               0.000067578              -0.000419607               0.999999998              -0.000001254              -0.000216453               0.999999998              -0.000009889              -0.000209588               0.999999998              -0.000011893              -0.000208015               0.999999998              -0.000010830              -0.000210859               0.999999998              -0.000008058              -0.000217152               0.999999998              -0.000004159              -0.000226043               0.999999998               0.000000344              -0.000236983               0.999999998               0.000005120              -0.000249478               0.999999998               0.000009905              -0.000263372               0.999999998               0.000014744              -0.000278604               0.999999998               0.000019684              -0.000295083               0.999999998               0.000025018              -0.000312744               0.999999998               0.000030550              -0.000331398               0.999999998               0.000036024              -0.000350910               0.999999998               0.000041231              -0.000371360               0.999999998               0.000045951              -0.000392923               0.999999998               0.000050334              -0.000415644               0.999999998              -0.000000830              -0.000224656               0.999999998              -0.000008040              -0.000220418               0.999999998              -0.000010137              -0.000219687               0.999999998              -0.000009711              -0.000222390               0.999999998              -0.000007810              -0.000228044               0.999999998              -0.000005018              -0.000236112               0.999999998              -0.000001585              -0.000246070               0.999999998               0.000002029              -0.000257658               0.999999998               0.000005688              -0.000270625               0.999999998               0.000009339              -0.000284795               0.999999998               0.000013139              -0.000300192               0.999999998               0.000017025              -0.000316772               0.999999998               0.000021141              -0.000334460               0.999999998               0.000025234              -0.000353004               0.999999998               0.000028911              -0.000372447               0.999999998               0.000031926              -0.000392959               0.999999998               0.000034330              -0.000414649               0.999999998              -0.000000513              -0.000230603               0.999999998              -0.000005659              -0.000228572               0.999999998              -0.000007396              -0.000228701               0.999999998              -0.000007329              -0.000231534               0.999999998              -0.000006211              -0.000236898               0.999999998              -0.000004383              -0.000244412               0.999999998              -0.000002144              -0.000253768               0.999999998               0.000000320              -0.000264726               0.999999998               0.000002705              -0.000277055               0.999999998               0.000005168              -0.000290568               0.999999998               0.000007781              -0.000305233               0.999999998               0.000010455              -0.000321025               0.999999998               0.000013125              -0.000337962               0.999999998               0.000015757              -0.000355976               0.999999998               0.000017984              -0.000374978               0.999999998               0.000019641              -0.000394918               0.999999998               0.000020544              -0.000416000               0.999999998              -0.000000244              -0.000234178               0.999999998              -0.000002918              -0.000233603               0.999999998              -0.000003907              -0.000234418               0.999999998              -0.000003930              -0.000237448               0.999999998              -0.000003434              -0.000242696               0.999999998              -0.000002560              -0.000249954               0.999999998              -0.000001442              -0.000258948               0.999999998              -0.000000198              -0.000269505               0.999999998               0.000000996              -0.000281466               0.999999998               0.000002173              -0.000294669               0.999999998               0.000003532              -0.000308944               0.999999998               0.000005080              -0.000324331               0.999999998               0.000006296              -0.000340891               0.999999998               0.000007290              -0.000358599               0.999999998               0.000008506              -0.000377437               0.999999998               0.000009249              -0.000397298               0.999999998               0.000009268              -0.000418204               0.999999998              -0.000000000              -0.000235419               0.999999998               0.000000000              -0.000235346               0.999999998              -0.000000000              -0.000236380               0.999999998              -0.000000000              -0.000239482               0.999999998              -0.000000000              -0.000244720               0.999999998               0.000000000              -0.000251891               0.999999998               0.000000000              -0.000260793               0.999999998              -0.000000000              -0.000271280               0.999999998               0.000000000              -0.000283076               0.999999998               0.000000000              -0.000296070               0.999999998              -0.000000000              -0.000310284               0.999999998               0.000000000              -0.000325623               0.999999998              -0.000000000              -0.000342039               0.999999998              -0.000000000              -0.000359608               0.999999998              -0.000000000              -0.000378400               0.999999998               0.000000000              -0.000398370               0.999999998               0.000000000              -0.000419319               0.999999998              -0.000007451               0.000000000               0.999999998               0.000001728               0.000000000               0.999999998               0.000006176               0.000000000               0.999999998               0.000008675               0.000000000               0.999999998               0.000010476               0.000000000               0.999999998               0.000012177               0.000000000               0.999999998               0.000014078               0.000000000               0.999999998               0.000016356               0.000000000               0.999999998               0.000019082               0.000000000               0.999999998               0.000022358               0.000000000               0.999999998               0.000026225               0.000000000               0.999999998               0.000030570               0.000000000               0.999999998               0.000035397               0.000000000               0.999999998               0.000040750               0.000000000               0.999999998               0.000046629               0.000000000               0.999999998               0.000052960               0.000000000               0.999999998               0.000059688               0.000000000               0.999999998              -0.000007346               0.000022641               0.999999998               0.000001518               0.000020427               0.999999998               0.000005774               0.000019958               0.999999998               0.000008225               0.000020491               0.999999998               0.000010057               0.000021708               0.999999998               0.000011800               0.000023380               0.999999998               0.000013828               0.000025407               0.999999998               0.000016241               0.000027769               0.999999998               0.000019135               0.000030283               0.999999998               0.000022570               0.000033038               0.999999998               0.000026519               0.000035887               0.999999998               0.000031014               0.000038959               0.999999998               0.000036043               0.000042143               0.999999998               0.000041587               0.000045658               0.999999998               0.000047626               0.000049310               0.999999998               0.000054117               0.000052988               0.999999998               0.000061003               0.000056760               0.999999998              -0.000007050               0.000045080               0.999999998               0.000000896               0.000040635               0.999999998               0.000004676               0.000039761               0.999999998               0.000006957               0.000040939               0.999999998               0.000008856               0.000043416               0.999999998               0.000010863               0.000046847               0.999999998               0.000013217               0.000050962               0.999999998               0.000016034               0.000055577               0.999999998               0.000019375               0.000060696               0.999999998               0.000023263               0.000066108               0.999999998               0.000027706               0.000071860               0.999999998               0.000032726               0.000077912               0.999999998               0.000038244               0.000084416               0.999999998               0.000044291               0.000091376               0.999999998               0.000050844               0.000098589               0.999999998               0.000057784               0.000105784               0.999999998               0.000065052               0.000113201               0.999999998              -0.000006637               0.000067123               0.999999998              -0.000000160               0.000060398               0.999999998               0.000002934               0.000059244               0.999999998               0.000005068               0.000061186               0.999999998               0.000007202               0.000065064               0.999999998               0.000009643               0.000070267               0.999999998               0.000012575               0.000076473               0.999999998               0.000016091               0.000083514               0.999999998               0.000020147               0.000091117               0.999999998               0.000024800               0.000099256               0.999999998               0.000030038               0.000107850               0.999999998               0.000035844               0.000117030               0.999999998               0.000042236               0.000126689               0.999999998               0.000049106               0.000136967               0.999999998               0.000056362               0.000147490               0.999999998               0.000063928               0.000158009               0.999999998               0.000071793               0.000168853               0.999999998              -0.000006110               0.000088553               0.999999998              -0.000001610               0.000079516               0.999999998               0.000000709               0.000078289               0.999999998               0.000002852               0.000081198               0.999999998               0.000005419               0.000086619               0.999999998               0.000008562               0.000093724               0.999999998               0.000012402               0.000102112               0.999999998               0.000016821               0.000111459               0.999999998               0.000021854               0.000121581               0.999999998               0.000027482               0.000132359               0.999999998               0.000033693               0.000143845               0.999999998               0.000040516               0.000156021               0.999999998               0.000047890               0.000168906               0.999999998               0.000055684               0.000182295               0.999999998               0.000063737               0.000195919               0.999999998               0.000072061               0.000209586               0.999999998               0.000080666               0.000223589               0.999999998              -0.000005544               0.000109158               0.999999998              -0.000003454               0.000097961               0.999999998              -0.000001765               0.000096915               0.999999998               0.000000627               0.000100953               0.999999998               0.000003885               0.000107994               0.999999998               0.000008035               0.000116996               0.999999998               0.000012902               0.000127545               0.999999998               0.000018410               0.000139176               0.999999998               0.000024518               0.000151797               0.999999998               0.000031254               0.000165229               0.999999998               0.000038592               0.000179628               0.999999998               0.000046455               0.000194901               0.999999998               0.000054817               0.000210940               0.999999998               0.000063459               0.000227255               0.999999998               0.000072319               0.000243848               0.999999998               0.000081386               0.000260566               0.999999998               0.000090671               0.000277608               0.999999998              -0.000005029               0.000128754               0.999999998              -0.000005523               0.000115722               0.999999998              -0.000004226               0.000115036               0.999999998              -0.000001362               0.000120308               0.999999998               0.000002873               0.000128990               0.999999998               0.000008129               0.000139980               0.999999998               0.000014123               0.000152667               0.999999998               0.000020777               0.000166644               0.999999998               0.000028037               0.000181772               0.999999998               0.000035866               0.000198033               0.999999998               0.000044219               0.000215358               0.999999998               0.000053046               0.000233794               0.999999998               0.000062263               0.000252906               0.999999998               0.000071714               0.000272119               0.999999998               0.000081318               0.000291528               0.999999998               0.000091160               0.000311210               0.999999998               0.000101332               0.000331404               0.999999998              -0.000004527               0.000147121               0.999999998              -0.000007647               0.000132708               0.999999998              -0.000006517               0.000132532               0.999999998              -0.000002874               0.000139089               0.999999998               0.000002440               0.000149479               0.999999998               0.000008814               0.000162492               0.999999998               0.000015956               0.000177347               0.999999998               0.000023741               0.000193803               0.999999998               0.000032040               0.000211644               0.999999998               0.000040801               0.000230809               0.999999998               0.000050163               0.000251163               0.999999998               0.000059968               0.000272599               0.999999998               0.000070020               0.000294549               0.999999998               0.000080151               0.000316696               0.999999998               0.000090571               0.000339288               0.999999998               0.000101380               0.000362468               0.999999998               0.000112611               0.000386388               0.999999998              -0.000003935               0.000163911               0.999999998              -0.000009744               0.000148867               0.999999998              -0.000008347               0.000149287               0.999999998              -0.000003783               0.000157123               0.999999998               0.000002578               0.000169323               0.999999998               0.000010059               0.000184398               0.999999998               0.000018238               0.000201610               0.999999998               0.000026912               0.000220684               0.999999998               0.000036048               0.000241385               0.999999998               0.000045833               0.000263569               0.999999998               0.000056141               0.000287001               0.999999998               0.000066788               0.000311390               0.999999998               0.000077445               0.000336444               0.999999998               0.000088319               0.000362156               0.999999998               0.000099582               0.000388765               0.999999998               0.000111261               0.000416367               0.999999998               0.000123322               0.000444826               0.999999998              -0.000003087               0.000179613               0.999999998              -0.000010972               0.000165616               0.999999998              -0.000010562               0.000164453               0.999999998              -0.000006811               0.000170392               0.999999998              -0.000001159               0.000180723               0.999999998               0.000005547               0.000193969               0.999999998               0.000012891               0.000209353               0.999999998               0.000020593               0.000226487               0.999999998               0.000028600               0.000245228               0.999999998               0.000037032               0.000265382               0.999999998               0.000046003               0.000286791               0.999999998               0.000055404               0.000309301               0.999999998               0.000064873               0.000332612               0.999999998               0.000074409               0.000356797               0.999999998               0.000084056               0.000381700               0.999999998               0.000093840               0.000407732               0.999999998               0.000104028               0.000434930               0.999999998              -0.000002387               0.000193776               0.999999998              -0.000011396               0.000181632               0.999999998              -0.000012041               0.000179705               0.999999998              -0.000009226               0.000184119               0.999999998              -0.000004431               0.000192797               0.999999998               0.000001424               0.000204382               0.999999998               0.000007881               0.000218037               0.999999998               0.000014553               0.000233414               0.999999998               0.000021546               0.000250321               0.999999998               0.000028694               0.000268617               0.999999998               0.000036240               0.000288178               0.999999998               0.000044340               0.000308849               0.999999998               0.000052656               0.000330417               0.999999998               0.000060959               0.000352869               0.999999998               0.000069156               0.000376236               0.999999998               0.000077200               0.000400612               0.999999998               0.000085459               0.000426154               0.999999998              -0.000001777               0.000206117               0.999999998              -0.000011035               0.000196486               0.999999998              -0.000012529               0.000194428               0.999999998              -0.000010641               0.000197830               0.999999998              -0.000006860               0.000205132               0.999999998              -0.000001912               0.000215242               0.999999998               0.000003582               0.000227410               0.999999998               0.000009340               0.000241172               0.999999998               0.000015224               0.000256454               0.999999998               0.000021211               0.000273071               0.999999998               0.000027433               0.000290965               0.999999998               0.000034170               0.000309978               0.999999998               0.000041205               0.000329929               0.999999998               0.000048150               0.000350831               0.999999998               0.000054727               0.000372700               0.999999998               0.000061183               0.000395586               0.999999998               0.000067578               0.000419607               0.999999998              -0.000001254               0.000216453               0.999999998              -0.000009889               0.000209588               0.999999998              -0.000011893               0.000208015               0.999999998              -0.000010830               0.000210859               0.999999998              -0.000008058               0.000217152               0.999999998              -0.000004159               0.000226043               0.999999998               0.000000344               0.000236983               0.999999998               0.000005120               0.000249478               0.999999998               0.000009905               0.000263372               0.999999998               0.000014744               0.000278604               0.999999998               0.000019684               0.000295083               0.999999998               0.000025018               0.000312744               0.999999998               0.000030550               0.000331398               0.999999998               0.000036024               0.000350910               0.999999998               0.000041231               0.000371360               0.999999998               0.000045951               0.000392923               0.999999998               0.000050334               0.000415644               0.999999998              -0.000000830               0.000224656               0.999999998              -0.000008040               0.000220418               0.999999998              -0.000010137               0.000219687               0.999999998              -0.000009711               0.000222390               0.999999998              -0.000007810               0.000228044               0.999999998              -0.000005018               0.000236112               0.999999998              -0.000001585               0.000246070               0.999999998               0.000002029               0.000257658               0.999999998               0.000005688               0.000270625               0.999999998               0.000009339               0.000284795               0.999999998               0.000013139               0.000300192               0.999999998               0.000017025               0.000316772               0.999999998               0.000021141               0.000334460               0.999999998               0.000025234               0.000353004               0.999999998               0.000028911               0.000372447               0.999999998               0.000031926               0.000392959               0.999999998               0.000034330               0.000414649               0.999999998              -0.000000513               0.000230603               0.999999998              -0.000005659               0.000228572               0.999999998              -0.000007396               0.000228701               0.999999998              -0.000007329               0.000231534               0.999999998              -0.000006211               0.000236898               0.999999998              -0.000004383               0.000244412               0.999999998              -0.000002144               0.000253768               0.999999998               0.000000320               0.000264726               0.999999998               0.000002705               0.000277055               0.999999998               0.000005168               0.000290568               0.999999998               0.000007781               0.000305233               0.999999998               0.000010455               0.000321025               0.999999998               0.000013125               0.000337962               0.999999998               0.000015757               0.000355976               0.999999998               0.000017984               0.000374978               0.999999998               0.000019641               0.000394918               0.999999998               0.000020544               0.000416000               0.999999998              -0.000000244               0.000234178               0.999999998              -0.000002918               0.000233603               0.999999998              -0.000003907               0.000234418               0.999999998              -0.000003930               0.000237448               0.999999998              -0.000003434               0.000242696               0.999999998              -0.000002560               0.000249954               0.999999998              -0.000001442               0.000258948               0.999999998              -0.000000198               0.000269505               0.999999998               0.000000996               0.000281466               0.999999998               0.000002173               0.000294669               0.999999998               0.000003532               0.000308944               0.999999998               0.000005080               0.000324331               0.999999998               0.000006296               0.000340891               0.999999998               0.000007290               0.000358599               0.999999998               0.000008506               0.000377437               0.999999998               0.000009249               0.000397298               0.999999998               0.000009268               0.000418204               0.999999998              -0.000000000               0.000235419               0.999999998              -0.000000000               0.000235346               0.999999998              -0.000000000               0.000236380               0.999999998               0.000000000               0.000239482               0.999999998               0.000000000               0.000244720               0.999999998               0.000000000               0.000251891               0.999999998               0.000000000               0.000260793               0.999999998               0.000000000               0.000271280               0.999999998               0.000000000               0.000283076               0.999999998               0.000000000               0.000296070               0.999999998              -0.000000000               0.000310284               0.999999998              -0.000000000               0.000325623               0.999999998              -0.000000000               0.000342039               0.999999998               0.000000000               0.000359608               0.999999998              -0.000000000               0.000378400               0.999999998               0.000000000               0.000398370               0.999999998               0.000000000               0.000419319               0.999999998 </DataArray>
<DataArray type="Float64"                                    Name="stress"                                                      NumberOfComponents="10" format="ascii">
              0.000368807               0.004263055              -0.000000000              -0.000394578               0.001552530               0.001157952               0.000000000               0.000000000               0.000000000               0.000000000               0.000421585               0.003558508              -0.000000000              -0.000286719               0.001281730               0.000995012               0.000000000               0.000000000               0.000000000               0.000000000               0.000601526               0.002989220               0.000000000              -0.000148080               0.001045757               0.000897677               0.000000000               0.000000000               0.000000000               0.000000000               0.000641927               0.002674980               0.000000000              -0.000093649               0.000922867               0.000829218               0.000000000               0.000000000               0.000000000               0.000000000               0.000625008               0.002494277               0.000000000              -0.000077406               0.000857219               0.000779813               0.000000000               0.000000000               0.000000000               0.000000000               0.000581265               0.002386999               0.000000000              -0.000080400               0.000822458               0.000742058               0.000000000               0.000000000               0.000000000               0.000000000               0.000525583               0.002324817              -0.000000000              -0.000093508               0.000806101               0.000712592               0.000000000               0.000000000               0.000000000               0.000000000               0.000466738               0.002292973              -0.000000000              -0.000111595               0.000801515               0.000689920               0.000000000               0.000000000               0.000000000               0.000000000               0.000402835               0.002275331              -0.000000000              -0.000133353               0.000802887               0.000669534               0.000000000               0.000000000               0.000000000               0.000000000               0.000336744               0.002269563               0.000000000              -0.000157416               0.000808985               0.000651569               0.000000000               0.000000000               0.000000000               0.000000000               0.000275937               0.002271726               0.000000000              -0.000180489               0.000817398               0.000636908               0.000000000               0.000000000               0.000000000               0.000000000               0.000222158               0.002283647              -0.000000000              -0.000202146               0.000828590               0.000626444               0.000000000               0.000000000               0.000000000               0.000000000               0.000168989               0.002300983              -0.000000000              -0.000224251               0.000841737               0.000617486               0.000000000               0.000000000               0.000000000               0.000000000               0.000118114               0.002328142              -0.000000000              -0.000246724               0.000858281               0.000611556               0.000000000               0.000000000               0.000000000               0.000000000               0.000072576               0.002359342               0.000000000              -0.000267701               0.000875673               0.000607972               0.000000000               0.000000000               0.000000000               0.000000000               0.000033950               0.002390530              -0.000000000              -0.000286084               0.000892197               0.000606112               0.000000000               0.000000000               0.000000000               0.000000000               0.000019402               0.002414312              -0.000000000              -0.000294512               0.000902933               0.000608421               0.000000000               0.000000000               0.000000000               0.000000000               0.000397073               0.004199231              -0.000333939              -0.000376001               0.001525063               0.001149063               0.000000000               0.000000000               0.000000000               0.000000000               0.000434607               0.003512931              -0.000223303              -0.000276138               0.001263011               0.000986873               0.000000000               0.000000000               0.000000000               0.000000000               0.000596608               0.002963977              -0.000107559              -0.000146769               0.001036905               0.000890137               0.000000000               0.000000000               0.000000000               0.000000000               0.000627717               0.002662042              -0.000051555              -0.000097361               0.000919792               0.000822431               0.000000000               0.000000000               0.000000000               0.000000000               0.000607988               0.002488020              -0.000023513              -0.000083007               0.000857001               0.000773994               0.000000000               0.000000000               0.000000000               0.000000000               0.000563780               0.002385911              -0.000009768              -0.000086821               0.000824236               0.000737415               0.000000000               0.000000000               0.000000000               0.000000000               0.000508060               0.002325796              -0.000002564              -0.000100202               0.000808658               0.000708456               0.000000000               0.000000000               0.000000000               0.000000000               0.000449397               0.002292051              -0.000000066              -0.000117982               0.000803337               0.000685355               0.000000000               0.000000000               0.000000000               0.000000000               0.000387859               0.002275891               0.000000055              -0.000139039               0.000804969               0.000665930               0.000000000               0.000000000               0.000000000               0.000000000               0.000326414               0.002269898              -0.000000530              -0.000161332               0.000810402               0.000649071               0.000000000               0.000000000               0.000000000               0.000000000               0.000267637               0.002272531              -0.000000536              -0.000183702               0.000818737               0.000635035               0.000000000               0.000000000               0.000000000               0.000000000               0.000212022               0.002282665              -0.000000059              -0.000205824               0.000829489               0.000623664               0.000000000               0.000000000               0.000000000               0.000000000               0.000160382               0.002301913               0.000002700              -0.000227595               0.000843162               0.000615567               0.000000000               0.000000000               0.000000000               0.000000000               0.000111940               0.002328479               0.000005335              -0.000249082               0.000859179               0.000610097               0.000000000               0.000000000               0.000000000               0.000000000               0.000068564               0.002357630               0.000002606              -0.000268992               0.000875533               0.000606541               0.000000000               0.000000000               0.000000000               0.000000000               0.000031309               0.002385775               0.000000345              -0.000286480               0.000890744               0.000604264               0.000000000               0.000000000               0.000000000               0.000000000               0.000017321               0.002407713              -0.000000242              -0.000294468               0.000900719               0.000606251               0.000000000               0.000000000               0.000000000               0.000000000               0.000471982               0.004013071              -0.000633865              -0.000324640               0.001445890               0.001121250               0.000000000               0.000000000               0.000000000               0.000000000               0.000465252               0.003378473              -0.000424686              -0.000247839               0.001208759               0.000960920               0.000000000               0.000000000               0.000000000               0.000000000               0.000579358               0.002888620              -0.000206680              -0.000143818               0.001010803               0.000866985               0.000000000               0.000000000               0.000000000               0.000000000               0.000587873               0.002620414              -0.000103184              -0.000107099               0.000909162               0.000802063               0.000000000               0.000000000               0.000000000               0.000000000               0.000557856               0.002465107              -0.000052094              -0.000098942               0.000854675               0.000755733               0.000000000               0.000000000               0.000000000               0.000000000               0.000512146               0.002373183              -0.000026588              -0.000104593               0.000825917               0.000721324               0.000000000               0.000000000               0.000000000               0.000000000               0.000459082               0.002319024              -0.000014480              -0.000117722               0.000812241               0.000694519               0.000000000               0.000000000               0.000000000               0.000000000               0.000404604               0.002289017              -0.000009140              -0.000134400               0.000807798               0.000673398               0.000000000               0.000000000               0.000000000               0.000000000               0.000348842               0.002273815              -0.000007880              -0.000153411               0.000809068               0.000655657               0.000000000               0.000000000               0.000000000               0.000000000               0.000293149               0.002268105              -0.000008772              -0.000173582               0.000813888               0.000640306               0.000000000               0.000000000               0.000000000               0.000000000               0.000238381               0.002271244              -0.000008928              -0.000194512               0.000821911               0.000627399               0.000000000               0.000000000               0.000000000               0.000000000               0.000187456               0.002282968              -0.000006680              -0.000215074               0.000832673               0.000617599               0.000000000               0.000000000               0.000000000               0.000000000               0.000141150               0.002301901              -0.000000995              -0.000234806               0.000845561               0.000610756               0.000000000               0.000000000               0.000000000               0.000000000               0.000096707               0.002323915               0.000002252              -0.000254223               0.000859372               0.000605148               0.000000000               0.000000000               0.000000000               0.000000000               0.000058621               0.002346369              -0.000002572              -0.000271312               0.000872553               0.000601240               0.000000000               0.000000000               0.000000000               0.000000000               0.000027591               0.002368270              -0.000005403              -0.000285686               0.000884644               0.000598958               0.000000000               0.000000000               0.000000000               0.000000000               0.000016102               0.002386020              -0.000005051              -0.000292214               0.000892737               0.000600523               0.000000000               0.000000000               0.000000000               0.000000000               0.000573662               0.003720103              -0.000875739              -0.000249890               0.001323318               0.001073429               0.000000000               0.000000000               0.000000000               0.000000000               0.000501907               0.003167584              -0.000587857              -0.000207733               0.001125095               0.000917362               0.000000000               0.000000000               0.000000000               0.000000000               0.000546269               0.002771899              -0.000290831              -0.000141636               0.000971169               0.000829533               0.000000000               0.000000000               0.000000000               0.000000000               0.000525294               0.002555365              -0.000154911              -0.000122435               0.000892591               0.000770156               0.000000000               0.000000000               0.000000000               0.000000000               0.000486205               0.002429932              -0.000089495              -0.000121414               0.000850441               0.000729026               0.000000000               0.000000000               0.000000000               0.000000000               0.000441448               0.002354122              -0.000056568              -0.000128722               0.000827607               0.000698885               0.000000000               0.000000000               0.000000000               0.000000000               0.000393721               0.002309295              -0.000039859              -0.000141016               0.000816763               0.000675746               0.000000000               0.000000000               0.000000000               0.000000000               0.000346927               0.002283953              -0.000032110              -0.000155396               0.000813109               0.000657713               0.000000000               0.000000000               0.000000000               0.000000000               0.000298953               0.002269031              -0.000029172              -0.000171521               0.000813510               0.000641989               0.000000000               0.000000000               0.000000000               0.000000000               0.000249717               0.002263773              -0.000027414              -0.000189327               0.000817693               0.000628365               0.000000000               0.000000000               0.000000000               0.000000000               0.000201710               0.002268016              -0.000023770              -0.000207860               0.000825285               0.000617424               0.000000000               0.000000000               0.000000000               0.000000000               0.000155021               0.002279817              -0.000018614              -0.000226844               0.000835546               0.000608702               0.000000000               0.000000000               0.000000000               0.000000000               0.000113715               0.002296001              -0.000011753              -0.000244356               0.000846778               0.000602422               0.000000000               0.000000000               0.000000000               0.000000000               0.000079952               0.002312331              -0.000007811              -0.000259059               0.000857122               0.000598064               0.000000000               0.000000000               0.000000000               0.000000000               0.000051615               0.002327008              -0.000012577              -0.000271519               0.000866168               0.000594648               0.000000000               0.000000000               0.000000000               0.000000000               0.000025982               0.002341241              -0.000013681              -0.000282911               0.000874710               0.000591798               0.000000000               0.000000000               0.000000000               0.000000000               0.000015596               0.002352800              -0.000011819              -0.000288251               0.000880342               0.000592091               0.000000000               0.000000000               0.000000000               0.000000000               0.000680876               0.003350122              -0.001044374              -0.000163437               0.001171175               0.001007738               0.000000000               0.000000000               0.000000000               0.000000000               0.000535366               0.002910695              -0.000705183              -0.000163075               0.001024580               0.000861505               0.000000000               0.000000000               0.000000000               0.000000000               0.000501314               0.002637753              -0.000360560              -0.000141726               0.000926484               0.000784758               0.000000000               0.000000000               0.000000000               0.000000000               0.000452604               0.002482842              -0.000208513              -0.000140628               0.000874482               0.000733853               0.000000000               0.000000000               0.000000000               0.000000000               0.000407131               0.002388885              -0.000135877              -0.000145936               0.000844932               0.000698996               0.000000000               0.000000000               0.000000000               0.000000000               0.000365077               0.002329993              -0.000098836              -0.000154345               0.000828105               0.000673760               0.000000000               0.000000000               0.000000000               0.000000000               0.000326432               0.002294183              -0.000078296              -0.000164361               0.000819507               0.000655146               0.000000000               0.000000000               0.000000000               0.000000000               0.000288830               0.002270239              -0.000065970              -0.000175468               0.000815228               0.000639760               0.000000000               0.000000000               0.000000000               0.000000000               0.000248860               0.002257463              -0.000058454              -0.000188860               0.000815433               0.000626573               0.000000000               0.000000000               0.000000000               0.000000000               0.000208070               0.002253791              -0.000050856              -0.000203697               0.000819155               0.000615458               0.000000000               0.000000000               0.000000000               0.000000000               0.000167423               0.002260876              -0.000041641              -0.000219825               0.000826893               0.000607068               0.000000000               0.000000000               0.000000000               0.000000000               0.000126631               0.002273330              -0.000031267              -0.000236679               0.000836662               0.000599983               0.000000000               0.000000000               0.000000000               0.000000000               0.000092965               0.002288587              -0.000022649              -0.000251211               0.000846592               0.000595381               0.000000000               0.000000000               0.000000000               0.000000000               0.000068505               0.002298369              -0.000018361              -0.000261606               0.000853318               0.000591711               0.000000000               0.000000000               0.000000000               0.000000000               0.000047876               0.002306498              -0.000020310              -0.000270358               0.000858944               0.000588586               0.000000000               0.000000000               0.000000000               0.000000000               0.000024834               0.002314170              -0.000018735              -0.000279958               0.000864702               0.000584744               0.000000000               0.000000000               0.000000000               0.000000000               0.000014097               0.002320227              -0.000015477              -0.000284741               0.000868315               0.000583574               0.000000000               0.000000000               0.000000000               0.000000000               0.000772924               0.002941351              -0.001133345              -0.000077823               0.001006381               0.000928558               0.000000000               0.000000000               0.000000000               0.000000000               0.000558026               0.002638260              -0.000778078              -0.000120523               0.000919585               0.000799062               0.000000000               0.000000000               0.000000000               0.000000000               0.000448793               0.002499112              -0.000419453              -0.000144091               0.000881060               0.000736968               0.000000000               0.000000000               0.000000000               0.000000000               0.000378475               0.002403857              -0.000264194              -0.000158554               0.000854129               0.000695575               0.000000000               0.000000000               0.000000000               0.000000000               0.000329879               0.002338131              -0.000189429              -0.000168561               0.000835556               0.000666995               0.000000000               0.000000000               0.000000000               0.000000000               0.000295221               0.002296050              -0.000147652              -0.000176298               0.000824108               0.000647810               0.000000000               0.000000000               0.000000000               0.000000000               0.000266719               0.002268682              -0.000120781              -0.000183565               0.000817408               0.000633843               0.000000000               0.000000000               0.000000000               0.000000000               0.000238664               0.002251293              -0.000102295              -0.000191912               0.000814394               0.000622482               0.000000000               0.000000000               0.000000000               0.000000000               0.000207061               0.002243700              -0.000087320              -0.000202814               0.000815497               0.000612683               0.000000000               0.000000000               0.000000000               0.000000000               0.000173086               0.002246848              -0.000071995              -0.000215948               0.000820925               0.000604976               0.000000000               0.000000000               0.000000000               0.000000000               0.000140062               0.002258337              -0.000054081              -0.000229768               0.000829361               0.000599593               0.000000000               0.000000000               0.000000000               0.000000000               0.000107678               0.002274515              -0.000037854              -0.000243935               0.000839476               0.000595541               0.000000000               0.000000000               0.000000000               0.000000000               0.000081465               0.002286759              -0.000029422              -0.000255295               0.000847344               0.000592049               0.000000000               0.000000000               0.000000000               0.000000000               0.000062992               0.002290874              -0.000025507              -0.000262737               0.000851196               0.000588459               0.000000000               0.000000000               0.000000000               0.000000000               0.000044732               0.002292183              -0.000022400              -0.000269748               0.000853969               0.000584222               0.000000000               0.000000000               0.000000000               0.000000000               0.000024229               0.002295698              -0.000017119              -0.000277876               0.000857850               0.000579975               0.000000000               0.000000000               0.000000000               0.000000000               0.000015438               0.002301025              -0.000013467              -0.000281838               0.000860947               0.000579109               0.000000000               0.000000000               0.000000000               0.000000000               0.000833466               0.002521633              -0.001150776              -0.000002656               0.000841421               0.000838765               0.000000000               0.000000000               0.000000000               0.000000000               0.000565797               0.002363342              -0.000813355              -0.000083245               0.000815521               0.000732276               0.000000000               0.000000000               0.000000000               0.000000000               0.000393938               0.002355833              -0.000468930              -0.000146752               0.000834187               0.000687435               0.000000000               0.000000000               0.000000000               0.000000000               0.000311019               0.002316472              -0.000319193              -0.000172926               0.000829792               0.000656865               0.000000000               0.000000000               0.000000000               0.000000000               0.000265205               0.002280762              -0.000242321              -0.000185643               0.000822127               0.000636484               0.000000000               0.000000000               0.000000000               0.000000000               0.000240025               0.002258333              -0.000194224              -0.000192282               0.000816864               0.000624582               0.000000000               0.000000000               0.000000000               0.000000000               0.000220546               0.002242451              -0.000160253              -0.000197601               0.000813343               0.000615742               0.000000000               0.000000000               0.000000000               0.000000000               0.000200755               0.002237409              -0.000134389              -0.000204392               0.000813926               0.000609534               0.000000000               0.000000000               0.000000000               0.000000000               0.000177894               0.002241693              -0.000110119              -0.000213501               0.000818391               0.000604890               0.000000000               0.000000000               0.000000000               0.000000000               0.000150217               0.002253671              -0.000085837              -0.000225377               0.000826342               0.000600965               0.000000000               0.000000000               0.000000000               0.000000000               0.000122387               0.002268222              -0.000060338              -0.000237632               0.000835277               0.000597645               0.000000000               0.000000000               0.000000000               0.000000000               0.000097109               0.002281249              -0.000039624              -0.000248740               0.000843322               0.000594582               0.000000000               0.000000000               0.000000000               0.000000000               0.000076114               0.002285989              -0.000031444              -0.000257205               0.000847724               0.000590519               0.000000000               0.000000000               0.000000000               0.000000000               0.000059968               0.002288083              -0.000027967              -0.000263522               0.000850527               0.000587006               0.000000000               0.000000000               0.000000000               0.000000000               0.000042457               0.002292925              -0.000022375              -0.000270694               0.000854532               0.000583838               0.000000000               0.000000000               0.000000000               0.000000000               0.000021764               0.002304398              -0.000014566              -0.000279888               0.000861421               0.000581533               0.000000000               0.000000000               0.000000000               0.000000000               0.000014712               0.002317670              -0.000011681              -0.000284191               0.000867279               0.000583088               0.000000000               0.000000000               0.000000000               0.000000000               0.000862340               0.002110922              -0.001106467               0.000059510               0.000683796               0.000743307               0.000000000               0.000000000               0.000000000               0.000000000               0.000560296               0.002097900              -0.000815909              -0.000052127               0.000716668               0.000664541               0.000000000               0.000000000               0.000000000               0.000000000               0.000346576               0.002213508              -0.000511703              -0.000146723               0.000786736               0.000640013               0.000000000               0.000000000               0.000000000               0.000000000               0.000262239               0.002226684              -0.000370085              -0.000179996               0.000802219               0.000622224               0.000000000               0.000000000               0.000000000               0.000000000               0.000222541               0.002223154              -0.000288915              -0.000194441               0.000805858               0.000611417               0.000000000               0.000000000               0.000000000               0.000000000               0.000204175               0.002220004              -0.000233965              -0.000200934               0.000806972               0.000606038               0.000000000               0.000000000               0.000000000               0.000000000               0.000190183               0.002220981              -0.000191571              -0.000206303               0.000809087               0.000602784               0.000000000               0.000000000               0.000000000               0.000000000               0.000174827               0.002231375              -0.000154997              -0.000213361               0.000814905               0.000601543               0.000000000               0.000000000               0.000000000               0.000000000               0.000156419               0.002248547              -0.000121694              -0.000222411               0.000823645               0.000601234               0.000000000               0.000000000               0.000000000               0.000000000               0.000131204               0.002266624              -0.000091846              -0.000234126               0.000833576               0.000599450               0.000000000               0.000000000               0.000000000               0.000000000               0.000104369               0.002281433              -0.000063995              -0.000246040               0.000842484               0.000596443               0.000000000               0.000000000               0.000000000               0.000000000               0.000085527               0.002289830              -0.000042082              -0.000254155               0.000847988               0.000593832               0.000000000               0.000000000               0.000000000               0.000000000               0.000073174               0.002296850              -0.000031370              -0.000259665               0.000852164               0.000592499               0.000000000               0.000000000               0.000000000               0.000000000               0.000059653               0.002313314              -0.000024966              -0.000266793               0.000860028               0.000593234               0.000000000               0.000000000               0.000000000               0.000000000               0.000040513               0.002341436              -0.000017652              -0.000277487               0.000872966               0.000595480               0.000000000               0.000000000               0.000000000               0.000000000               0.000020624               0.002379757              -0.000009873              -0.000289735               0.000889823               0.000600088               0.000000000               0.000000000               0.000000000               0.000000000               0.000015173               0.002409696              -0.000008767              -0.000295522               0.000901731               0.000606210               0.000000000               0.000000000               0.000000000               0.000000000               0.000872913               0.001740978              -0.001018033               0.000109718               0.000543747               0.000653465               0.000000000               0.000000000               0.000000000               0.000000000               0.000562184               0.001856331              -0.000802329              -0.000021223               0.000625845               0.000604621               0.000000000               0.000000000               0.000000000               0.000000000               0.000327213               0.002082187              -0.000559970              -0.000137569               0.000739911               0.000602343               0.000000000               0.000000000               0.000000000               0.000000000               0.000243906               0.002147864              -0.000422960              -0.000177018               0.000774953               0.000597936               0.000000000               0.000000000               0.000000000               0.000000000               0.000208247               0.002175720              -0.000336333              -0.000193872               0.000789857               0.000595985               0.000000000               0.000000000               0.000000000               0.000000000               0.000191942               0.002191879              -0.000273478              -0.000202006               0.000797954               0.000595948               0.000000000               0.000000000               0.000000000               0.000000000               0.000182269               0.002210636              -0.000221560              -0.000207978               0.000806197               0.000598219               0.000000000               0.000000000               0.000000000               0.000000000               0.000169167               0.002233631              -0.000174877              -0.000215766               0.000816458               0.000600692               0.000000000               0.000000000               0.000000000               0.000000000               0.000148256               0.002259427              -0.000135803              -0.000226832               0.000828745               0.000601914               0.000000000               0.000000000               0.000000000               0.000000000               0.000122763               0.002283644              -0.000104006              -0.000239419               0.000841013               0.000601595               0.000000000               0.000000000               0.000000000               0.000000000               0.000100530               0.002303371              -0.000076586              -0.000250222               0.000851190               0.000600968               0.000000000               0.000000000               0.000000000               0.000000000               0.000087989               0.002317390              -0.000052132              -0.000256677               0.000858015               0.000601337               0.000000000               0.000000000               0.000000000               0.000000000               0.000079692               0.002336243              -0.000033597              -0.000262145               0.000866122               0.000603976               0.000000000               0.000000000               0.000000000               0.000000000               0.000069260               0.002372875              -0.000021662              -0.000270636               0.000881162               0.000610526               0.000000000               0.000000000               0.000000000               0.000000000               0.000055045               0.002425810              -0.000010165              -0.000282584               0.000902790               0.000620206               0.000000000               0.000000000               0.000000000               0.000000000               0.000040629               0.002491730              -0.000001359              -0.000296230               0.000929312               0.000633082               0.000000000               0.000000000               0.000000000               0.000000000               0.000032992               0.002530091               0.000000831              -0.000303889               0.000944651               0.000640763               0.000000000               0.000000000               0.000000000               0.000000000               0.000856735               0.001374186              -0.000906971               0.000149500               0.000408224               0.000557724               0.000000000               0.000000000               0.000000000               0.000000000               0.000580738               0.001571666              -0.000782511               0.000021317               0.000516777               0.000538095               0.000000000               0.000000000               0.000000000               0.000000000               0.000346280               0.001877955              -0.000616367              -0.000104889               0.000660942               0.000556052               0.000000000               0.000000000               0.000000000               0.000000000               0.000259339               0.002005096              -0.000488470              -0.000153385               0.000719487               0.000566102               0.000000000               0.000000000               0.000000000               0.000000000               0.000221685               0.002072061              -0.000397994              -0.000175876               0.000749305               0.000573430               0.000000000               0.000000000               0.000000000               0.000000000               0.000202125               0.002112216              -0.000327677              -0.000188230               0.000766808               0.000578579               0.000000000               0.000000000               0.000000000               0.000000000               0.000189002               0.002143939              -0.000267236              -0.000197116               0.000780345               0.000583228               0.000000000               0.000000000               0.000000000               0.000000000               0.000175804               0.002178150              -0.000213325              -0.000206342               0.000794823               0.000588482               0.000000000               0.000000000               0.000000000               0.000000000               0.000160481               0.002215998              -0.000169091              -0.000216819               0.000810932               0.000594113               0.000000000               0.000000000               0.000000000               0.000000000               0.000136430               0.002251061              -0.000133629              -0.000230221               0.000827087               0.000596866               0.000000000               0.000000000               0.000000000               0.000000000               0.000113759               0.002285157              -0.000106230              -0.000242984               0.000842706               0.000599722               0.000000000               0.000000000               0.000000000               0.000000000               0.000099975               0.002314257              -0.000080626              -0.000251791               0.000855341               0.000603551               0.000000000               0.000000000               0.000000000               0.000000000               0.000095468               0.002348797              -0.000056652              -0.000257798               0.000868857               0.000611059               0.000000000               0.000000000               0.000000000               0.000000000               0.000091216               0.002393704              -0.000037075              -0.000265006               0.000886229               0.000621223               0.000000000               0.000000000               0.000000000               0.000000000               0.000084445               0.002457553              -0.000018321              -0.000275527               0.000911018               0.000635492               0.000000000               0.000000000               0.000000000               0.000000000               0.000077441               0.002545092              -0.000004431              -0.000289095               0.000944721               0.000655625               0.000000000               0.000000000               0.000000000               0.000000000               0.000066261               0.002586189               0.000002575              -0.000298425               0.000961529               0.000663104               0.000000000               0.000000000               0.000000000               0.000000000               0.000802099               0.001027577              -0.000774407               0.000172338               0.000285076               0.000457414               0.000000000               0.000000000               0.000000000               0.000000000               0.000601816               0.001282868              -0.000741470               0.000065321               0.000405844               0.000471165               0.000000000               0.000000000               0.000000000               0.000000000               0.000395478               0.001642111              -0.000656964              -0.000056960               0.000566351               0.000509391               0.000000000               0.000000000               0.000000000               0.000000000               0.000308197               0.001828426              -0.000550720              -0.000112979               0.000647129               0.000534149               0.000000000               0.000000000               0.000000000               0.000000000               0.000261558               0.001937161              -0.000461514              -0.000144061               0.000693734               0.000549673               0.000000000               0.000000000               0.000000000               0.000000000               0.000235941               0.002004160              -0.000387455              -0.000162042               0.000722061               0.000560019               0.000000000               0.000000000               0.000000000               0.000000000               0.000218588               0.002052725              -0.000321335              -0.000174620               0.000742441               0.000567822               0.000000000               0.000000000               0.000000000               0.000000000               0.000205447               0.002100489              -0.000263232              -0.000185518               0.000761996               0.000576477               0.000000000               0.000000000               0.000000000               0.000000000               0.000191917               0.002150706              -0.000213347              -0.000196869               0.000782518               0.000585649               0.000000000               0.000000000               0.000000000               0.000000000               0.000173225               0.002200539              -0.000172203              -0.000210107               0.000803542               0.000593434               0.000000000               0.000000000               0.000000000               0.000000000               0.000150777               0.002248418              -0.000143965              -0.000224510               0.000824302               0.000599791               0.000000000               0.000000000               0.000000000               0.000000000               0.000133335               0.002289656              -0.000119785              -0.000236206               0.000841946               0.000605741               0.000000000               0.000000000               0.000000000               0.000000000               0.000125856               0.002333717              -0.000092581              -0.000244518               0.000859404               0.000614886               0.000000000               0.000000000               0.000000000               0.000000000               0.000121032               0.002387670              -0.000063020              -0.000253071               0.000880239               0.000627168               0.000000000               0.000000000               0.000000000               0.000000000               0.000114536               0.002457121              -0.000033749              -0.000264188               0.000907095               0.000642906               0.000000000               0.000000000               0.000000000               0.000000000               0.000109594               0.002545564              -0.000011369              -0.000277097               0.000940879               0.000663781               0.000000000               0.000000000               0.000000000               0.000000000               0.000097300               0.002585835               0.000000872              -0.000286741               0.000957517               0.000670776               0.000000000               0.000000000               0.000000000               0.000000000               0.000712258               0.000721266              -0.000622590               0.000176936               0.000181440               0.000358377               0.000000000               0.000000000               0.000000000               0.000000000               0.000607238               0.001000356              -0.000666446               0.000102668               0.000299226               0.000401894               0.000000000               0.000000000               0.000000000               0.000000000               0.000458630               0.001379868              -0.000658242              -0.000000498               0.000460117               0.000459619               0.000000000               0.000000000               0.000000000               0.000000000               0.000381465               0.001611869              -0.000581509              -0.000058435               0.000556762               0.000498327               0.000000000               0.000000000               0.000000000               0.000000000               0.000326809               0.001758463              -0.000502031              -0.000097255               0.000618566               0.000521312               0.000000000               0.000000000               0.000000000               0.000000000               0.000290586               0.001856191              -0.000429863              -0.000123054               0.000659742               0.000536688               0.000000000               0.000000000               0.000000000               0.000000000               0.000266716               0.001927828              -0.000364447              -0.000140960               0.000689589               0.000548629               0.000000000               0.000000000               0.000000000               0.000000000               0.000251443               0.001993619              -0.000305250              -0.000154911               0.000716170               0.000561259               0.000000000               0.000000000               0.000000000               0.000000000               0.000235763               0.002060196              -0.000251592              -0.000169113               0.000743096               0.000573983               0.000000000               0.000000000               0.000000000               0.000000000               0.000220153               0.002127400              -0.000207721              -0.000183367               0.000770249               0.000586881               0.000000000               0.000000000               0.000000000               0.000000000               0.000200930               0.002192724              -0.000178007              -0.000198741               0.000797148               0.000598406               0.000000000               0.000000000               0.000000000               0.000000000               0.000180052               0.002249604              -0.000155030              -0.000213681               0.000821087               0.000607407               0.000000000               0.000000000               0.000000000               0.000000000               0.000163840               0.002305439              -0.000126181              -0.000226739               0.000844052               0.000617313               0.000000000               0.000000000               0.000000000               0.000000000               0.000153650               0.002369894              -0.000089334              -0.000238617               0.000869496               0.000630878               0.000000000               0.000000000               0.000000000               0.000000000               0.000146645               0.002446592              -0.000052882              -0.000250832               0.000899133               0.000648301               0.000000000               0.000000000               0.000000000               0.000000000               0.000140069               0.002539136              -0.000023367              -0.000264865               0.000934659               0.000669793               0.000000000               0.000000000               0.000000000               0.000000000               0.000125625               0.002581334              -0.000006165              -0.000275557               0.000952288               0.000676731               0.000000000               0.000000000               0.000000000               0.000000000               0.000595729               0.000470419              -0.000466993               0.000164594               0.000101939               0.000266534               0.000000000               0.000000000               0.000000000               0.000000000               0.000598513               0.000742883              -0.000561604               0.000131580               0.000203765               0.000335345               0.000000000               0.000000000               0.000000000               0.000000000               0.000525816               0.001112124              -0.000612015               0.000058164               0.000351316               0.000409480               0.000000000               0.000000000               0.000000000               0.000000000               0.000466897               0.001369849              -0.000567031               0.000003854               0.000455327               0.000459181               0.000000000               0.000000000               0.000000000               0.000000000               0.000413109               0.001550087              -0.000504014              -0.000038845               0.000529639               0.000490794               0.000000000               0.000000000               0.000000000               0.000000000               0.000365414               0.001679874              -0.000441191              -0.000072954               0.000584270               0.000511316               0.000000000               0.000000000               0.000000000               0.000000000               0.000330875               0.001779432              -0.000381495              -0.000098351               0.000625922               0.000527571               0.000000000               0.000000000               0.000000000               0.000000000               0.000304808               0.001866105              -0.000325222              -0.000118960               0.000661682               0.000542722               0.000000000               0.000000000               0.000000000               0.000000000               0.000284886               0.001951554              -0.000273916              -0.000137112               0.000696215               0.000559104               0.000000000               0.000000000               0.000000000               0.000000000               0.000268551               0.002037320              -0.000231259              -0.000153958               0.000730419               0.000576461               0.000000000               0.000000000               0.000000000               0.000000000               0.000253236               0.002123096              -0.000200862              -0.000170423               0.000764499               0.000594076               0.000000000               0.000000000               0.000000000               0.000000000               0.000232201               0.002200870              -0.000177152              -0.000188033               0.000796294               0.000608261               0.000000000               0.000000000               0.000000000               0.000000000               0.000211720               0.002269046              -0.000150145              -0.000204235               0.000824419               0.000620184               0.000000000               0.000000000               0.000000000               0.000000000               0.000198071               0.002339414              -0.000115657              -0.000218150               0.000852514               0.000634364               0.000000000               0.000000000               0.000000000               0.000000000               0.000191574               0.002427226              -0.000075056              -0.000231562               0.000886255               0.000654692               0.000000000               0.000000000               0.000000000               0.000000000               0.000183037               0.002530375              -0.000034943              -0.000247657               0.000926002               0.000678345               0.000000000               0.000000000               0.000000000               0.000000000               0.000166017               0.002576755              -0.000012808              -0.000259837               0.000945522               0.000685685               0.000000000               0.000000000               0.000000000               0.000000000               0.000465758               0.000281130              -0.000323053               0.000139517               0.000047203               0.000186720               0.000000000               0.000000000               0.000000000               0.000000000               0.000575773               0.000527378              -0.000435738               0.000149991               0.000125794               0.000275784               0.000000000               0.000000000               0.000000000               0.000000000               0.000587160               0.000863000              -0.000515002               0.000112309               0.000250227               0.000362536               0.000000000               0.000000000               0.000000000               0.000000000               0.000553371               0.001129010              -0.000498198               0.000066387               0.000354204               0.000420591               0.000000000               0.000000000               0.000000000               0.000000000               0.000505726               0.001335427              -0.000454418               0.000022718               0.000437565               0.000460283               0.000000000               0.000000000               0.000000000               0.000000000               0.000453458               0.001493037              -0.000405963              -0.000016583               0.000503202               0.000486619               0.000000000               0.000000000               0.000000000               0.000000000               0.000406582               0.001620571              -0.000356587              -0.000050103               0.000556886               0.000506782               0.000000000               0.000000000               0.000000000               0.000000000               0.000369825               0.001733280              -0.000307947              -0.000077976               0.000603746               0.000525770               0.000000000               0.000000000               0.000000000               0.000000000               0.000339409               0.001833992              -0.000264385              -0.000101970               0.000645315               0.000543344               0.000000000               0.000000000               0.000000000               0.000000000               0.000317967               0.001933296              -0.000229304              -0.000122424               0.000685234               0.000562810               0.000000000               0.000000000               0.000000000               0.000000000               0.000304565               0.002036482              -0.000201277              -0.000140348               0.000725603               0.000585255               0.000000000               0.000000000               0.000000000               0.000000000               0.000289193               0.002136097              -0.000177777              -0.000158564               0.000764880               0.000606315               0.000000000               0.000000000               0.000000000               0.000000000               0.000271032               0.002223621              -0.000155508              -0.000176315               0.000799971               0.000623656               0.000000000               0.000000000               0.000000000               0.000000000               0.000256246               0.002306857              -0.000125781              -0.000192264               0.000833033               0.000640768               0.000000000               0.000000000               0.000000000               0.000000000               0.000248322               0.002403988              -0.000086006              -0.000207377               0.000870447               0.000663070               0.000000000               0.000000000               0.000000000               0.000000000               0.000246439               0.002518081              -0.000042640              -0.000222345               0.000913467               0.000691122               0.000000000               0.000000000               0.000000000               0.000000000               0.000236239               0.002572745              -0.000018862              -0.000233003               0.000935241               0.000702238               0.000000000               0.000000000               0.000000000               0.000000000               0.000348638               0.000155140              -0.000197653               0.000111346               0.000014598               0.000125943               0.000000000               0.000000000               0.000000000               0.000000000               0.000546613               0.000364675              -0.000295848               0.000159394               0.000068426               0.000227819               0.000000000               0.000000000               0.000000000               0.000000000               0.000636153               0.000659506              -0.000372839               0.000156117               0.000167794               0.000323911               0.000000000               0.000000000               0.000000000               0.000000000               0.000631478               0.000924120              -0.000372985               0.000121288               0.000267607               0.000388895               0.000000000               0.000000000               0.000000000               0.000000000               0.000589892               0.001143154              -0.000347517               0.000078314               0.000354943               0.000433257               0.000000000               0.000000000               0.000000000               0.000000000               0.000536219               0.001321504              -0.000314868               0.000035893               0.000428532               0.000464426               0.000000000               0.000000000               0.000000000               0.000000000               0.000482374               0.001472878              -0.000280041              -0.000003220               0.000492028               0.000488808               0.000000000               0.000000000               0.000000000               0.000000000               0.000437788               0.001606315              -0.000243280              -0.000036619               0.000547639               0.000511020               0.000000000               0.000000000               0.000000000               0.000000000               0.000399853               0.001723206              -0.000210560              -0.000065456               0.000596215               0.000530759               0.000000000               0.000000000               0.000000000               0.000000000               0.000370247               0.001833196              -0.000187812              -0.000090307               0.000641162               0.000550855               0.000000000               0.000000000               0.000000000               0.000000000               0.000351563               0.001944812              -0.000168866              -0.000111265               0.000685353               0.000574087               0.000000000               0.000000000               0.000000000               0.000000000               0.000341130               0.002060361              -0.000148842              -0.000129621               0.000729987               0.000600366               0.000000000               0.000000000               0.000000000               0.000000000               0.000324943               0.002171467              -0.000128290              -0.000149579               0.000773675               0.000624096               0.000000000               0.000000000               0.000000000               0.000000000               0.000310428               0.002277830              -0.000106035              -0.000168318               0.000815375               0.000647057               0.000000000               0.000000000               0.000000000               0.000000000               0.000312455               0.002387399              -0.000077286              -0.000181254               0.000856210               0.000674956               0.000000000               0.000000000               0.000000000               0.000000000               0.000326778               0.002509464              -0.000040944              -0.000191141               0.000900193               0.000709052               0.000000000               0.000000000               0.000000000               0.000000000               0.000330859               0.002572134              -0.000020017              -0.000197444               0.000923184               0.000725740               0.000000000               0.000000000               0.000000000               0.000000000               0.000269291               0.000086207              -0.000093472               0.000090208              -0.000001334               0.000088874               0.000000000               0.000000000               0.000000000               0.000000000               0.000523815               0.000264882              -0.000149589               0.000163319               0.000033854               0.000197172               0.000000000               0.000000000               0.000000000               0.000000000               0.000668548               0.000526903              -0.000196171               0.000184841               0.000114019               0.000298860               0.000000000               0.000000000               0.000000000               0.000000000               0.000685134               0.000784134              -0.000200097               0.000158907               0.000208406               0.000367313               0.000000000               0.000000000               0.000000000               0.000000000               0.000651237               0.001009009              -0.000188649               0.000118086               0.000296971               0.000415057               0.000000000               0.000000000               0.000000000               0.000000000               0.000596732               0.001199117              -0.000172797               0.000073884               0.000375074               0.000448958               0.000000000               0.000000000               0.000000000               0.000000000               0.000539296               0.001363947              -0.000155242               0.000031742               0.000444064               0.000475806               0.000000000               0.000000000               0.000000000               0.000000000               0.000488473               0.001511011              -0.000135664              -0.000005699               0.000505565               0.000499866               0.000000000               0.000000000               0.000000000               0.000000000               0.000449152               0.001643100              -0.000116888              -0.000036955               0.000560013               0.000523058               0.000000000               0.000000000               0.000000000               0.000000000               0.000415969               0.001762621              -0.000105363              -0.000064339               0.000608981               0.000544642               0.000000000               0.000000000               0.000000000               0.000000000               0.000388027               0.001878578              -0.000099397              -0.000089312               0.000655957               0.000566645               0.000000000               0.000000000               0.000000000               0.000000000               0.000369231               0.002000593              -0.000086947              -0.000111612               0.000704062               0.000592450               0.000000000               0.000000000               0.000000000               0.000000000               0.000359331               0.002127159              -0.000069302              -0.000131145               0.000752761               0.000621616               0.000000000               0.000000000               0.000000000               0.000000000               0.000358312               0.002255640              -0.000060306              -0.000147588               0.000801068               0.000653481               0.000000000               0.000000000               0.000000000               0.000000000               0.000370704               0.002383563              -0.000048893              -0.000158931               0.000847490               0.000688559               0.000000000               0.000000000               0.000000000               0.000000000               0.000399816               0.002513649              -0.000025180              -0.000164275               0.000892633               0.000728358               0.000000000               0.000000000               0.000000000               0.000000000               0.000420918               0.002580128              -0.000011290              -0.000164671               0.000914924               0.000750253               0.000000000               0.000000000               0.000000000               0.000000000               0.000240820               0.000064401              -0.000000000               0.000082257              -0.000005952               0.000076304               0.000000000               0.000000000               0.000000000               0.000000000               0.000514726               0.000230371               0.000000000               0.000164224               0.000022048               0.000186272               0.000000000               0.000000000               0.000000000               0.000000000               0.000679437               0.000479449               0.000000000               0.000194856               0.000094863               0.000289718               0.000000000               0.000000000               0.000000000               0.000000000               0.000703369               0.000733933              -0.000000000               0.000172020               0.000187302               0.000359322               0.000000000               0.000000000               0.000000000               0.000000000               0.000673348               0.000960694              -0.000000000               0.000132417               0.000276089               0.000408506               0.000000000               0.000000000               0.000000000               0.000000000               0.000620041               0.001155041              -0.000000000               0.000088134               0.000355632               0.000443766               0.000000000               0.000000000               0.000000000               0.000000000               0.000561340               0.001326030               0.000000000               0.000044748               0.000427090               0.000471838               0.000000000               0.000000000               0.000000000               0.000000000               0.000507363               0.001475977              -0.000000000               0.000005764               0.000490066               0.000495830               0.000000000               0.000000000               0.000000000               0.000000000               0.000465906               0.001609174              -0.000000000              -0.000026432               0.000545197               0.000518765               0.000000000               0.000000000               0.000000000               0.000000000               0.000434655               0.001736185              -0.000000000              -0.000054028               0.000596732               0.000542704               0.000000000               0.000000000               0.000000000               0.000000000               0.000402883               0.001858066              -0.000000000              -0.000081177               0.000646408               0.000565231               0.000000000               0.000000000               0.000000000               0.000000000               0.000374180               0.001977601              -0.000000000              -0.000106882               0.000694821               0.000587939               0.000000000               0.000000000               0.000000000               0.000000000               0.000369241               0.002106820               0.000000000              -0.000124887               0.000743895               0.000619008               0.000000000               0.000000000               0.000000000               0.000000000               0.000381728               0.002246680              -0.000000000              -0.000137686               0.000794781               0.000657095               0.000000000               0.000000000               0.000000000               0.000000000               0.000396234               0.002385924              -0.000000000              -0.000149652               0.000845184               0.000695532               0.000000000               0.000000000               0.000000000               0.000000000               0.000430516               0.002520818              -0.000000000              -0.000153658               0.000891484               0.000737825               0.000000000               0.000000000               0.000000000               0.000000000               0.000460900               0.002588089              -0.000000000              -0.000150673               0.000912912               0.000762239               0.000000000               0.000000000               0.000000000               0.000000000               0.000000000               0.000000000               0.000000000               0.000000000               0.000000000               0.000000000               0.000000000               0.000000000               0.000000000               0.000000000               0.000000000               0.000000000               0.000000000               0.000000000               0.000000000               0.000000000               0.000000000               0.000000000               0.000000000               0.000000000               0.000000000               0.000000000               0.000000000               0.000000000               0.000000000               0.000000000               0.000000000               0.000000000               0.000000000               0.000000000               0.000000000               0.000000000               0.000000000               0.000000000               0.000000000               0.000000000               0.000000000               0.000000000               0.000000000               0.000000000               0.000000000               0.000000000               0.000000000               0.000000000               0.000000000               0.000000000               0.000000000               0.000000000               0.000000000               0.000000000               0.000000000               0.000000000               0.000000000               0.000000000               0.000000000               0.000000000               0.000000000               0.000000000               0.000000000               0.000000000               0.000000000               0.000000000               0.000000000               0.000000000               0.000000000               0.000000000               0.000000000               0.000000000               0.000000000               0.000000000               0.000000000               0.000000000               0.000000000               0.000000000               0.000000000               0.000000000               0.000000000               0.000000000               0.000000000               0.000000000               0.000000000               0.000000000               0.000000000               0.000000000               0.000000000               0.000000000               0.000000000               0.000000000               0.000000000               0.000000000               0.000000000               0.000000000               0.000000000               0.000000000               0.000000000               0.000000000               0.000000000               0.000000000               0.000000000               0.000000000               0.000000000               0.000000000               0.000000000               0.000000000               0.000000000               0.000000000               0.000000000               0.000000000               0.000000000               0.000000000               0.000000000               0.000000000               0.000000000               0.000000000               0.000000000               0.000000000               0.000000000               0.000000000               0.000000000               0.000000000               0.000000000               0.000000000               0.000000000               0.000000000               0.000000000               0.000000000               0.000000000               0.000000000               0.000000000               0.000000000               0.000000000               0.000000000               0.000000000               0.000000000               0.000000000               0.000000000               0.000000000               0.000000000               0.000000000               0.000000000               0.000000000               0.000000000               0.000000000               0.000000000               0.000000000               0.000000000               0.000000000               0.000000000               0.000000000               0.000000000               0.000000000               0.000000000               0.000000000               0.000000000               0.000000000               0.000000000               0.000000000               0.000000000               0.000000000               0.000000000               0.000000000               0.000000000               0.000000000               0.000000000               0.000000000               0.000000000               0.000000000               0.000000000               0.000000000               0.000000000               0.000397073               0.004199231               0.000333939              -0.000376001               0.001525063               0.001149063               0.000000000               0.000000000               0.000000000               0.000000000               0.000434607               0.003512931               0.000223303              -0.000276138               0.001263011               0.000986873               0.000000000               0.000000000               0.000000000               0.000000000               0.000596608               0.002963977               0.000107559              -0.000146769               0.001036905               0.000890137               0.000000000               0.000000000               0.000000000               0.000000000               0.000627717               0.002662042               0.000051555              -0.000097361               0.000919792               0.000822431               0.000000000               0.000000000               0.000000000               0.000000000               0.000607988               0.002488020               0.000023513              -0.000083007               0.000857001               0.000773994               0.000000000               0.000000000               0.000000000               0.000000000               0.000563780               0.002385911               0.000009768              -0.000086821               0.000824236               0.000737415               0.000000000               0.000000000               0.000000000               0.000000000               0.000508060               0.002325796               0.000002564              -0.000100202               0.000808658               0.000708456               0.000000000               0.000000000               0.000000000               0.000000000               0.000449397               0.002292051               0.000000066              -0.000117982               0.000803337               0.000685355               0.000000000               0.000000000               0.000000000               0.000000000               0.000387859               0.002275891              -0.000000055              -0.000139039               0.000804969               0.000665930               0.000000000               0.000000000               0.000000000               0.000000000               0.000326414               0.002269898               0.000000530              -0.000161332               0.000810402               0.000649071               0.000000000               0.000000000               0.000000000               0.000000000               0.000267637               0.002272531               0.000000536              -0.000183702               0.000818737               0.000635035               0.000000000               0.000000000               0.000000000               0.000000000               0.000212022               0.002282665               0.000000059              -0.000205824               0.000829489               0.000623664               0.000000000               0.000000000               0.000000000               0.000000000               0.000160382               0.002301913              -0.000002700              -0.000227595               0.000843162               0.000615567               0.000000000               0.000000000               0.000000000               0.000000000               0.000111940               0.002328479              -0.000005335              -0.000249082               0.000859179               0.000610097               0.000000000               0.000000000               0.000000000               0.000000000               0.000068564               0.002357630              -0.000002606              -0.000268992               0.000875533               0.000606541               0.000000000               0.000000000               0.000000000               0.000000000               0.000031309               0.002385775              -0.000000345              -0.000286480               0.000890744               0.000604264               0.000000000               0.000000000               0.000000000               0.000000000               0.000017321               0.002407713               0.000000242              -0.000294468               0.000900719               0.000606251               0.000000000               0.000000000               0.000000000               0.000000000               0.000471982               0.004013071               0.000633865              -0.000324640               0.001445890               0.001121250               0.000000000               0.000000000               0.000000000               0.000000000               0.000465252               0.003378473               0.000424686              -0.000247839               0.001208759               0.000960920               0.000000000               0.000000000               0.000000000               0.000000000               0.000579358               0.002888620               0.000206680              -0.000143818               0.001010803               0.000866985               0.000000000               0.000000000               0.000000000               0.000000000               0.000587873               0.002620414               0.000103184              -0.000107099               0.000909162               0.000802063               0.000000000               0.000000000               0.000000000               0.000000000               0.000557856               0.002465107               0.000052094              -0.000098942               0.000854675               0.000755733               0.000000000               0.000000000               0.000000000               0.000000000               0.000512146               0.002373183               0.000026588              -0.000104593               0.000825917               0.000721324               0.000000000               0.000000000               0.000000000               0.000000000               0.000459082               0.002319024               0.000014480              -0.000117722               0.000812241               0.000694519               0.000000000               0.000000000               0.000000000               0.000000000               0.000404604               0.002289017               0.000009140              -0.000134400               0.000807798               0.000673398               0.000000000               0.000000000               0.000000000               0.000000000               0.000348842               0.002273815               0.000007880              -0.000153411               0.000809068               0.000655657               0.000000000               0.000000000               0.000000000               0.000000000               0.000293149               0.002268105               0.000008772              -0.000173582               0.000813888               0.000640306               0.000000000               0.000000000               0.000000000               0.000000000               0.000238381               0.002271244               0.000008928              -0.000194512               0.000821911               0.000627399               0.000000000               0.000000000               0.000000000               0.000000000               0.000187456               0.002282968               0.000006680              -0.000215074               0.000832673               0.000617599               0.000000000               0.000000000               0.000000000               0.000000000               0.000141150               0.002301901               0.000000995              -0.000234806               0.000845561               0.000610756               0.000000000               0.000000000               0.000000000               0.000000000               0.000096707               0.002323915              -0.000002252              -0.000254223               0.000859372               0.000605148               0.000000000               0.000000000               0.000000000               0.000000000               0.000058621               0.002346369               0.000002572              -0.000271312               0.000872553               0.000601240               0.000000000               0.000000000               0.000000000               0.000000000               0.000027591               0.002368270               0.000005403              -0.000285686               0.000884644               0.000598958               0.000000000               0.000000000               0.000000000               0.000000000               0.000016102               0.002386020               0.000005051              -0.000292214               0.000892737               0.000600523               0.000000000               0.000000000               0.000000000               0.000000000               0.000573662               0.003720103               0.000875739              -0.000249890               0.001323318               0.001073429               0.000000000               0.000000000               0.000000000               0.000000000               0.000501907               0.003167584               0.000587857              -0.000207733               0.001125095               0.000917362               0.000000000               0.000000000               0.000000000               0.000000000               0.000546269               0.002771899               0.000290831              -0.000141636               0.000971169               0.000829533               0.000000000               0.000000000               0.000000000               0.000000000               0.000525294               0.002555365               0.000154911              -0.000122435               0.000892591               0.000770156               0.000000000               0.000000000               0.000000000               0.000000000               0.000486205               0.002429932               0.000089495              -0.000121414               0.000850441               0.000729026               0.000000000               0.000000000               0.000000000               0.000000000               0.000441448               0.002354122               0.000056568              -0.000128722               0.000827607               0.000698885               0.000000000               0.000000000               0.000000000               0.000000000               0.000393721               0.002309295               0.000039859              -0.000141016               0.000816763               0.000675746               0.000000000               0.000000000               0.000000000               0.000000000               0.000346927               0.002283953               0.000032110              -0.000155396               0.000813109               0.000657713               0.000000000               0.000000000               0.000000000               0.000000000               0.000298953               0.002269031               0.000029172              -0.000171521               0.000813510               0.000641989               0.000000000               0.000000000               0.000000000               0.000000000               0.000249717               0.002263773               0.000027414              -0.000189327               0.000817693               0.000628365               0.000000000               0.000000000               0.000000000               0.000000000               0.000201710               0.002268016               0.000023770              -0.000207860               0.000825285               0.000617424               0.000000000               0.000000000               0.000000000               0.000000000               0.000155021               0.002279817               0.000018614              -0.000226844               0.000835546               0.000608702               0.000000000               0.000000000               0.000000000               0.000000000               0.000113715               0.002296001               0.000011753              -0.000244356               0.000846778               0.000602422               0.000000000               0.000000000               0.000000000               0.000000000               0.000079952               0.002312331               0.000007811              -0.000259059               0.000857122               0.000598064               0.000000000               0.000000000               0.000000000               0.000000000               0.000051615               0.002327008               0.000012577              -0.000271519               0.000866168               0.000594648               0.000000000               0.000000000               0.000000000               0.000000000               0.000025982               0.002341241               0.000013681              -0.000282911               0.000874710               0.000591798               0.000000000               0.000000000               0.000000000               0.000000000               0.000015596               0.002352800               0.000011819              -0.000288251               0.000880342               0.000592091               0.000000000               0.000000000               0.000000000               0.000000000               0.000680876               0.003350122               0.001044374              -0.000163437               0.001171175               0.001007738               0.000000000               0.000000000               0.000000000               0.000000000               0.000535366               0.002910695               0.000705183              -0.000163075               0.001024580               0.000861505               0.000000000               0.000000000               0.000000000               0.000000000               0.000501314               0.002637753               0.000360560              -0.000141726               0.000926484               0.000784758               0.000000000               0.000000000               0.000000000               0.000000000               0.000452604               0.002482842               0.000208513              -0.000140628               0.000874482               0.000733853               0.000000000               0.000000000               0.000000000               0.000000000               0.000407131               0.002388885               0.000135877              -0.000145936               0.000844932               0.000698996               0.000000000               0.000000000               0.000000000               0.000000000               0.000365077               0.002329993               0.000098836              -0.000154345               0.000828105               0.000673760               0.000000000               0.000000000               0.000000000               0.000000000               0.000326432               0.002294183               0.000078296              -0.000164361               0.000819507               0.000655146               0.000000000               0.000000000               0.000000000               0.000000000               0.000288830               0.002270239               0.000065970              -0.000175468               0.000815228               0.000639760               0.000000000               0.000000000               0.000000000               0.000000000               0.000248860               0.002257463               0.000058454              -0.000188860               0.000815433               0.000626573               0.000000000               0.000000000               0.000000000               0.000000000               0.000208070               0.002253791               0.000050856              -0.000203697               0.000819155               0.000615458               0.000000000               0.000000000               0.000000000               0.000000000               0.000167423               0.002260876               0.000041641              -0.000219825               0.000826893               0.000607068               0.000000000               0.000000000               0.000000000               0.000000000               0.000126631               0.002273330               0.000031267              -0.000236679               0.000836662               0.000599983               0.000000000               0.000000000               0.000000000               0.000000000               0.000092965               0.002288587               0.000022649              -0.000251211               0.000846592               0.000595381               0.000000000               0.000000000               0.000000000               0.000000000               0.000068505               0.002298369               0.000018361              -0.000261606               0.000853318               0.000591711               0.000000000               0.000000000               0.000000000               0.000000000               0.000047876               0.002306498               0.000020310              -0.000270358               0.000858944               0.000588586               0.000000000               0.000000000               0.000000000               0.000000000               0.000024834               0.002314170               0.000018735              -0.000279958               0.000864702               0.000584744               0.000000000               0.000000000               0.000000000               0.000000000               0.000014097               0.002320227               0.000015477              -0.000284741               0.000868315               0.000583574               0.000000000               0.000000000               0.000000000               0.000000000               0.000772924               0.002941351               0.001133345              -0.000077823               0.001006381               0.000928558               0.000000000               0.000000000               0.000000000               0.000000000               0.000558026               0.002638260               0.000778078              -0.000120523               0.000919585               0.000799062               0.000000000               0.000000000               0.000000000               0.000000000               0.000448793               0.002499112               0.000419453              -0.000144091               0.000881060               0.000736968               0.000000000               0.000000000               0.000000000               0.000000000               0.000378475               0.002403857               0.000264194              -0.000158554               0.000854129               0.000695575               0.000000000               0.000000000               0.000000000               0.000000000               0.000329879               0.002338131               0.000189429              -0.000168561               0.000835556               0.000666995               0.000000000               0.000000000               0.000000000               0.000000000               0.000295221               0.002296050               0.000147652              -0.000176298               0.000824108               0.000647810               0.000000000               0.000000000               0.000000000               0.000000000               0.000266719               0.002268682               0.000120781              -0.000183565               0.000817408               0.000633843               0.000000000               0.000000000               0.000000000               0.000000000               0.000238664               0.002251293               0.000102295              -0.000191912               0.000814394               0.000622482               0.000000000               0.000000000               0.000000000               0.000000000               0.000207061               0.002243700               0.000087320              -0.000202814               0.000815497               0.000612683               0.000000000               0.000000000               0.000000000               0.000000000               0.000173086               0.002246848               0.000071995              -0.000215948               0.000820925               0.000604976               0.000000000               0.000000000               0.000000000               0.000000000               0.000140062               0.002258337               0.000054081              -0.000229768               0.000829361               0.000599593               0.000000000               0.000000000               0.000000000               0.000000000               0.000107678               0.002274515               0.000037854              -0.000243935               0.000839476               0.000595541               0.000000000               0.000000000               0.000000000               0.000000000               0.000081465               0.002286759               0.000029422              -0.000255295               0.000847344               0.000592049               0.000000000               0.000000000               0.000000000               0.000000000               0.000062992               0.002290874               0.000025507              -0.000262737               0.000851196               0.000588459               0.000000000               0.000000000               0.000000000               0.000000000               0.000044732               0.002292183               0.000022400              -0.000269748               0.000853969               0.000584222               0.000000000               0.000000000               0.000000000               0.000000000               0.000024229               0.002295698               0.000017119              -0.000277876               0.000857850               0.000579975               0.000000000               0.000000000               0.000000000               0.000000000               0.000015438               0.002301025               0.000013467              -0.000281838               0.000860947               0.000579109               0.000000000               0.000000000               0.000000000               0.000000000               0.000833466               0.002521633               0.001150776              -0.000002656               0.000841421               0.000838765               0.000000000               0.000000000               0.000000000               0.000000000               0.000565797               0.002363342               0.000813355              -0.000083245               0.000815521               0.000732276               0.000000000               0.000000000               0.000000000               0.000000000               0.000393938               0.002355833               0.000468930              -0.000146752               0.000834187               0.000687435               0.000000000               0.000000000               0.000000000               0.000000000               0.000311019               0.002316472               0.000319193              -0.000172926               0.000829792               0.000656865               0.000000000               0.000000000               0.000000000               0.000000000               0.000265205               0.002280762               0.000242321              -0.000185643               0.000822127               0.000636484               0.000000000               0.000000000               0.000000000               0.000000000               0.000240025               0.002258333               0.000194224              -0.000192282               0.000816864               0.000624582               0.000000000               0.000000000               0.000000000               0.000000000               0.000220546               0.002242451               0.000160253              -0.000197601               0.000813343               0.000615742               0.000000000               0.000000000               0.000000000               0.000000000               0.000200755               0.002237409               0.000134389              -0.000204392               0.000813926               0.000609534               0.000000000               0.000000000               0.000000000               0.000000000               0.000177894               0.002241693               0.000110119              -0.000213501               0.000818391               0.000604890               0.000000000               0.000000000               0.000000000               0.000000000               0.000150217               0.002253671               0.000085837              -0.000225377               0.000826342               0.000600965               0.000000000               0.000000000               0.000000000               0.000000000               0.000122387               0.002268222               0.000060338              -0.000237632               0.000835277               0.000597645               0.000000000               0.000000000               0.000000000               0.000000000               0.000097109               0.002281249               0.000039624              -0.000248740               0.000843322               0.000594582               0.000000000               0.000000000               0.000000000               0.000000000               0.000076114               0.002285989               0.000031444              -0.000257205               0.000847724               0.000590519               0.000000000               0.000000000               0.000000000               0.000000000               0.000059968               0.002288083               0.000027967              -0.000263522               0.000850527               0.000587006               0.000000000               0.000000000               0.000000000               0.000000000               0.000042457               0.002292925               0.000022375              -0.000270694               0.000854532               0.000583838               0.000000000               0.000000000               0.000000000               0.000000000               0.000021764               0.002304398               0.000014566              -0.000279888               0.000861421               0.000581533               0.000000000               0.000000000               0.000000000               0.000000000               0.000014712               0.002317670               0.000011681              -0.000284191               0.000867279               0.000583088               0.000000000               0.000000000               0.000000000               0.000000000               0.000862340               0.002110922               0.001106467               0.000059510               0.000683796               0.000743307               0.000000000               0.000000000               0.000000000               0.000000000               0.000560296               0.002097900               0.000815909              -0.000052127               0.000716668               0.000664541               0.000000000               0.000000000               0.000000000               0.000000000               0.000346576               0.002213508               0.000511703              -0.000146723               0.000786736               0.000640013               0.000000000               0.000000000               0.000000000               0.000000000               0.000262239               0.002226684               0.000370085              -0.000179996               0.000802219               0.000622224               0.000000000               0.000000000               0.000000000               0.000000000               0.000222541               0.002223154               0.000288915              -0.000194441               0.000805858               0.000611417               0.000000000               0.000000000               0.000000000               0.000000000               0.000204175               0.002220004               0.000233965              -0.000200934               0.000806972               0.000606038               0.000000000               0.000000000               0.000000000               0.000000000               0.000190183               0.002220981               0.000191571              -0.000206303               0.000809087               0.000602784               0.000000000               0.000000000               0.000000000               0.000000000               0.000174827               0.002231375               0.000154997              -0.000213361               0.000814905               0.000601543               0.000000000               0.000000000               0.000000000               0.000000000               0.000156419               0.002248547               0.000121694              -0.000222411               0.000823645               0.000601234               0.000000000               0.000000000               0.000000000               0.000000000               0.000131204               0.002266624               0.000091846              -0.000234126               0.000833576               0.000599450               0.000000000               0.000000000               0.000000000               0.000000000               0.000104369               0.002281433               0.000063995              -0.000246040               0.000842484               0.000596443               0.000000000               0.000000000               0.000000000               0.000000000               0.000085527               0.002289830               0.000042082              -0.000254155               0.000847988               0.000593832               0.000000000               0.000000000               0.000000000               0.000000000               0.000073174               0.002296850               0.000031370              -0.000259665               0.000852164               0.000592499               0.000000000               0.000000000               0.000000000               0.000000000               0.000059653               0.002313314               0.000024966              -0.000266793               0.000860028               0.000593234               0.000000000               0.000000000               0.000000000               0.000000000               0.000040513               0.002341436               0.000017652              -0.000277487               0.000872966               0.000595480               0.000000000               0.000000000               0.000000000               0.000000000               0.000020624               0.002379757               0.000009873              -0.000289735               0.000889823               0.000600088               0.000000000               0.000000000               0.000000000               0.000000000               0.000015173               0.002409696               0.000008767              -0.000295522               0.000901731               0.000606210               0.000000000               0.000000000               0.000000000               0.000000000               0.000872913               0.001740978               0.001018033               0.000109718               0.000543747               0.000653465               0.000000000               0.000000000               0.000000000               0.000000000               0.000562184               0.001856331               0.000802329              -0.000021223               0.000625845               0.000604621               0.000000000               0.000000000               0.000000000               0.000000000               0.000327213               0.002082187               0.000559970              -0.000137569               0.000739911               0.000602343               0.000000000               0.000000000               0.000000000               0.000000000               0.000243906               0.002147864               0.000422960              -0.000177018               0.000774953               0.000597936               0.000000000               0.000000000               0.000000000               0.000000000               0.000208247               0.002175720               0.000336333              -0.000193872               0.000789857               0.000595985               0.000000000               0.000000000               0.000000000               0.000000000               0.000191942               0.002191879               0.000273478              -0.000202006               0.000797954               0.000595948               0.000000000               0.000000000               0.000000000               0.000000000               0.000182269               0.002210636               0.000221560              -0.000207978               0.000806197               0.000598219               0.000000000               0.000000000               0.000000000               0.000000000               0.000169167               0.002233631               0.000174877              -0.000215766               0.000816458               0.000600692               0.000000000               0.000000000               0.000000000               0.000000000               0.000148256               0.002259427               0.000135803              -0.000226832               0.000828745               0.000601914               0.000000000               0.000000000               0.000000000               0.000000000               0.000122763               0.002283644               0.000104006              -0.000239419               0.000841013               0.000601595               0.000000000               0.000000000               0.000000000               0.000000000               0.000100530               0.002303371               0.000076586              -0.000250222               0.000851190               0.000600968               0.000000000               0.000000000               0.000000000               0.000000000               0.000087989               0.002317390               0.000052132              -0.000256677               0.000858015               0.000601337               0.000000000               0.000000000               0.000000000               0.000000000               0.000079692               0.002336243               0.000033597              -0.000262145               0.000866122               0.000603976               0.000000000               0.000000000               0.000000000               0.000000000               0.000069260               0.002372875               0.000021662              -0.000270636               0.000881162               0.000610526               0.000000000               0.000000000               0.000000000               0.000000000               0.000055045               0.002425810               0.000010165              -0.000282584               0.000902790               0.000620206               0.000000000               0.000000000               0.000000000               0.000000000               0.000040629               0.002491730               0.000001359              -0.000296230               0.000929312               0.000633082               0.000000000               0.000000000               0.000000000               0.000000000               0.000032992               0.002530091              -0.000000831              -0.000303889               0.000944651               0.000640763               0.000000000               0.000000000               0.000000000               0.000000000               0.000856735               0.001374186               0.000906971               0.000149500               0.000408224               0.000557724               0.000000000               0.000000000               0.000000000               0.000000000               0.000580738               0.001571666               0.000782511               0.000021317               0.000516777               0.000538095               0.000000000               0.000000000               0.000000000               0.000000000               0.000346280               0.001877955               0.000616367              -0.000104889               0.000660942               0.000556052               0.000000000               0.000000000               0.000000000               0.000000000               0.000259339               0.002005096               0.000488470              -0.000153385               0.000719487               0.000566102               0.000000000               0.000000000               0.000000000               0.000000000               0.000221685               0.002072061               0.000397994              -0.000175876               0.000749305               0.000573430               0.000000000               0.000000000               0.000000000               0.000000000               0.000202125               0.002112216               0.000327677              -0.000188230               0.000766808               0.000578579               0.000000000               0.000000000               0.000000000               0.000000000               0.000189002               0.002143939               0.000267236              -0.000197116               0.000780345               0.000583228               0.000000000               0.000000000               0.000000000               0.000000000               0.000175804               0.002178150               0.000213325              -0.000206342               0.000794823               0.000588482               0.000000000               0.000000000               0.000000000               0.000000000               0.000160481               0.002215998               0.000169091              -0.000216819               0.000810932               0.000594113               0.000000000               0.000000000               0.000000000               0.000000000               0.000136430               0.002251061               0.000133629              -0.000230221               0.000827087               0.000596866               0.000000000               0.000000000               0.000000000               0.000000000               0.000113759               0.002285157               0.000106230              -0.000242984               0.000842706               0.000599722               0.000000000               0.000000000               0.000000000               0.000000000               0.000099975               0.002314257               0.000080626              -0.000251791               0.000855341               0.000603551               0.000000000               0.000000000               0.000000000               0.000000000               0.000095468               0.002348797               0.000056652              -0.000257798               0.000868857               0.000611059               0.000000000               0.000000000               0.000000000               0.000000000               0.000091216               0.002393704               0.000037075              -0.000265006               0.000886229               0.000621223               0.000000000               0.000000000               0.000000000               0.000000000               0.000084445               0.002457553               0.000018321              -0.000275527               0.000911018               0.000635492               0.000000000               0.000000000               0.000000000               0.000000000               0.000077441               0.002545092               0.000004431              -0.000289095               0.000944721               0.000655625               0.000000000               0.000000000               0.000000000               0.000000000               0.000066261               0.002586189              -0.000002575              -0.000298425               0.000961529               0.000663104               0.000000000               0.000000000               0.000000000               0.000000000               0.000802099               0.001027577               0.000774407               0.000172338               0.000285076               0.000457414               0.000000000               0.000000000               0.000000000               0.000000000               0.000601816               0.001282868               0.000741470               0.000065321               0.000405844               0.000471165               0.000000000               0.000000000               0.000000000               0.000000000               0.000395478               0.001642111               0.000656964              -0.000056960               0.000566351               0.000509391               0.000000000               0.000000000               0.000000000               0.000000000               0.000308197               0.001828426               0.000550720              -0.000112979               0.000647129               0.000534149               0.000000000               0.000000000               0.000000000               0.000000000               0.000261558               0.001937161               0.000461514              -0.000144061               0.000693734               0.000549673               0.000000000               0.000000000               0.000000000               0.000000000               0.000235941               0.002004160               0.000387455              -0.000162042               0.000722061               0.000560019               0.000000000               0.000000000               0.000000000               0.000000000               0.000218588               0.002052725               0.000321335              -0.000174620               0.000742441               0.000567822               0.000000000               0.000000000               0.000000000               0.000000000               0.000205447               0.002100489               0.000263232              -0.000185518               0.000761996               0.000576477               0.000000000               0.000000000               0.000000000               0.000000000               0.000191917               0.002150706               0.000213347              -0.000196869               0.000782518               0.000585649               0.000000000               0.000000000               0.000000000               0.000000000               0.000173225               0.002200539               0.000172203              -0.000210107               0.000803542               0.000593434               0.000000000               0.000000000               0.000000000               0.000000000               0.000150777               0.002248418               0.000143965              -0.000224510               0.000824302               0.000599791               0.000000000               0.000000000               0.000000000               0.000000000               0.000133335               0.002289656               0.000119785              -0.000236206               0.000841946               0.000605741               0.000000000               0.000000000               0.000000000               0.000000000               0.000125856               0.002333717               0.000092581              -0.000244518               0.000859404               0.000614886               0.000000000               0.000000000               0.000000000               0.000000000               0.000121032               0.002387670               0.000063020              -0.000253071               0.000880239               0.000627168               0.000000000               0.000000000               0.000000000               0.000000000               0.000114536               0.002457121               0.000033749              -0.000264188               0.000907095               0.000642906               0.000000000               0.000000000               0.000000000               0.000000000               0.000109594               0.002545564               0.000011369              -0.000277097               0.000940879               0.000663781               0.000000000               0.000000000               0.000000000               0.000000000               0.000097300               0.002585835              -0.000000872              -0.000286741               0.000957517               0.000670776               0.000000000               0.000000000               0.000000000               0.000000000               0.000712258               0.000721266               0.000622590               0.000176936               0.000181440               0.000358377               0.000000000               0.000000000               0.000000000               0.000000000               0.000607238               0.001000356               0.000666446               0.000102668               0.000299226               0.000401894               0.000000000               0.000000000               0.000000000               0.000000000               0.000458630               0.001379868               0.000658242              -0.000000498               0.000460117               0.000459619               0.000000000               0.000000000               0.000000000               0.000000000               0.000381465               0.001611869               0.000581509              -0.000058435               0.000556762               0.000498327               0.000000000               0.000000000               0.000000000               0.000000000               0.000326809               0.001758463               0.000502031              -0.000097255               0.000618566               0.000521312               0.000000000               0.000000000               0.000000000               0.000000000               0.000290586               0.001856191               0.000429863              -0.000123054               0.000659742               0.000536688               0.000000000               0.000000000               0.000000000               0.000000000               0.000266716               0.001927828               0.000364447              -0.000140960               0.000689589               0.000548629               0.000000000               0.000000000               0.000000000               0.000000000               0.000251443               0.001993619               0.000305250              -0.000154911               0.000716170               0.000561259               0.000000000               0.000000000               0.000000000               0.000000000               0.000235763               0.002060196               0.000251592              -0.000169113               0.000743096               0.000573983               0.000000000               0.000000000               0.000000000               0.000000000               0.000220153               0.002127400               0.000207721              -0.000183367               0.000770249               0.000586881               0.000000000               0.000000000               0.000000000               0.000000000               0.000200930               0.002192724               0.000178007              -0.000198741               0.000797148               0.000598406               0.000000000               0.000000000               0.000000000               0.000000000               0.000180052               0.002249604               0.000155030              -0.000213681               0.000821087               0.000607407               0.000000000               0.000000000               0.000000000               0.000000000               0.000163840               0.002305439               0.000126181              -0.000226739               0.000844052               0.000617313               0.000000000               0.000000000               0.000000000               0.000000000               0.000153650               0.002369894               0.000089334              -0.000238617               0.000869496               0.000630878               0.000000000               0.000000000               0.000000000               0.000000000               0.000146645               0.002446592               0.000052882              -0.000250832               0.000899133               0.000648301               0.000000000               0.000000000               0.000000000               0.000000000               0.000140069               0.002539136               0.000023367              -0.000264865               0.000934659               0.000669793               0.000000000               0.000000000               0.000000000               0.000000000               0.000125625               0.002581334               0.000006165              -0.000275557               0.000952288               0.000676731               0.000000000               0.000000000               0.000000000               0.000000000               0.000595729               0.000470419               0.000466993               0.000164594               0.000101939               0.000266534               0.000000000               0.000000000               0.000000000               0.000000000               0.000598513               0.000742883               0.000561604               0.000131580               0.000203765               0.000335345               0.000000000               0.000000000               0.000000000               0.000000000               0.000525816               0.001112124               0.000612015               0.000058164               0.000351316               0.000409480               0.000000000               0.000000000               0.000000000               0.000000000               0.000466897               0.001369849               0.000567031               0.000003854               0.000455327               0.000459181               0.000000000               0.000000000               0.000000000               0.000000000               0.000413109               0.001550087               0.000504014              -0.000038845               0.000529639               0.000490794               0.000000000               0.000000000               0.000000000               0.000000000               0.000365414               0.001679874               0.000441191              -0.000072954               0.000584270               0.000511316               0.000000000               0.000000000               0.000000000               0.000000000               0.000330875               0.001779432               0.000381495              -0.000098351               0.000625922               0.000527571               0.000000000               0.000000000               0.000000000               0.000000000               0.000304808               0.001866105               0.000325222              -0.000118960               0.000661682               0.000542722               0.000000000               0.000000000               0.000000000               0.000000000               0.000284886               0.001951554               0.000273916              -0.000137112               0.000696215               0.000559104               0.000000000               0.000000000               0.000000000               0.000000000               0.000268551               0.002037320               0.000231259              -0.000153958               0.000730419               0.000576461               0.000000000               0.000000000               0.000000000               0.000000000               0.000253236               0.002123096               0.000200862              -0.000170423               0.000764499               0.000594076               0.000000000               0.000000000               0.000000000               0.000000000               0.000232201               0.002200870               0.000177152              -0.000188033               0.000796294               0.000608261               0.000000000               0.000000000               0.000000000               0.000000000               0.000211720               0.002269046               0.000150145              -0.000204235               0.000824419               0.000620184               0.000000000               0.000000000               0.000000000               0.000000000               0.000198071               0.002339414               0.000115657              -0.000218150               0.000852514               0.000634364               0.000000000               0.000000000               0.000000000               0.000000000               0.000191574               0.002427226               0.000075056              -0.000231562               0.000886255               0.000654692               0.000000000               0.000000000               0.000000000               0.000000000               0.000183037               0.002530375               0.000034943              -0.000247657               0.000926002               0.000678345               0.000000000               0.000000000               0.000000000               0.000000000               0.000166017               0.002576755               0.000012808              -0.000259837               0.000945522               0.000685685               0.000000000               0.000000000               0.000000000               0.000000000               0.000465758               0.000281130               0.000323053               0.000139517               0.000047203               0.000186720               0.000000000               0.000000000               0.000000000               0.000000000               0.000575773               0.000527378               0.000435738               0.000149991               0.000125794               0.000275784               0.000000000               0.000000000               0.000000000               0.000000000               0.000587160               0.000863000               0.000515002               0.000112309               0.000250227               0.000362536               0.000000000               0.000000000               0.000000000               0.000000000               0.000553371               0.001129010               0.000498198               0.000066387               0.000354204               0.000420591               0.000000000               0.000000000               0.000000000               0.000000000               0.000505726               0.001335427               0.000454418               0.000022718               0.000437565               0.000460283               0.000000000               0.000000000               0.000000000               0.000000000               0.000453458               0.001493037               0.000405963              -0.000016583               0.000503202               0.000486619               0.000000000               0.000000000               0.000000000               0.000000000               0.000406582               0.001620571               0.000356587              -0.000050103               0.000556886               0.000506782               0.000000000               0.000000000               0.000000000               0.000000000               0.000369825               0.001733280               0.000307947              -0.000077976               0.000603746               0.000525770               0.000000000               0.000000000               0.000000000               0.000000000               0.000339409               0.001833992               0.000264385              -0.000101970               0.000645315               0.000543344               0.000000000               0.000000000               0.000000000               0.000000000               0.000317967               0.001933296               0.000229304              -0.000122424               0.000685234               0.000562810               0.000000000               0.000000000               0.000000000               0.000000000               0.000304565               0.002036482               0.000201277              -0.000140348               0.000725603               0.000585255               0.000000000               0.000000000               0.000000000               0.000000000               0.000289193               0.002136097               0.000177777              -0.000158564               0.000764880               0.000606315               0.000000000               0.000000000               0.000000000               0.000000000               0.000271032               0.002223621               0.000155508              -0.000176315               0.000799971               0.000623656               0.000000000               0.000000000               0.000000000               0.000000000               0.000256246               0.002306857               0.000125781              -0.000192264               0.000833033               0.000640768               0.000000000               0.000000000               0.000000000               0.000000000               0.000248322               0.002403988               0.000086006              -0.000207377               0.000870447               0.000663070               0.000000000               0.000000000               0.000000000               0.000000000               0.000246439               0.002518081               0.000042640              -0.000222345               0.000913467               0.000691122               0.000000000               0.000000000               0.000000000               0.000000000               0.000236239               0.002572745               0.000018862              -0.000233003               0.000935241               0.000702238               0.000000000               0.000000000               0.000000000               0.000000000               0.000348638               0.000155140               0.000197653               0.000111346               0.000014598               0.000125943               0.000000000               0.000000000               0.000000000               0.000000000               0.000546613               0.000364675               0.000295848               0.000159394               0.000068426               0.000227819               0.000000000               0.000000000               0.000000000               0.000000000               0.000636153               0.000659506               0.000372839               0.000156117               0.000167794               0.000323911               0.000000000               0.000000000               0.000000000               0.000000000               0.000631478               0.000924120               0.000372985               0.000121288               0.000267607               0.000388895               0.000000000               0.000000000               0.000000000               0.000000000               0.000589892               0.001143154               0.000347517               0.000078314               0.000354943               0.000433257               0.000000000               0.000000000               0.000000000               0.000000000               0.000536219               0.001321504               0.000314868               0.000035893               0.000428532               0.000464426               0.000000000               0.000000000               0.000000000               0.000000000               0.000482374               0.001472878               0.000280041              -0.000003220               0.000492028               0.000488808               0.000000000               0.000000000               0.000000000               0.000000000               0.000437788               0.001606315               0.000243280              -0.000036619               0.000547639               0.000511020               0.000000000               0.000000000               0.000000000               0.000000000               0.000399853               0.001723206               0.000210560              -0.000065456               0.000596215               0.000530759               0.000000000               0.000000000               0.000000000               0.000000000               0.000370247               0.001833196               0.000187812              -0.000090307               0.000641162               0.000550855               0.000000000               0.000000000               0.000000000               0.000000000               0.000351563               0.001944812               0.000168866              -0.000111265               0.000685353               0.000574087               0.000000000               0.000000000               0.000000000               0.000000000               0.000341130               0.002060361               0.000148842              -0.000129621               0.000729987               0.000600366               0.000000000               0.000000000               0.000000000               0.000000000               0.000324943               0.002171467               0.000128290              -0.000149579               0.000773675               0.000624096               0.000000000               0.000000000               0.000000000               0.000000000               0.000310428               0.002277830               0.000106035              -0.000168318               0.000815375               0.000647057               0.000000000               0.000000000               0.000000000               0.000000000               0.000312455               0.002387399               0.000077286              -0.000181254               0.000856210               0.000674956               0.000000000               0.000000000               0.000000000               0.000000000               0.000326778               0.002509464               0.000040944              -0.000191141               0.000900193               0.000709052               0.000000000               0.000000000               0.000000000               0.000000000               0.000330859               0.002572134               0.000020017              -0.000197444               0.000923184               0.000725740               0.000000000               0.000000000               0.000000000               0.000000000               0.000269291               0.000086207               0.000093472               0.000090208              -0.000001334               0.000088874               0.000000000               0.000000000               0.000000000               0.000000000               0.000523815               0.000264882               0.000149589               0.000163319               0.000033854               0.000197172               0.000000000               0.000000000               0.000000000               0.000000000               0.000668548               0.000526903               0.000196171               0.000184841               0.000114019               0.000298860               0.000000000               0.000000000               0.000000000               0.000000000               0.000685134               0.000784134               0.000200097               0.000158907               0.000208406               0.000367313               0.000000000               0.000000000               0.000000000               0.000000000               0.000651237               0.001009009               0.000188649               0.000118086               0.000296971               0.000415057               0.000000000               0.000000000               0.000000000               0.000000000               0.000596732               0.001199117               0.000172797               0.000073884               0.000375074               0.000448958               0.000000000               0.000000000               0.000000000               0.000000000               0.000539296               0.001363947               0.000155242               0.000031742               0.000444064               0.000475806               0.000000000               0.000000000               0.000000000               0.000000000               0.000488473               0.001511011               0.000135664              -0.000005699               0.000505565               0.000499866               0.000000000               0.000000000               0.000000000               0.000000000               0.000449152               0.001643100               0.000116888              -0.000036955               0.000560013               0.000523058               0.000000000               0.000000000               0.000000000               0.000000000               0.000415969               0.001762621               0.000105363              -0.000064339               0.000608981               0.000544642               0.000000000               0.000000000               0.000000000               0.000000000               0.000388027               0.001878578               0.000099397              -0.000089312               0.000655957               0.000566645               0.000000000               0.000000000               0.000000000               0.000000000               0.000369231               0.002000593               0.000086947              -0.000111612               0.000704062               0.000592450               0.000000000               0.000000000               0.000000000               0.000000000               0.000359331               0.002127159               0.000069302              -0.000131145               0.000752761               0.000621616               0.000000000               0.000000000               0.000000000               0.000000000               0.000358312               0.002255640               0.000060306              -0.000147588               0.000801068               0.000653481               0.000000000               0.000000000               0.000000000               0.000000000               0.000370704               0.002383563               0.000048893              -0.000158931               0.000847490               0.000688559               0.000000000               0.000000000               0.000000000               0.000000000               0.000399816               0.002513649               0.000025180              -0.000164275               0.000892633               0.000728358               0.000000000               0.000000000               0.000000000               0.000000000               0.000420918               0.002580128               0.000011290              -0.000164671               0.000914924               0.000750253               0.000000000               0.000000000               0.000000000               0.000000000               0.000240820               0.000064401               0.000000000               0.000082257              -0.000005952               0.000076304               0.000000000               0.000000000               0.000000000               0.000000000               0.000514726               0.000230371               0.000000000               0.000164224               0.000022048               0.000186272               0.000000000               0.000000000               0.000000000               0.000000000               0.000679437               0.000479449               0.000000000               0.000194856               0.000094863               0.000289718               0.000000000               0.000000000               0.000000000               0.000000000               0.000703369               0.000733933              -0.000000000               0.000172020               0.000187302               0.000359322               0.000000000               0.000000000               0.000000000               0.000000000               0.000673348               0.000960694              -0.000000000               0.000132417               0.000276089               0.000408506               0.000000000               0.000000000               0.000000000               0.000000000               0.000620041               0.001155041              -0.000000000               0.000088134               0.000355632               0.000443766               0.000000000               0.000000000               0.000000000               0.000000000               0.000561340               0.001326030               0.000000000               0.000044748               0.000427090               0.000471838               0.000000000               0.000000000               0.000000000               0.000000000               0.000507363               0.001475977               0.000000000               0.000005764               0.000490066               0.000495830               0.000000000               0.000000000               0.000000000               0.000000000               0.000465906               0.001609174              -0.000000000              -0.000026432               0.000545197               0.000518765               0.000000000               0.000000000               0.000000000               0.000000000               0.000434655               0.001736185               0.000000000              -0.000054028               0.000596732               0.000542704               0.000000000               0.000000000               0.000000000               0.000000000               0.000402883               0.001858066              -0.000000000              -0.000081177               0.000646408               0.000565231               0.000000000               0.000000000               0.000000000               0.000000000               0.000374180               0.001977601              -0.000000000              -0.000106882               0.000694821               0.000587939               0.000000000               0.000000000               0.000000000               0.000000000               0.000369241               0.002106820               0.000000000              -0.000124887               0.000743895               0.000619008               0.000000000               0.000000000               0.000000000               0.000000000               0.000381728               0.002246680               0.000000000              -0.000137686               0.000794781               0.000657095               0.000000000               0.000000000               0.000000000               0.000000000               0.000396234               0.002385924              -0.000000000              -0.000149652               0.000845184               0.000695532               0.000000000               0.000000000               0.000000000               0.000000000               0.000430516               0.002520818              -0.000000000              -0.000153658               0.000891484               0.000737825               0.000000000               0.000000000               0.000000000               0.000000000               0.000460900               0.002588089              -0.000000000              -0.000150673               0.000912912               0.000762239               0.000000000               0.000000000               0.000000000               0.000000000               0.000368807               0.004263055               0.000000000              -0.000394578               0.001552530               0.001157952               0.000000000               0.000000000               0.000000000               0.000000000               0.000421585               0.003558508               0.000000000              -0.000286719               0.001281730               0.000995012               0.000000000               0.000000000               0.000000000               0.000000000               0.000601526               0.002989220               0.000000000              -0.000148080               0.001045757               0.000897677               0.000000000               0.000000000               0.000000000               0.000000000               0.000641927               0.002674980              -0.000000000              -0.000093649               0.000922867               0.000829218               0.000000000               0.000000000               0.000000000               0.000000000               0.000625008               0.002494277              -0.000000000              -0.000077406               0.000857219               0.000779813               0.000000000               0.000000000               0.000000000               0.000000000               0.000581265               0.002386999              -0.000000000              -0.000080400               0.000822458               0.000742058               0.000000000               0.000000000               0.000000000               0.000000000               0.000525583               0.002324817              -0.000000000              -0.000093508               0.000806101               0.000712592               0.000000000               0.000000000               0.000000000               0.000000000               0.000466738               0.002292973              -0.000000000              -0.000111595               0.000801515               0.000689920               0.000000000               0.000000000               0.000000000               0.000000000               0.000402835               0.002275331              -0.000000000              -0.000133353               0.000802887               0.000669534               0.000000000               0.000000000               0.000000000               0.000000000               0.000336744               0.002269563              -0.000000000              -0.000157416               0.000808985               0.000651569               0.000000000               0.000000000               0.000000000               0.000000000               0.000275937               0.002271726               0.000000000              -0.000180489               0.000817398               0.000636908               0.000000000               0.000000000               0.000000000               0.000000000               0.000222158               0.002283647               0.000000000              -0.000202146               0.000828590               0.000626444               0.000000000               0.000000000               0.000000000               0.000000000               0.000168989               0.002300983               0.000000000              -0.000224251               0.000841737               0.000617486               0.000000000               0.000000000               0.000000000               0.000000000               0.000118114               0.002328142               0.000000000              -0.000246724               0.000858281               0.000611556               0.000000000               0.000000000               0.000000000               0.000000000               0.000072576               0.002359342               0.000000000              -0.000267701               0.000875673               0.000607972               0.000000000               0.000000000               0.000000000               0.000000000               0.000033950               0.002390530               0.000000000              -0.000286084               0.000892197               0.000606112               0.000000000               0.000000000               0.000000000               0.000000000               0.000019402               0.002414312               0.000000000              -0.000294512               0.000902933               0.000608421               0.000000000               0.000000000               0.000000000               0.000000000               0.000397073               0.004199231              -0.000333939              -0.000376001               0.001525063               0.001149063               0.000000000               0.000000000               0.000000000               0.000000000               0.000434607               0.003512931              -0.000223303              -0.000276138               0.001263011               0.000986873               0.000000000               0.000000000               0.000000000               0.000000000               0.000596608               0.002963977              -0.000107559              -0.000146769               0.001036905               0.000890137               0.000000000               0.000000000               0.000000000               0.000000000               0.000627717               0.002662042              -0.000051555              -0.000097361               0.000919792               0.000822431               0.000000000               0.000000000               0.000000000               0.000000000               0.000607988               0.002488020              -0.000023513              -0.000083007               0.000857001               0.000773994               0.000000000               0.000000000               0.000000000               0.000000000               0.000563780               0.002385911              -0.000009768              -0.000086821               0.000824236               0.000737415               0.000000000               0.000000000               0.000000000               0.000000000               0.000508060               0.002325796              -0.000002564              -0.000100202               0.000808658               0.000708456               0.000000000               0.000000000               0.000000000               0.000000000               0.000449397               0.002292051              -0.000000066              -0.000117982               0.000803337               0.000685355               0.000000000               0.000000000               0.000000000               0.000000000               0.000387859               0.002275891               0.000000055              -0.000139039               0.000804969               0.000665930               0.000000000               0.000000000               0.000000000               0.000000000               0.000326414               0.002269898              -0.000000530              -0.000161332               0.000810402               0.000649071               0.000000000               0.000000000               0.000000000               0.000000000               0.000267637               0.002272531              -0.000000536              -0.000183702               0.000818737               0.000635035               0.000000000               0.000000000               0.000000000               0.000000000               0.000212022               0.002282665              -0.000000059              -0.000205824               0.000829489               0.000623664               0.000000000               0.000000000               0.000000000               0.000000000               0.000160382               0.002301913               0.000002700              -0.000227595               0.000843162               0.000615567               0.000000000               0.000000000               0.000000000               0.000000000               0.000111940               0.002328479               0.000005335              -0.000249082               0.000859179               0.000610097               0.000000000               0.000000000               0.000000000               0.000000000               0.000068564               0.002357630               0.000002606              -0.000268992               0.000875533               0.000606541               0.000000000               0.000000000               0.000000000               0.000000000               0.000031309               0.002385775               0.000000345              -0.000286480               0.000890744               0.000604264               0.000000000               0.000000000               0.000000000               0.000000000               0.000017321               0.002407713              -0.000000242              -0.000294468               0.000900719               0.000606251               0.000000000               0.000000000               0.000000000               0.000000000               0.000471982               0.004013071              -0.000633865              -0.000324640               0.001445890               0.001121250               0.000000000               0.000000000               0.000000000               0.000000000               0.000465252               0.003378473              -0.000424686              -0.000247839               0.001208759               0.000960920               0.000000000               0.000000000               0.000000000               0.000000000               0.000579358               0.002888620              -0.000206680              -0.000143818               0.001010803               0.000866985               0.000000000               0.000000000               0.000000000               0.000000000               0.000587873               0.002620414              -0.000103184              -0.000107099               0.000909162               0.000802063               0.000000000               0.000000000               0.000000000               0.000000000               0.000557856               0.002465107              -0.000052094              -0.000098942               0.000854675               0.000755733               0.000000000               0.000000000               0.000000000               0.000000000               0.000512146               0.002373183              -0.000026588              -0.000104593               0.000825917               0.000721324               0.000000000               0.000000000               0.000000000               0.000000000               0.000459082               0.002319024              -0.000014480              -0.000117722               0.000812241               0.000694519               0.000000000               0.000000000               0.000000000               0.000000000               0.000404604               0.002289017              -0.000009140              -0.000134400               0.000807798               0.000673398               0.000000000               0.000000000               0.000000000               0.000000000               0.000348842               0.002273815              -0.000007880              -0.000153411               0.000809068               0.000655657               0.000000000               0.000000000               0.000000000               0.000000000               0.000293149               0.002268105              -0.000008772              -0.000173582               0.000813888               0.000640306               0.000000000               0.000000000               0.000000000               0.000000000               0.000238381               0.002271244              -0.000008928              -0.000194512               0.000821911               0.000627399               0.000000000               0.000000000               0.000000000               0.000000000               0.000187456               0.002282968              -0.000006680              -0.000215074               0.000832673               0.000617599               0.000000000               0.000000000               0.000000000               0.000000000               0.000141150               0.002301901              -0.000000995              -0.000234806               0.000845561               0.000610756               0.000000000               0.000000000               0.000000000               0.000000000               0.000096707               0.002323915               0.000002252              -0.000254223               0.000859372               0.000605148               0.000000000               0.000000000               0.000000000               0.000000000               0.000058621               0.002346369              -0.000002572              -0.000271312               0.000872553               0.000601240               0.000000000               0.000000000               0.000000000               0.000000000               0.000027591               0.002368270              -0.000005403              -0.000285686               0.000884644               0.000598958               0.000000000               0.000000000               0.000000000               0.000000000               0.000016102               0.002386020              -0.000005051              -0.000292214               0.000892737               0.000600523               0.000000000               0.000000000               0.000000000               0.000000000               0.000573662               0.003720103              -0.000875739              -0.000249890               0.001323318               0.001073429               0.000000000               0.000000000               0.000000000               0.000000000               0.000501907               0.003167584              -0.000587857              -0.000207733               0.001125095               0.000917362               0.000000000               0.000000000               0.000000000               0.000000000               0.000546269               0.002771899              -0.000290831              -0.000141636               0.000971169               0.000829533               0.000000000               0.000000000               0.000000000               0.000000000               0.000525294               0.002555365              -0.000154911              -0.000122435               0.000892591               0.000770156               0.000000000               0.000000000               0.000000000               0.000000000               0.000486205               0.002429932              -0.000089495              -0.000121414               0.000850441               0.000729026               0.000000000               0.000000000               0.000000000               0.000000000               0.000441448               0.002354122              -0.000056568              -0.000128722               0.000827607               0.000698885               0.000000000               0.000000000               0.000000000               0.000000000               0.000393721               0.002309295              -0.000039859              -0.000141016               0.000816763               0.000675746               0.000000000               0.000000000               0.000000000               0.000000000               0.000346927               0.002283953              -0.000032110              -0.000155396               0.000813109               0.000657713               0.000000000               0.000000000               0.000000000               0.000000000               0.000298953               0.002269031              -0.000029172              -0.000171521               0.000813510               0.000641989               0.000000000               0.000000000               0.000000000               0.000000000               0.000249717               0.002263773              -0.000027414              -0.000189327               0.000817693               0.000628365               0.000000000               0.000000000               0.000000000               0.000000000               0.000201710               0.002268016              -0.000023770              -0.000207860               0.000825285               0.000617424               0.000000000               0.000000000               0.000000000               0.000000000               0.000155021               0.002279817              -0.000018614              -0.000226844               0.000835546               0.000608702               0.000000000               0.000000000               0.000000000               0.000000000               0.000113715               0.002296001              -0.000011753              -0.000244356               0.000846778               0.000602422               0.000000000               0.000000000               0.000000000               0.000000000               0.000079952               0.002312331              -0.000007811              -0.000259059               0.000857122               0.000598064               0.000000000               0.000000000               0.000000000               0.000000000               0.000051615               0.002327008              -0.000012577              -0.000271519               0.000866168               0.000594648               0.000000000               0.000000000               0.000000000               0.000000000               0.000025982               0.002341241              -0.000013681              -0.000282911               0.000874710               0.000591798               0.000000000               0.000000000               0.000000000               0.000000000               0.000015596               0.002352800              -0.000011819              -0.000288251               0.000880342               0.000592091               0.000000000               0.000000000               0.000000000               0.000000000               0.000680876               0.003350122              -0.001044374              -0.000163437               0.001171175               0.001007738               0.000000000               0.000000000               0.000000000               0.000000000               0.000535366               0.002910695              -0.000705183              -0.000163075               0.001024580               0.000861505               0.000000000               0.000000000               0.000000000               0.000000000               0.000501314               0.002637753              -0.000360560              -0.000141726               0.000926484               0.000784758               0.000000000               0.000000000               0.000000000               0.000000000               0.000452604               0.002482842              -0.000208513              -0.000140628               0.000874482               0.000733853               0.000000000               0.000000000               0.000000000               0.000000000               0.000407131               0.002388885              -0.000135877              -0.000145936               0.000844932               0.000698996               0.000000000               0.000000000               0.000000000               0.000000000               0.000365077               0.002329993              -0.000098836              -0.000154345               0.000828105               0.000673760               0.000000000               0.000000000               0.000000000               0.000000000               0.000326432               0.002294183              -0.000078296              -0.000164361               0.000819507               0.000655146               0.000000000               0.000000000               0.000000000               0.000000000               0.000288830               0.002270239              -0.000065970              -0.000175468               0.000815228               0.000639760               0.000000000               0.000000000               0.000000000               0.000000000               0.000248860               0.002257463              -0.000058454              -0.000188860               0.000815433               0.000626573               0.000000000               0.000000000               0.000000000               0.000000000               0.000208070               0.002253791              -0.000050856              -0.000203697               0.000819155               0.000615458               0.000000000               0.000000000               0.000000000               0.000000000               0.000167423               0.002260876              -0.000041641              -0.000219825               0.000826893               0.000607068               0.000000000               0.000000000               0.000000000               0.000000000               0.000126631               0.002273330              -0.000031267              -0.000236679               0.000836662               0.000599983               0.000000000               0.000000000               0.000000000               0.000000000               0.000092965               0.002288587              -0.000022649              -0.000251211               0.000846592               0.000595381               0.000000000               0.000000000               0.000000000               0.000000000               0.000068505               0.002298369              -0.000018361              -0.000261606               0.000853318               0.000591711               0.000000000               0.000000000               0.000000000               0.000000000               0.000047876               0.002306498              -0.000020310              -0.000270358               0.000858944               0.000588586               0.000000000               0.000000000               0.000000000               0.000000000               0.000024834               0.002314170              -0.000018735              -0.000279958               0.000864702               0.000584744               0.000000000               0.000000000               0.000000000               0.000000000               0.000014097               0.002320227              -0.000015477              -0.000284741               0.000868315               0.000583574               0.000000000               0.000000000               0.000000000               0.000000000               0.000772924               0.002941351              -0.001133345              -0.000077823               0.001006381               0.000928558               0.000000000               0.000000000               0.000000000               0.000000000               0.000558026               0.002638260              -0.000778078              -0.000120523               0.000919585               0.000799062               0.000000000               0.000000000               0.000000000               0.000000000               0.000448793               0.002499112              -0.000419453              -0.000144091               0.000881060               0.000736968               0.000000000               0.000000000               0.000000000               0.000000000               0.000378475               0.002403857              -0.000264194              -0.000158554               0.000854129               0.000695575               0.000000000               0.000000000               0.000000000               0.000000000               0.000329879               0.002338131              -0.000189429              -0.000168561               0.000835556               0.000666995               0.000000000               0.000000000               0.000000000               0.000000000               0.000295221               0.002296050              -0.000147652              -0.000176298               0.000824108               0.000647810               0.000000000               0.000000000               0.000000000               0.000000000               0.000266719               0.002268682              -0.000120781              -0.000183565               0.000817408               0.000633843               0.000000000               0.000000000               0.000000000               0.000000000               0.000238664               0.002251293              -0.000102295              -0.000191912               0.000814394               0.000622482               0.000000000               0.000000000               0.000000000               0.000000000               0.000207061               0.002243700              -0.000087320              -0.000202814               0.000815497               0.000612683               0.000000000               0.000000000               0.000000000               0.000000000               0.000173086               0.002246848              -0.000071995              -0.000215948               0.000820925               0.000604976               0.000000000               0.000000000               0.000000000               0.000000000               0.000140062               0.002258337              -0.000054081              -0.000229768               0.000829361               0.000599593               0.000000000               0.000000000               0.000000000               0.000000000               0.000107678               0.002274515              -0.000037854              -0.000243935               0.000839476               0.000595541               0.000000000               0.000000000               0.000000000               0.000000000               0.000081465               0.002286759              -0.000029422              -0.000255295               0.000847344               0.000592049               0.000000000               0.000000000               0.000000000               0.000000000               0.000062992               0.002290874              -0.000025507              -0.000262737               0.000851196               0.000588459               0.000000000               0.000000000               0.000000000               0.000000000               0.000044732               0.002292183              -0.000022400              -0.000269748               0.000853969               0.000584222               0.000000000               0.000000000               0.000000000               0.000000000               0.000024229               0.002295698              -0.000017119              -0.000277876               0.000857850               0.000579975               0.000000000               0.000000000               0.000000000               0.000000000               0.000015438               0.002301025              -0.000013467              -0.000281838               0.000860947               0.000579109               0.000000000               0.000000000               0.000000000               0.000000000               0.000833466               0.002521633              -0.001150776              -0.000002656               0.000841421               0.000838765               0.000000000               0.000000000               0.000000000               0.000000000               0.000565797               0.002363342              -0.000813355              -0.000083245               0.000815521               0.000732276               0.000000000               0.000000000               0.000000000               0.000000000               0.000393938               0.002355833              -0.000468930              -0.000146752               0.000834187               0.000687435               0.000000000               0.000000000               0.000000000               0.000000000               0.000311019               0.002316472              -0.000319193              -0.000172926               0.000829792               0.000656865               0.000000000               0.000000000               0.000000000               0.000000000               0.000265205               0.002280762              -0.000242321              -0.000185643               0.000822127               0.000636484               0.000000000               0.000000000               0.000000000               0.000000000               0.000240025               0.002258333              -0.000194224              -0.000192282               0.000816864               0.000624582               0.000000000               0.000000000               0.000000000               0.000000000               0.000220546               0.002242451              -0.000160253              -0.000197601               0.000813343               0.000615742               0.000000000               0.000000000               0.000000000               0.000000000               0.000200755               0.002237409              -0.000134389              -0.000204392               0.000813926               0.000609534               0.000000000               0.000000000               0.000000000               0.000000000               0.000177894               0.002241693              -0.000110119              -0.000213501               0.000818391               0.000604890               0.000000000               0.000000000               0.000000000               0.000000000               0.000150217               0.002253671              -0.000085837              -0.000225377               0.000826342               0.000600965               0.000000000               0.000000000               0.000000000               0.000000000               0.000122387               0.002268222              -0.000060338              -0.000237632               0.000835277               0.000597645               0.000000000               0.000000000               0.000000000               0.000000000               0.000097109               0.002281249              -0.000039624              -0.000248740               0.000843322               0.000594582               0.000000000               0.000000000               0.000000000               0.000000000               0.000076114               0.002285989              -0.000031444              -0.000257205               0.000847724               0.000590519               0.000000000               0.000000000               0.000000000               0.000000000               0.000059968               0.002288083              -0.000027967              -0.000263522               0.000850527               0.000587006               0.000000000               0.000000000               0.000000000               0.000000000               0.000042457               0.002292925              -0.000022375              -0.000270694               0.000854532               0.000583838               0.000000000               0.000000000               0.000000000               0.000000000               0.000021764               0.002304398              -0.000014566              -0.000279888               0.000861421               0.000581533               0.000000000               0.000000000               0.000000000               0.000000000               0.000014712               0.002317670              -0.000011681              -0.000284191               0.000867279               0.000583088               0.000000000               0.000000000               0.000000000               0.000000000               0.000862340               0.002110922              -0.001106467               0.000059510               0.000683796               0.000743307               0.000000000               0.000000000               0.000000000               0.000000000               0.000560296               0.002097900              -0.000815909              -0.000052127               0.000716668               0.000664541               0.000000000               0.000000000               0.000000000               0.000000000               0.000346576               0.002213508              -0.000511703              -0.000146723               0.000786736               0.000640013               0.000000000               0.000000000               0.000000000               0.000000000               0.000262239               0.002226684              -0.000370085              -0.000179996               0.000802219               0.000622224               0.000000000               0.000000000               0.000000000               0.000000000               0.000222541               0.002223154              -0.000288915              -0.000194441               0.000805858               0.000611417               0.000000000               0.000000000               0.000000000               0.000000000               0.000204175               0.002220004              -0.000233965              -0.000200934               0.000806972               0.000606038               0.000000000               0.000000000               0.000000000               0.000000000               0.000190183               0.002220981              -0.000191571              -0.000206303               0.000809087               0.000602784               0.000000000               0.000000000               0.000000000               0.000000000               0.000174827               0.002231375              -0.000154997              -0.000213361               0.000814905               0.000601543               0.000000000               0.000000000               0.000000000               0.000000000               0.000156419               0.002248547              -0.000121694              -0.000222411               0.000823645               0.000601234               0.000000000               0.000000000               0.000000000               0.000000000               0.000131204               0.002266624              -0.000091846              -0.000234126               0.000833576               0.000599450               0.000000000               0.000000000               0.000000000               0.000000000               0.000104369               0.002281433              -0.000063995              -0.000246040               0.000842484               0.000596443               0.000000000               0.000000000               0.000000000               0.000000000               0.000085527               0.002289830              -0.000042082              -0.000254155               0.000847988               0.000593832               0.000000000               0.000000000               0.000000000               0.000000000               0.000073174               0.002296850              -0.000031370              -0.000259665               0.000852164               0.000592499               0.000000000               0.000000000               0.000000000               0.000000000               0.000059653               0.002313314              -0.000024966              -0.000266793               0.000860028               0.000593234               0.000000000               0.000000000               0.000000000               0.000000000               0.000040513               0.002341436              -0.000017652              -0.000277487               0.000872966               0.000595480               0.000000000               0.000000000               0.000000000               0.000000000               0.000020624               0.002379757              -0.000009873              -0.000289735               0.000889823               0.000600088               0.000000000               0.000000000               0.000000000               0.000000000               0.000015173               0.002409696              -0.000008767              -0.000295522               0.000901731               0.000606210               0.000000000               0.000000000               0.000000000               0.000000000               0.000872913               0.001740978              -0.001018033               0.000109718               0.000543747               0.000653465               0.000000000               0.000000000               0.000000000               0.000000000               0.000562184               0.001856331              -0.000802329              -0.000021223               0.000625845               0.000604621               0.000000000               0.000000000               0.000000000               0.000000000               0.000327213               0.002082187              -0.000559970              -0.000137569               0.000739911               0.000602343               0.000000000               0.000000000               0.000000000               0.000000000               0.000243906               0.002147864              -0.000422960              -0.000177018               0.000774953               0.000597936               0.000000000               0.000000000               0.000000000               0.000000000               0.000208247               0.002175720              -0.000336333              -0.000193872               0.000789857               0.000595985               0.000000000               0.000000000               0.000000000               0.000000000               0.000191942               0.002191879              -0.000273478              -0.000202006               0.000797954               0.000595948               0.000000000               0.000000000               0.000000000               0.000000000               0.000182269               0.002210636              -0.000221560              -0.000207978               0.000806197               0.000598219               0.000000000               0.000000000               0.000000000               0.000000000               0.000169167               0.002233631              -0.000174877              -0.000215766               0.000816458               0.000600692               0.000000000               0.000000000               0.000000000               0.000000000               0.000148256               0.002259427              -0.000135803              -0.000226832               0.000828745               0.000601914               0.000000000               0.000000000               0.000000000               0.000000000               0.000122763               0.002283644              -0.000104006              -0.000239419               0.000841013               0.000601595               0.000000000               0.000000000               0.000000000               0.000000000               0.000100530               0.002303371              -0.000076586              -0.000250222               0.000851190               0.000600968               0.000000000               0.000000000               0.000000000               0.000000000               0.000087989               0.002317390              -0.000052132              -0.000256677               0.000858015               0.000601337               0.000000000               0.000000000               0.000000000               0.000000000               0.000079692               0.002336243              -0.000033597              -0.000262145               0.000866122               0.000603976               0.000000000               0.000000000               0.000000000               0.000000000               0.000069260               0.002372875              -0.000021662              -0.000270636               0.000881162               0.000610526               0.000000000               0.000000000               0.000000000               0.000000000               0.000055045               0.002425810              -0.000010165              -0.000282584               0.000902790               0.000620206               0.000000000               0.000000000               0.000000000               0.000000000               0.000040629               0.002491730              -0.000001359              -0.000296230               0.000929312               0.000633082               0.000000000               0.000000000               0.000000000               0.000000000               0.000032992               0.002530091               0.000000831              -0.000303889               0.000944651               0.000640763               0.000000000               0.000000000               0.000000000               0.000000000               0.000856735               0.001374186              -0.000906971               0.000149500               0.000408224               0.000557724               0.000000000               0.000000000               0.000000000               0.000000000               0.000580738               0.001571666              -0.000782511               0.000021317               0.000516777               0.000538095               0.000000000               0.000000000               0.000000000               0.000000000               0.000346280               0.001877955              -0.000616367              -0.000104889               0.000660942               0.000556052               0.000000000               0.000000000               0.000000000               0.000000000               0.000259339               0.002005096              -0.000488470              -0.000153385               0.000719487               0.000566102               0.000000000               0.000000000               0.000000000               0.000000000               0.000221685               0.002072061              -0.000397994              -0.000175876               0.000749305               0.000573430               0.000000000               0.000000000               0.000000000               0.000000000               0.000202125               0.002112216              -0.000327677              -0.000188230               0.000766808               0.000578579               0.000000000               0.000000000               0.000000000               0.000000000               0.000189002               0.002143939              -0.000267236              -0.000197116               0.000780345               0.000583228               0.000000000               0.000000000               0.000000000               0.000000000               0.000175804               0.002178150              -0.000213325              -0.000206342               0.000794823               0.000588482               0.000000000               0.000000000               0.000000000               0.000000000               0.000160481               0.002215998              -0.000169091              -0.000216819               0.000810932               0.000594113               0.000000000               0.000000000               0.000000000               0.000000000               0.000136430               0.002251061              -0.000133629              -0.000230221               0.000827087               0.000596866               0.000000000               0.000000000               0.000000000               0.000000000               0.000113759               0.002285157              -0.000106230              -0.000242984               0.000842706               0.000599722               0.000000000               0.000000000               0.000000000               0.000000000               0.000099975               0.002314257              -0.000080626              -0.000251791               0.000855341               0.000603551               0.000000000               0.000000000               0.000000000               0.000000000               0.000095468               0.002348797              -0.000056652              -0.000257798               0.000868857               0.000611059               0.000000000               0.000000000               0.000000000               0.000000000               0.000091216               0.002393704              -0.000037075              -0.000265006               0.000886229               0.000621223               0.000000000               0.000000000               0.000000000               0.000000000               0.000084445               0.002457553              -0.000018321              -0.000275527               0.000911018               0.000635492               0.000000000               0.000000000               0.000000000               0.000000000               0.000077441               0.002545092              -0.000004431              -0.000289095               0.000944721               0.000655625               0.000000000               0.000000000               0.000000000               0.000000000               0.000066261               0.002586189               0.000002575              -0.000298425               0.000961529               0.000663104               0.000000000               0.000000000               0.000000000               0.000000000               0.000802099               0.001027577              -0.000774407               0.000172338               0.000285076               0.000457414               0.000000000               0.000000000               0.000000000               0.000000000               0.000601816               0.001282868              -0.000741470               0.000065321               0.000405844               0.000471165               0.000000000               0.000000000               0.000000000               0.000000000               0.000395478               0.001642111              -0.000656964              -0.000056960               0.000566351               0.000509391               0.000000000               0.000000000               0.000000000               0.000000000               0.000308197               0.001828426              -0.000550720              -0.000112979               0.000647129               0.000534149               0.000000000               0.000000000               0.000000000               0.000000000               0.000261558               0.001937161              -0.000461514              -0.000144061               0.000693734               0.000549673               0.000000000               0.000000000               0.000000000               0.000000000               0.000235941               0.002004160              -0.000387455              -0.000162042               0.000722061               0.000560019               0.000000000               0.000000000               0.000000000               0.000000000               0.000218588               0.002052725              -0.000321335              -0.000174620               0.000742441               0.000567822               0.000000000               0.000000000               0.000000000               0.000000000               0.000205447               0.002100489              -0.000263232              -0.000185518               0.000761996               0.000576477               0.000000000               0.000000000               0.000000000               0.000000000               0.000191917               0.002150706              -0.000213347              -0.000196869               0.000782518               0.000585649               0.000000000               0.000000000               0.000000000               0.000000000               0.000173225               0.002200539              -0.000172203              -0.000210107               0.000803542               0.000593434               0.000000000               0.000000000               0.000000000               0.000000000               0.000150777               0.002248418              -0.000143965              -0.000224510               0.000824302               0.000599791               0.000000000               0.000000000               0.000000000               0.000000000               0.000133335               0.002289656              -0.000119785              -0.000236206               0.000841946               0.000605741               0.000000000               0.000000000               0.000000000               0.000000000               0.000125856               0.002333717              -0.000092581              -0.000244518               0.000859404               0.000614886               0.000000000               0.000000000               0.000000000               0.000000000               0.000121032               0.002387670              -0.000063020              -0.000253071               0.000880239               0.000627168               0.000000000               0.000000000               0.000000000               0.000000000               0.000114536               0.002457121              -0.000033749              -0.000264188               0.000907095               0.000642906               0.000000000               0.000000000               0.000000000               0.000000000               0.000109594               0.002545564              -0.000011369              -0.000277097               0.000940879               0.000663781               0.000000000               0.000000000               0.000000000               0.000000000               0.000097300               0.002585835               0.000000872              -0.000286741               0.000957517               0.000670776               0.000000000               0.000000000               0.000000000               0.000000000               0.000712258               0.000721266              -0.000622590               0.000176936               0.000181440               0.000358377               0.000000000               0.000000000               0.000000000               0.000000000               0.000607238               0.001000356              -0.000666446               0.000102668               0.000299226               0.000401894               0.000000000               0.000000000               0.000000000               0.000000000               0.000458630               0.001379868              -0.000658242              -0.000000498               0.000460117               0.000459619               0.000000000               0.000000000               0.000000000               0.000000000               0.000381465               0.001611869              -0.000581509              -0.000058435               0.000556762               0.000498327               0.000000000               0.000000000               0.000000000               0.000000000               0.000326809               0.001758463              -0.000502031              -0.000097255               0.000618566               0.000521312               0.000000000               0.000000000               0.000000000               0.000000000               0.000290586               0.001856191              -0.000429863              -0.000123054               0.000659742               0.000536688               0.000000000               0.000000000               0.000000000               0.000000000               0.000266716               0.001927828              -0.000364447              -0.000140960               0.000689589               0.000548629               0.000000000               0.000000000               0.000000000               0.000000000               0.000251443               0.001993619              -0.000305250              -0.000154911               0.000716170               0.000561259               0.000000000               0.000000000               0.000000000               0.000000000               0.000235763               0.002060196              -0.000251592              -0.000169113               0.000743096               0.000573983               0.000000000               0.000000000               0.000000000               0.000000000               0.000220153               0.002127400              -0.000207721              -0.000183367               0.000770249               0.000586881               0.000000000               0.000000000               0.000000000               0.000000000               0.000200930               0.002192724              -0.000178007              -0.000198741               0.000797148               0.000598406               0.000000000               0.000000000               0.000000000               0.000000000               0.000180052               0.002249604              -0.000155030              -0.000213681               0.000821087               0.000607407               0.000000000               0.000000000               0.000000000               0.000000000               0.000163840               0.002305439              -0.000126181              -0.000226739               0.000844052               0.000617313               0.000000000               0.000000000               0.000000000               0.000000000               0.000153650               0.002369894              -0.000089334              -0.000238617               0.000869496               0.000630878               0.000000000               0.000000000               0.000000000               0.000000000               0.000146645               0.002446592              -0.000052882              -0.000250832               0.000899133               0.000648301               0.000000000               0.000000000               0.000000000               0.000000000               0.000140069               0.002539136              -0.000023367              -0.000264865               0.000934659               0.000669793               0.000000000               0.000000000               0.000000000               0.000000000               0.000125625               0.002581334              -0.000006165              -0.000275557               0.000952288               0.000676731               0.000000000               0.000000000               0.000000000               0.000000000               0.000595729               0.000470419              -0.000466993               0.000164594               0.000101939               0.000266534               0.000000000               0.000000000               0.000000000               0.000000000               0.000598513               0.000742883              -0.000561604               0.000131580               0.000203765               0.000335345               0.000000000               0.000000000               0.000000000               0.000000000               0.000525816               0.001112124              -0.000612015               0.000058164               0.000351316               0.000409480               0.000000000               0.000000000               0.000000000               0.000000000               0.000466897               0.001369849              -0.000567031               0.000003854               0.000455327               0.000459181               0.000000000               0.000000000               0.000000000               0.000000000               0.000413109               0.001550087              -0.000504014              -0.000038845               0.000529639               0.000490794               0.000000000               0.000000000               0.000000000               0.000000000               0.000365414               0.001679874              -0.000441191              -0.000072954               0.000584270               0.000511316               0.000000000               0.000000000               0.000000000               0.000000000               0.000330875               0.001779432              -0.000381495              -0.000098351               0.000625922               0.000527571               0.000000000               0.000000000               0.000000000               0.000000000               0.000304808               0.001866105              -0.000325222              -0.000118960               0.000661682               0.000542722               0.000000000               0.000000000               0.000000000               0.000000000               0.000284886               0.001951554              -0.000273916              -0.000137112               0.000696215               0.000559104               0.000000000               0.000000000               0.000000000               0.000000000               0.000268551               0.002037320              -0.000231259              -0.000153958               0.000730419               0.000576461               0.000000000               0.000000000               0.000000000               0.000000000               0.000253236               0.002123096              -0.000200862              -0.000170423               0.000764499               0.000594076               0.000000000               0.000000000               0.000000000               0.000000000               0.000232201               0.002200870              -0.000177152              -0.000188033               0.000796294               0.000608261               0.000000000               0.000000000               0.000000000               0.000000000               0.000211720               0.002269046              -0.000150145              -0.000204235               0.000824419               0.000620184               0.000000000               0.000000000               0.000000000               0.000000000               0.000198071               0.002339414              -0.000115657              -0.000218150               0.000852514               0.000634364               0.000000000               0.000000000               0.000000000               0.000000000               0.000191574               0.002427226              -0.000075056              -0.000231562               0.000886255               0.000654692               0.000000000               0.000000000               0.000000000               0.000000000               0.000183037               0.002530375              -0.000034943              -0.000247657               0.000926002               0.000678345               0.000000000               0.000000000               0.000000000               0.000000000               0.000166017               0.002576755              -0.000012808              -0.000259837               0.000945522               0.000685685               0.000000000               0.000000000               0.000000000               0.000000000               0.000465758               0.000281130              -0.000323053               0.000139517               0.000047203               0.000186720               0.000000000               0.000000000               0.000000000               0.000000000               0.000575773               0.000527378              -0.000435738               0.000149991               0.000125794               0.000275784               0.000000000               0.000000000               0.000000000               0.000000000               0.000587160               0.000863000              -0.000515002               0.000112309               0.000250227               0.000362536               0.000000000               0.000000000               0.000000000               0.000000000               0.000553371               0.001129010              -0.000498198               0.000066387               0.000354204               0.000420591               0.000000000               0.000000000               0.000000000               0.000000000               0.000505726               0.001335427              -0.000454418               0.000022718               0.000437565               0.000460283               0.000000000               0.000000000               0.000000000               0.000000000               0.000453458               0.001493037              -0.000405963              -0.000016583               0.000503202               0.000486619               0.000000000               0.000000000               0.000000000               0.000000000               0.000406582               0.001620571              -0.000356587              -0.000050103               0.000556886               0.000506782               0.000000000               0.000000000               0.000000000               0.000000000               0.000369825               0.001733280              -0.000307947              -0.000077976               0.000603746               0.000525770               0.000000000               0.000000000               0.000000000               0.000000000               0.000339409               0.001833992              -0.000264385              -0.000101970               0.000645315               0.000543344               0.000000000               0.000000000               0.000000000               0.000000000               0.000317967               0.001933296              -0.000229304              -0.000122424               0.000685234               0.000562810               0.000000000               0.000000000               0.000000000               0.000000000               0.000304565               0.002036482              -0.000201277              -0.000140348               0.000725603               0.000585255               0.000000000               0.000000000               0.000000000               0.000000000               0.000289193               0.002136097              -0.000177777              -0.000158564               0.000764880               0.000606315               0.000000000               0.000000000               0.000000000               0.000000000               0.000271032               0.002223621              -0.000155508              -0.000176315               0.000799971               0.000623656               0.000000000               0.000000000               0.000000000               0.000000000               0.000256246               0.002306857              -0.000125781              -0.000192264               0.000833033               0.000640768               0.000000000               0.000000000               0.000000000               0.000000000               0.000248322               0.002403988              -0.000086006              -0.000207377               0.000870447               0.000663070               0.000000000               0.000000000               0.000000000               0.000000000               0.000246439               0.002518081              -0.000042640              -0.000222345               0.000913467               0.000691122               0.000000000               0.000000000               0.000000000               0.000000000               0.000236239               0.002572745              -0.000018862              -0.000233003               0.000935241               0.000702238               0.000000000               0.000000000               0.000000000               0.000000000               0.000348638               0.000155140              -0.000197653               0.000111346               0.000014598               0.000125943               0.000000000               0.000000000               0.000000000               0.000000000               0.000546613               0.000364675              -0.000295848               0.000159394               0.000068426               0.000227819               0.000000000               0.000000000               0.000000000               0.000000000               0.000636153               0.000659506              -0.000372839               0.000156117               0.000167794               0.000323911               0.000000000               0.000000000               0.000000000               0.000000000               0.000631478               0.000924120              -0.000372985               0.000121288               0.000267607               0.000388895               0.000000000               0.000000000               0.000000000               0.000000000               0.000589892               0.001143154              -0.000347517               0.000078314               0.000354943               0.000433257               0.000000000               0.000000000               0.000000000               0.000000000               0.000536219               0.001321504              -0.000314868               0.000035893               0.000428532               0.000464426               0.000000000               0.000000000               0.000000000               0.000000000               0.000482374               0.001472878              -0.000280041              -0.000003220               0.000492028               0.000488808               0.000000000               0.000000000               0.000000000               0.000000000               0.000437788               0.001606315              -0.000243280              -0.000036619               0.000547639               0.000511020               0.000000000               0.000000000               0.000000000               0.000000000               0.000399853               0.001723206              -0.000210560              -0.000065456               0.000596215               0.000530759               0.000000000               0.000000000               0.000000000               0.000000000               0.000370247               0.001833196              -0.000187812              -0.000090307               0.000641162               0.000550855               0.000000000               0.000000000               0.000000000               0.000000000               0.000351563               0.001944812              -0.000168866              -0.000111265               0.000685353               0.000574087               0.000000000               0.000000000               0.000000000               0.000000000               0.000341130               0.002060361              -0.000148842              -0.000129621               0.000729987               0.000600366               0.000000000               0.000000000               0.000000000               0.000000000               0.000324943               0.002171467              -0.000128290              -0.000149579               0.000773675               0.000624096               0.000000000               0.000000000               0.000000000               0.000000000               0.000310428               0.002277830              -0.000106035              -0.000168318               0.000815375               0.000647057               0.000000000               0.000000000               0.000000000               0.000000000               0.000312455               0.002387399              -0.000077286              -0.000181254               0.000856210               0.000674956               0.000000000               0.000000000               0.000000000               0.000000000               0.000326778               0.002509464              -0.000040944              -0.000191141               0.000900193               0.000709052               0.000000000               0.000000000               0.000000000               0.000000000               0.000330859               0.002572134              -0.000020017              -0.000197444               0.000923184               0.000725740               0.000000000               0.000000000               0.000000000               0.000000000               0.000269291               0.000086207              -0.000093472               0.000090208              -0.000001334               0.000088874               0.000000000               0.000000000               0.000000000               0.000000000               0.000523815               0.000264882              -0.000149589               0.000163319               0.000033854               0.000197172               0.000000000               0.000000000               0.000000000               0.000000000               0.000668548               0.000526903              -0.000196171               0.000184841               0.000114019               0.000298860               0.000000000               0.000000000               0.000000000               0.000000000               0.000685134               0.000784134              -0.000200097               0.000158907               0.000208406               0.000367313               0.000000000               0.000000000               0.000000000               0.000000000               0.000651237               0.001009009              -0.000188649               0.000118086               0.000296971               0.000415057               0.000000000               0.000000000               0.000000000               0.000000000               0.000596732               0.001199117              -0.000172797               0.000073884               0.000375074               0.000448958               0.000000000               0.000000000               0.000000000               0.000000000               0.000539296               0.001363947              -0.000155242               0.000031742               0.000444064               0.000475806               0.000000000               0.000000000               0.000000000               0.000000000               0.000488473               0.001511011              -0.000135664              -0.000005699               0.000505565               0.000499866               0.000000000               0.000000000               0.000000000               0.000000000               0.000449152               0.001643100              -0.000116888              -0.000036955               0.000560013               0.000523058               0.000000000               0.000000000               0.000000000               0.000000000               0.000415969               0.001762621              -0.000105363              -0.000064339               0.000608981               0.000544642               0.000000000               0.000000000               0.000000000               0.000000000               0.000388027               0.001878578              -0.000099397              -0.000089312               0.000655957               0.000566645               0.000000000               0.000000000               0.000000000               0.000000000               0.000369231               0.002000593              -0.000086947              -0.000111612               0.000704062               0.000592450               0.000000000               0.000000000               0.000000000               0.000000000               0.000359331               0.002127159              -0.000069302              -0.000131145               0.000752761               0.000621616               0.000000000               0.000000000               0.000000000               0.000000000               0.000358312               0.002255640              -0.000060306              -0.000147588               0.000801068               0.000653481               0.000000000               0.000000000               0.000000000               0.000000000               0.000370704               0.002383563              -0.000048893              -0.000158931               0.000847490               0.000688559               0.000000000               0.000000000               0.000000000               0.000000000               0.000399816               0.002513649              -0.000025180              -0.000164275               0.000892633               0.000728358               0.000000000               0.000000000               0.000000000               0.000000000               0.000420918               0.002580128              -0.000011290              -0.000164671               0.000914924               0.000750253               0.000000000               0.000000000               0.000000000               0.000000000               0.000000000               0.000000000               0.000000000               0.000000000               0.000000000               0.000000000               0.000000000               0.000000000               0.000000000               0.000000000               0.000000000               0.000000000               0.000000000               0.000000000               0.000000000               0.000000000               0.000000000               0.000000000               0.000000000               0.000000000               0.000000000               0.000000000               0.000000000               0.000000000               0.000000000               0.000000000               0.000000000               0.000000000               0.000000000               0.000000000               0.000000000               0.000000000               0.000000000               0.000000000               0.000000000               0.000000000               0.000000000               0.000000000               0.000000000               0.000000000               0.000000000               0.000000000               0.000000000               0.000000000               0.000000000               0.000000000               0.000000000               0.000000000               0.000000000               0.000000000               0.000000000               0.000000000               0.000000000               0.000000000               0.000000000               0.000000000               0.000000000               0.000000000               0.000000000               0.000000000               0.000000000               0.000000000               0.000000000               0.000000000               0.000000000               0.000000000               0.000000000               0.000000000               0.000000000               0.000000000               0.000000000               0.000000000               0.000000000               0.000000000               0.000000000               0.000000000               0.000000000               0.000000000               0.000000000               0.000000000               0.000000000               0.000000000               0.000000000               0.000000000               0.000000000               0.000000000               0.000000000               0.000000000               0.000000000               0.000000000               0.000000000               0.000000000               0.000000000               0.000000000               0.000000000               0.000000000               0.000000000               0.000000000               0.000000000               0.000000000               0.000000000               0.000000000               0.000000000               0.000000000               0.000000000               0.000000000               0.000000000               0.000000000               0.000000000               0.000000000               0.000000000               0.000000000               0.000000000               0.000000000               0.000000000               0.000000000               0.000000000               0.000000000               0.000000000               0.000000000               0.000000000               0.000000000               0.000000000               0.000000000               0.000000000               0.000000000               0.000000000               0.000000000               0.000000000               0.000000000               0.000000000               0.000000000               0.000000000               0.000000000               0.000000000               0.000000000               0.000000000               0.000000000               0.000000000               0.000000000               0.000000000               0.000000000               0.000000000               0.000000000               0.000000000               0.000000000               0.000000000               0.000000000               0.000000000               0.000000000               0.000000000               0.000000000               0.000000000               0.000000000               0.000000000               0.000000000               0.000000000               0.000000000               0.000000000               0.000000000               0.000000000               0.000000000               0.000000000               0.000000000               0.000000000               0.000000000               0.000000000               0.000000000               0.000000000               0.000000000               0.000000000               0.000000000               0.000000000               0.000000000               0.000000000               0.000000000               0.000000000               0.000000000               0.000000000               0.000000000               0.000000000               0.000000000               0.000000000               0.000000000               0.000000000               0.000000000               0.000000000               0.000000000               0.000000000               0.000000000               0.000000000               0.000000000               0.000000000               0.000000000               0.000000000               0.000000000               0.000000000               0.000000000               0.000000000               0.000000000               0.000000000               0.000000000               0.000000000               0.000000000               0.000000000               0.000000000               0.000000000               0.000000000               0.000000000               0.000000000               0.000000000               0.000000000               0.000000000               0.000000000               0.000000000               0.000000000               0.000000000               0.000000000               0.000000000               0.000000000               0.000000000               0.000000000               0.000000000               0.000000000               0.000000000               0.000000000               0.000000000               0.000000000               0.000000000               0.000000000               0.000000000               0.000000000               0.000000000               0.000000000               0.000000000               0.000000000               0.000000000               0.000000000               0.000000000               0.000000000               0.000000000               0.000000000               0.000000000               0.000000000               0.000000000               0.000000000               0.000000000               0.000000000               0.000000000               0.000000000               0.000000000               0.000000000               0.000000000               0.000000000               0.000000000               0.000000000               0.000000000               0.000000000               0.000000000               0.000000000               0.000000000               0.000000000               0.000000000               0.000000000               0.000000000               0.000000000               0.000000000               0.000000000               0.000000000               0.000000000               0.000000000               0.000000000               0.000000000               0.000000000               0.000000000               0.000000000               0.000000000               0.000000000               0.000000000               0.000000000               0.000000000               0.000000000               0.000000000               0.000000000               0.000000000               0.000000000               0.000000000               0.000000000               0.000000000               0.000000000               0.000000000               0.000000000               0.000000000               0.000000000               0.000000000               0.000000000               0.000000000               0.000000000               0.000000000               0.000000000               0.000000000               0.000000000               0.000000000               0.000000000               0.000000000               0.000000000               0.000000000               0.000000000               0.000000000               0.000000000               0.000000000               0.000000000               0.000000000               0.000000000               0.000000000               0.000000000               0.000000000               0.000000000               0.000000000               0.000000000               0.000000000               0.000000000               0.000000000               0.000000000               0.000000000               0.000000000               0.000000000               0.000000000               0.000000000               0.000000000               0.000000000               0.000000000               0.000000000               0.000000000               0.000000000               0.000000000               0.000000000               0.000000000               0.000000000               0.000000000               0.000397073               0.004199231               0.000333939              -0.000376001               0.001525063               0.001149063               0.000000000               0.000000000               0.000000000               0.000000000               0.000434607               0.003512931               0.000223303              -0.000276138               0.001263011               0.000986873               0.000000000               0.000000000               0.000000000               0.000000000               0.000596608               0.002963977               0.000107559              -0.000146769               0.001036905               0.000890137               0.000000000               0.000000000               0.000000000               0.000000000               0.000627717               0.002662042               0.000051555              -0.000097361               0.000919792               0.000822431               0.000000000               0.000000000               0.000000000               0.000000000               0.000607988               0.002488020               0.000023513              -0.000083007               0.000857001               0.000773994               0.000000000               0.000000000               0.000000000               0.000000000               0.000563780               0.002385911               0.000009768              -0.000086821               0.000824236               0.000737415               0.000000000               0.000000000               0.000000000               0.000000000               0.000508060               0.002325796               0.000002564              -0.000100202               0.000808658               0.000708456               0.000000000               0.000000000               0.000000000               0.000000000               0.000449397               0.002292051               0.000000066              -0.000117982               0.000803337               0.000685355               0.000000000               0.000000000               0.000000000               0.000000000               0.000387859               0.002275891              -0.000000055              -0.000139039               0.000804969               0.000665930               0.000000000               0.000000000               0.000000000               0.000000000               0.000326414               0.002269898               0.000000530              -0.000161332               0.000810402               0.000649071               0.000000000               0.000000000               0.000000000               0.000000000               0.000267637               0.002272531               0.000000536              -0.000183702               0.000818737               0.000635035               0.000000000               0.000000000               0.000000000               0.000000000               0.000212022               0.002282665               0.000000059              -0.000205824               0.000829489               0.000623664               0.000000000               0.000000000               0.000000000               0.000000000               0.000160382               0.002301913              -0.000002700              -0.000227595               0.000843162               0.000615567               0.000000000               0.000000000               0.000000000               0.000000000               0.000111940               0.002328479              -0.000005335              -0.000249082               0.000859179               0.000610097               0.000000000               0.000000000               0.000000000               0.000000000               0.000068564               0.002357630              -0.000002606              -0.000268992               0.000875533               0.000606541               0.000000000               0.000000000               0.000000000               0.000000000               0.000031309               0.002385775              -0.000000345              -0.000286480               0.000890744               0.000604264               0.000000000               0.000000000               0.000000000               0.000000000               0.000017321               0.002407713               0.000000242              -0.000294468               0.000900719               0.000606251               0.000000000               0.000000000               0.000000000               0.000000000               0.000471982               0.004013071               0.000633865              -0.000324640               0.001445890               0.001121250               0.000000000               0.000000000               0.000000000               0.000000000               0.000465252               0.003378473               0.000424686              -0.000247839               0.001208759               0.000960920               0.000000000               0.000000000               0.000000000               0.000000000               0.000579358               0.002888620               0.000206680              -0.000143818               0.001010803               0.000866985               0.000000000               0.000000000               0.000000000               0.000000000               0.000587873               0.002620414               0.000103184              -0.000107099               0.000909162               0.000802063               0.000000000               0.000000000               0.000000000               0.000000000               0.000557856               0.002465107               0.000052094              -0.000098942               0.000854675               0.000755733               0.000000000               0.000000000               0.000000000               0.000000000               0.000512146               0.002373183               0.000026588              -0.000104593               0.000825917               0.000721324               0.000000000               0.000000000               0.000000000               0.000000000               0.000459082               0.002319024               0.000014480              -0.000117722               0.000812241               0.000694519               0.000000000               0.000000000               0.000000000               0.000000000               0.000404604               0.002289017               0.000009140              -0.000134400               0.000807798               0.000673398               0.000000000               0.000000000               0.000000000               0.000000000               0.000348842               0.002273815               0.000007880              -0.000153411               0.000809068               0.000655657               0.000000000               0.000000000               0.000000000               0.000000000               0.000293149               0.002268105               0.000008772              -0.000173582               0.000813888               0.000640306               0.000000000               0.000000000               0.000000000               0.000000000               0.000238381               0.002271244               0.000008928              -0.000194512               0.000821911               0.000627399               0.000000000               0.000000000               0.000000000               0.000000000               0.000187456               0.002282968               0.000006680              -0.000215074               0.000832673               0.000617599               0.000000000               0.000000000               0.000000000               0.000000000               0.000141150               0.002301901               0.000000995              -0.000234806               0.000845561               0.000610756               0.000000000               0.000000000               0.000000000               0.000000000               0.000096707               0.002323915              -0.000002252              -0.000254223               0.000859372               0.000605148               0.000000000               0.000000000               0.000000000               0.000000000               0.000058621               0.002346369               0.000002572              -0.000271312               0.000872553               0.000601240               0.000000000               0.000000000               0.000000000               0.000000000               0.000027591               0.002368270               0.000005403              -0.000285686               0.000884644               0.000598958               0.000000000               0.000000000               0.000000000               0.000000000               0.000016102               0.002386020               0.000005051              -0.000292214               0.000892737               0.000600523               0.000000000               0.000000000               0.000000000               0.000000000               0.000573662               0.003720103               0.000875739              -0.000249890               0.001323318               0.001073429               0.000000000               0.000000000               0.000000000               0.000000000               0.000501907               0.003167584               0.000587857              -0.000207733               0.001125095               0.000917362               0.000000000               0.000000000               0.000000000               0.000000000               0.000546269               0.002771899               0.000290831              -0.000141636               0.000971169               0.000829533               0.000000000               0.000000000               0.000000000               0.000000000               0.000525294               0.002555365               0.000154911              -0.000122435               0.000892591               0.000770156               0.000000000               0.000000000               0.000000000               0.000000000               0.000486205               0.002429932               0.000089495              -0.000121414               0.000850441               0.000729026               0.000000000               0.000000000               0.000000000               0.000000000               0.000441448               0.002354122               0.000056568              -0.000128722               0.000827607               0.000698885               0.000000000               0.000000000               0.000000000               0.000000000               0.000393721               0.002309295               0.000039859              -0.000141016               0.000816763               0.000675746               0.000000000               0.000000000               0.000000000               0.000000000               0.000346927               0.002283953               0.000032110              -0.000155396               0.000813109               0.000657713               0.000000000               0.000000000               0.000000000               0.000000000               0.000298953               0.002269031               0.000029172              -0.000171521               0.000813510               0.000641989               0.000000000               0.000000000               0.000000000               0.000000000               0.000249717               0.002263773               0.000027414              -0.000189327               0.000817693               0.000628365               0.000000000               0.000000000               0.000000000               0.000000000               0.000201710               0.002268016               0.000023770              -0.000207860               0.000825285               0.000617424               0.000000000               0.000000000               0.000000000               0.000000000               0.000155021               0.002279817               0.000018614              -0.000226844               0.000835546               0.000608702               0.000000000               0.000000000               0.000000000               0.000000000               0.000113715               0.002296001               0.000011753              -0.000244356               0.000846778               0.000602422               0.000000000               0.000000000               0.000000000               0.000000000               0.000079952               0.002312331               0.000007811              -0.000259059               0.000857122               0.000598064               0.000000000               0.000000000               0.000000000               0.000000000               0.000051615               0.002327008               0.000012577              -0.000271519               0.000866168               0.000594648               0.000000000               0.000000000               0.000000000               0.000000000               0.000025982               0.002341241               0.000013681              -0.000282911               0.000874710               0.000591798               0.000000000               0.000000000               0.000000000               0.000000000               0.000015596               0.002352800               0.000011819              -0.000288251               0.000880342               0.000592091               0.000000000               0.000000000               0.000000000               0.000000000               0.000680876               0.003350122               0.001044374              -0.000163437               0.001171175               0.001007738               0.000000000               0.000000000               0.000000000               0.000000000               0.000535366               0.002910695               0.000705183              -0.000163075               0.001024580               0.000861505               0.000000000               0.000000000               0.000000000               0.000000000               0.000501314               0.002637753               0.000360560              -0.000141726               0.000926484               0.000784758               0.000000000               0.000000000               0.000000000               0.000000000               0.000452604               0.002482842               0.000208513              -0.000140628               0.000874482               0.000733853               0.000000000               0.000000000               0.000000000               0.000000000               0.000407131               0.002388885               0.000135877              -0.000145936               0.000844932               0.000698996               0.000000000               0.000000000               0.000000000               0.000000000               0.000365077               0.002329993               0.000098836              -0.000154345               0.000828105               0.000673760               0.000000000               0.000000000               0.000000000               0.000000000               0.000326432               0.002294183               0.000078296              -0.000164361               0.000819507               0.000655146               0.000000000               0.000000000               0.000000000               0.000000000               0.000288830               0.002270239               0.000065970              -0.000175468               0.000815228               0.000639760               0.000000000               0.000000000               0.000000000               0.000000000               0.000248860               0.002257463               0.000058454              -0.000188860               0.000815433               0.000626573               0.000000000               0.000000000               0.000000000               0.000000000               0.000208070               0.002253791               0.000050856              -0.000203697               0.000819155               0.000615458               0.000000000               0.000000000               0.000000000               0.000000000               0.000167423               0.002260876               0.000041641              -0.000219825               0.000826893               0.000607068               0.000000000               0.000000000               0.000000000               0.000000000               0.000126631               0.002273330               0.000031267              -0.000236679               0.000836662               0.000599983               0.000000000               0.000000000               0.000000000               0.000000000               0.000092965               0.002288587               0.000022649              -0.000251211               0.000846592               0.000595381               0.000000000               0.000000000               0.000000000               0.000000000               0.000068505               0.002298369               0.000018361              -0.000261606               0.000853318               0.000591711               0.000000000               0.000000000               0.000000000               0.000000000               0.000047876               0.002306498               0.000020310              -0.000270358               0.000858944               0.000588586               0.000000000               0.000000000               0.000000000               0.000000000               0.000024834               0.002314170               0.000018735              -0.000279958               0.000864702               0.000584744               0.000000000               0.000000000               0.000000000               0.000000000               0.000014097               0.002320227               0.000015477              -0.000284741               0.000868315               0.000583574               0.000000000               0.000000000               0.000000000               0.000000000               0.000772924               0.002941351               0.001133345              -0.000077823               0.001006381               0.000928558               0.000000000               0.000000000               0.000000000               0.000000000               0.000558026               0.002638260               0.000778078              -0.000120523               0.000919585               0.000799062               0.000000000               0.000000000               0.000000000               0.000000000               0.000448793               0.002499112               0.000419453              -0.000144091               0.000881060               0.000736968               0.000000000               0.000000000               0.000000000               0.000000000               0.000378475               0.002403857               0.000264194              -0.000158554               0.000854129               0.000695575               0.000000000               0.000000000               0.000000000               0.000000000               0.000329879               0.002338131               0.000189429              -0.000168561               0.000835556               0.000666995               0.000000000               0.000000000               0.000000000               0.000000000               0.000295221               0.002296050               0.000147652              -0.000176298               0.000824108               0.000647810               0.000000000               0.000000000               0.000000000               0.000000000               0.000266719               0.002268682               0.000120781              -0.000183565               0.000817408               0.000633843               0.000000000               0.000000000               0.000000000               0.000000000               0.000238664               0.002251293               0.000102295              -0.000191912               0.000814394               0.000622482               0.000000000               0.000000000               0.000000000               0.000000000               0.000207061               0.002243700               0.000087320              -0.000202814               0.000815497               0.000612683               0.000000000               0.000000000               0.000000000               0.000000000               0.000173086               0.002246848               0.000071995              -0.000215948               0.000820925               0.000604976               0.000000000               0.000000000               0.000000000               0.000000000               0.000140062               0.002258337               0.000054081              -0.000229768               0.000829361               0.000599593               0.000000000               0.000000000               0.000000000               0.000000000               0.000107678               0.002274515               0.000037854              -0.000243935               0.000839476               0.000595541               0.000000000               0.000000000               0.000000000               0.000000000               0.000081465               0.002286759               0.000029422              -0.000255295               0.000847344               0.000592049               0.000000000               0.000000000               0.000000000               0.000000000               0.000062992               0.002290874               0.000025507              -0.000262737               0.000851196               0.000588459               0.000000000               0.000000000               0.000000000               0.000000000               0.000044732               0.002292183               0.000022400              -0.000269748               0.000853969               0.000584222               0.000000000               0.000000000               0.000000000               0.000000000               0.000024229               0.002295698               0.000017119              -0.000277876               0.000857850               0.000579975               0.000000000               0.000000000               0.000000000               0.000000000               0.000015438               0.002301025               0.000013467              -0.000281838               0.000860947               0.000579109               0.000000000               0.000000000               0.000000000               0.000000000               0.000833466               0.002521633               0.001150776              -0.000002656               0.000841421               0.000838765               0.000000000               0.000000000               0.000000000               0.000000000               0.000565797               0.002363342               0.000813355              -0.000083245               0.000815521               0.000732276               0.000000000               0.000000000               0.000000000               0.000000000               0.000393938               0.002355833               0.000468930              -0.000146752               0.000834187               0.000687435               0.000000000               0.000000000               0.000000000               0.000000000               0.000311019               0.002316472               0.000319193              -0.000172926               0.000829792               0.000656865               0.000000000               0.000000000               0.000000000               0.000000000               0.000265205               0.002280762               0.000242321              -0.000185643               0.000822127               0.000636484               0.000000000               0.000000000               0.000000000               0.000000000               0.000240025               0.002258333               0.000194224              -0.000192282               0.000816864               0.000624582               0.000000000               0.000000000               0.000000000               0.000000000               0.000220546               0.002242451               0.000160253              -0.000197601               0.000813343               0.000615742               0.000000000               0.000000000               0.000000000               0.000000000               0.000200755               0.002237409               0.000134389              -0.000204392               0.000813926               0.000609534               0.000000000               0.000000000               0.000000000               0.000000000               0.000177894               0.002241693               0.000110119              -0.000213501               0.000818391               0.000604890               0.000000000               0.000000000               0.000000000               0.000000000               0.000150217               0.002253671               0.000085837              -0.000225377               0.000826342               0.000600965               0.000000000               0.000000000               0.000000000               0.000000000               0.000122387               0.002268222               0.000060338              -0.000237632               0.000835277               0.000597645               0.000000000               0.000000000               0.000000000               0.000000000               0.000097109               0.002281249               0.000039624              -0.000248740               0.000843322               0.000594582               0.000000000               0.000000000               0.000000000               0.000000000               0.000076114               0.002285989               0.000031444              -0.000257205               0.000847724               0.000590519               0.000000000               0.000000000               0.000000000               0.000000000               0.000059968               0.002288083               0.000027967              -0.000263522               0.000850527               0.000587006               0.000000000               0.000000000               0.000000000               0.000000000               0.000042457               0.002292925               0.000022375              -0.000270694               0.000854532               0.000583838               0.000000000               0.000000000               0.000000000               0.000000000               0.000021764               0.002304398               0.000014566              -0.000279888               0.000861421               0.000581533               0.000000000               0.000000000               0.000000000               0.000000000               0.000014712               0.002317670               0.000011681              -0.000284191               0.000867279               0.000583088               0.000000000               0.000000000               0.000000000               0.000000000               0.000862340               0.002110922               0.001106467               0.000059510               0.000683796               0.000743307               0.000000000               0.000000000               0.000000000               0.000000000               0.000560296               0.002097900               0.000815909              -0.000052127               0.000716668               0.000664541               0.000000000               0.000000000               0.000000000               0.000000000               0.000346576               0.002213508               0.000511703              -0.000146723               0.000786736               0.000640013               0.000000000               0.000000000               0.000000000               0.000000000               0.000262239               0.002226684               0.000370085              -0.000179996               0.000802219               0.000622224               0.000000000               0.000000000               0.000000000               0.000000000               0.000222541               0.002223154               0.000288915              -0.000194441               0.000805858               0.000611417               0.000000000               0.000000000               0.000000000               0.000000000               0.000204175               0.002220004               0.000233965              -0.000200934               0.000806972               0.000606038               0.000000000               0.000000000               0.000000000               0.000000000               0.000190183               0.002220981               0.000191571              -0.000206303               0.000809087               0.000602784               0.000000000               0.000000000               0.000000000               0.000000000               0.000174827               0.002231375               0.000154997              -0.000213361               0.000814905               0.000601543               0.000000000               0.000000000               0.000000000               0.000000000               0.000156419               0.002248547               0.000121694              -0.000222411               0.000823645               0.000601234               0.000000000               0.000000000               0.000000000               0.000000000               0.000131204               0.002266624               0.000091846              -0.000234126               0.000833576               0.000599450               0.000000000               0.000000000               0.000000000               0.000000000               0.000104369               0.002281433               0.000063995              -0.000246040               0.000842484               0.000596443               0.000000000               0.000000000               0.000000000               0.000000000               0.000085527               0.002289830               0.000042082              -0.000254155               0.000847988               0.000593832               0.000000000               0.000000000               0.000000000               0.000000000               0.000073174               0.002296850               0.000031370              -0.000259665               0.000852164               0.000592499               0.000000000               0.000000000               0.000000000               0.000000000               0.000059653               0.002313314               0.000024966              -0.000266793               0.000860028               0.000593234               0.000000000               0.000000000               0.000000000               0.000000000               0.000040513               0.002341436               0.000017652              -0.000277487               0.000872966               0.000595480               0.000000000               0.000000000               0.000000000               0.000000000               0.000020624               0.002379757               0.000009873              -0.000289735               0.000889823               0.000600088               0.000000000               0.000000000               0.000000000               0.000000000               0.000015173               0.002409696               0.000008767              -0.000295522               0.000901731               0.000606210               0.000000000               0.000000000               0.000000000               0.000000000               0.000872913               0.001740978               0.001018033               0.000109718               0.000543747               0.000653465               0.000000000               0.000000000               0.000000000               0.000000000               0.000562184               0.001856331               0.000802329              -0.000021223               0.000625845               0.000604621               0.000000000               0.000000000               0.000000000               0.000000000               0.000327213               0.002082187               0.000559970              -0.000137569               0.000739911               0.000602343               0.000000000               0.000000000               0.000000000               0.000000000               0.000243906               0.002147864               0.000422960              -0.000177018               0.000774953               0.000597936               0.000000000               0.000000000               0.000000000               0.000000000               0.000208247               0.002175720               0.000336333              -0.000193872               0.000789857               0.000595985               0.000000000               0.000000000               0.000000000               0.000000000               0.000191942               0.002191879               0.000273478              -0.000202006               0.000797954               0.000595948               0.000000000               0.000000000               0.000000000               0.000000000               0.000182269               0.002210636               0.000221560              -0.000207978               0.000806197               0.000598219               0.000000000               0.000000000               0.000000000               0.000000000               0.000169167               0.002233631               0.000174877              -0.000215766               0.000816458               0.000600692               0.000000000               0.000000000               0.000000000               0.000000000               0.000148256               0.002259427               0.000135803              -0.000226832               0.000828745               0.000601914               0.000000000               0.000000000               0.000000000               0.000000000               0.000122763               0.002283644               0.000104006              -0.000239419               0.000841013               0.000601595               0.000000000               0.000000000               0.000000000               0.000000000               0.000100530               0.002303371               0.000076586              -0.000250222               0.000851190               0.000600968               0.000000000               0.000000000               0.000000000               0.000000000               0.000087989               0.002317390               0.000052132              -0.000256677               0.000858015               0.000601337               0.000000000               0.000000000               0.000000000               0.000000000               0.000079692               0.002336243               0.000033597              -0.000262145               0.000866122               0.000603976               0.000000000               0.000000000               0.000000000               0.000000000               0.000069260               0.002372875               0.000021662              -0.000270636               0.000881162               0.000610526               0.000000000               0.000000000               0.000000000               0.000000000               0.000055045               0.002425810               0.000010165              -0.000282584               0.000902790               0.000620206               0.000000000               0.000000000               0.000000000               0.000000000               0.000040629               0.002491730               0.000001359              -0.000296230               0.000929312               0.000633082               0.000000000               0.000000000               0.000000000               0.000000000               0.000032992               0.002530091              -0.000000831              -0.000303889               0.000944651               0.000640763               0.000000000               0.000000000               0.000000000               0.000000000               0.000856735               0.001374186               0.000906971               0.000149500               0.000408224               0.000557724               0.000000000               0.000000000               0.000000000               0.000000000               0.000580738               0.001571666               0.000782511               0.000021317               0.000516777               0.000538095               0.000000000               0.000000000               0.000000000               0.000000000               0.000346280               0.001877955               0.000616367              -0.000104889               0.000660942               0.000556052               0.000000000               0.000000000               0.000000000               0.000000000               0.000259339               0.002005096               0.000488470              -0.000153385               0.000719487               0.000566102               0.000000000               0.000000000               0.000000000               0.000000000               0.000221685               0.002072061               0.000397994              -0.000175876               0.000749305               0.000573430               0.000000000               0.000000000               0.000000000               0.000000000               0.000202125               0.002112216               0.000327677              -0.000188230               0.000766808               0.000578579               0.000000000               0.000000000               0.000000000               0.000000000               0.000189002               0.002143939               0.000267236              -0.000197116               0.000780345               0.000583228               0.000000000               0.000000000               0.000000000               0.000000000               0.000175804               0.002178150               0.000213325              -0.000206342               0.000794823               0.000588482               0.000000000               0.000000000               0.000000000               0.000000000               0.000160481               0.002215998               0.000169091              -0.000216819               0.000810932               0.000594113               0.000000000               0.000000000               0.000000000               0.000000000               0.000136430               0.002251061               0.000133629              -0.000230221               0.000827087               0.000596866               0.000000000               0.000000000               0.000000000               0.000000000               0.000113759               0.002285157               0.000106230              -0.000242984               0.000842706               0.000599722               0.000000000               0.000000000               0.000000000               0.000000000               0.000099975               0.002314257               0.000080626              -0.000251791               0.000855341               0.000603551               0.000000000               0.000000000               0.000000000               0.000000000               0.000095468               0.002348797               0.000056652              -0.000257798               0.000868857               0.000611059               0.000000000               0.000000000               0.000000000               0.000000000               0.000091216               0.002393704               0.000037075              -0.000265006               0.000886229               0.000621223               0.000000000               0.000000000               0.000000000               0.000000000               0.000084445               0.002457553               0.000018321              -0.000275527               0.000911018               0.000635492               0.000000000               0.000000000               0.000000000               0.000000000               0.000077441               0.002545092               0.000004431              -0.000289095               0.000944721               0.000655625               0.000000000               0.000000000               0.000000000               0.000000000               0.000066261               0.002586189              -0.000002575              -0.000298425               0.000961529               0.000663104               0.000000000               0.000000000               0.000000000               0.000000000               0.000802099               0.001027577               0.000774407               0.000172338               0.000285076               0.000457414               0.000000000               0.000000000               0.000000000               0.000000000               0.000601816               0.001282868               0.000741470               0.000065321               0.000405844               0.000471165               0.000000000               0.000000000               0.000000000               0.000000000               0.000395478               0.001642111               0.000656964              -0.000056960               0.000566351               0.000509391               0.000000000               0.000000000               0.000000000               0.000000000               0.000308197               0.001828426               0.000550720              -0.000112979               0.000647129               0.000534149               0.000000000               0.000000000               0.000000000               0.000000000               0.000261558               0.001937161               0.000461514              -0.000144061               0.000693734               0.000549673               0.000000000               0.000000000               0.000000000               0.000000000               0.000235941               0.002004160               0.000387455              -0.000162042               0.000722061               0.000560019               0.000000000               0.000000000               0.000000000               0.000000000               0.000218588               0.002052725               0.000321335              -0.000174620               0.000742441               0.000567822               0.000000000               0.000000000               0.000000000               0.000000000               0.000205447               0.002100489               0.000263232              -0.000185518               0.000761996               0.000576477               0.000000000               0.000000000               0.000000000               0.000000000               0.000191917               0.002150706               0.000213347              -0.000196869               0.000782518               0.000585649               0.000000000               0.000000000               0.000000000               0.000000000               0.000173225               0.002200539               0.000172203              -0.000210107               0.000803542               0.000593434               0.000000000               0.000000000               0.000000000               0.000000000               0.000150777               0.002248418               0.000143965              -0.000224510               0.000824302               0.000599791               0.000000000               0.000000000               0.000000000               0.000000000               0.000133335               0.002289656               0.000119785              -0.000236206               0.000841946               0.000605741               0.000000000               0.000000000               0.000000000               0.000000000               0.000125856               0.002333717               0.000092581              -0.000244518               0.000859404               0.000614886               0.000000000               0.000000000               0.000000000               0.000000000               0.000121032               0.002387670               0.000063020              -0.000253071               0.000880239               0.000627168               0.000000000               0.000000000               0.000000000               0.000000000               0.000114536               0.002457121               0.000033749              -0.000264188               0.000907095               0.000642906               0.000000000               0.000000000               0.000000000               0.000000000               0.000109594               0.002545564               0.000011369              -0.000277097               0.000940879               0.000663781               0.000000000               0.000000000               0.000000000               0.000000000               0.000097300               0.002585835              -0.000000872              -0.000286741               0.000957517               0.000670776               0.000000000               0.000000000               0.000000000               0.000000000               0.000712258               0.000721266               0.000622590               0.000176936               0.000181440               0.000358377               0.000000000               0.000000000               0.000000000               0.000000000               0.000607238               0.001000356               0.000666446               0.000102668               0.000299226               0.000401894               0.000000000               0.000000000               0.000000000               0.000000000               0.000458630               0.001379868               0.000658242              -0.000000498               0.000460117               0.000459619               0.000000000               0.000000000               0.000000000               0.000000000               0.000381465               0.001611869               0.000581509              -0.000058435               0.000556762               0.000498327               0.000000000               0.000000000               0.000000000               0.000000000               0.000326809               0.001758463               0.000502031              -0.000097255               0.000618566               0.000521312               0.000000000               0.000000000               0.000000000               0.000000000               0.000290586               0.001856191               0.000429863              -0.000123054               0.000659742               0.000536688               0.000000000               0.000000000               0.000000000               0.000000000               0.000266716               0.001927828               0.000364447              -0.000140960               0.000689589               0.000548629               0.000000000               0.000000000               0.000000000               0.000000000               0.000251443               0.001993619               0.000305250              -0.000154911               0.000716170               0.000561259               0.000000000               0.000000000               0.000000000               0.000000000               0.000235763               0.002060196               0.000251592              -0.000169113               0.000743096               0.000573983               0.000000000               0.000000000               0.000000000               0.000000000               0.000220153               0.002127400               0.000207721              -0.000183367               0.000770249               0.000586881               0.000000000               0.000000000               0.000000000               0.000000000               0.000200930               0.002192724               0.000178007              -0.000198741               0.000797148               0.000598406               0.000000000               0.000000000               0.000000000               0.000000000               0.000180052               0.002249604               0.000155030              -0.000213681               0.000821087               0.000607407               0.000000000               0.000000000               0.000000000               0.000000000               0.000163840               0.002305439               0.000126181              -0.000226739               0.000844052               0.000617313               0.000000000               0.000000000               0.000000000               0.000000000               0.000153650               0.002369894               0.000089334              -0.000238617               0.000869496               0.000630878               0.000000000               0.000000000               0.000000000               0.000000000               0.000146645               0.002446592               0.000052882              -0.000250832               0.000899133               0.000648301               0.000000000               0.000000000               0.000000000               0.000000000               0.000140069               0.002539136               0.000023367              -0.000264865               0.000934659               0.000669793               0.000000000               0.000000000               0.000000000               0.000000000               0.000125625               0.002581334               0.000006165              -0.000275557               0.000952288               0.000676731               0.000000000               0.000000000               0.000000000               0.000000000               0.000595729               0.000470419               0.000466993               0.000164594               0.000101939               0.000266534               0.000000000               0.000000000               0.000000000               0.000000000               0.000598513               0.000742883               0.000561604               0.000131580               0.000203765               0.000335345               0.000000000               0.000000000               0.000000000               0.000000000               0.000525816               0.001112124               0.000612015               0.000058164               0.000351316               0.000409480               0.000000000               0.000000000               0.000000000               0.000000000               0.000466897               0.001369849               0.000567031               0.000003854               0.000455327               0.000459181               0.000000000               0.000000000               0.000000000               0.000000000               0.000413109               0.001550087               0.000504014              -0.000038845               0.000529639               0.000490794               0.000000000               0.000000000               0.000000000               0.000000000               0.000365414               0.001679874               0.000441191              -0.000072954               0.000584270               0.000511316               0.000000000               0.000000000               0.000000000               0.000000000               0.000330875               0.001779432               0.000381495              -0.000098351               0.000625922               0.000527571               0.000000000               0.000000000               0.000000000               0.000000000               0.000304808               0.001866105               0.000325222              -0.000118960               0.000661682               0.000542722               0.000000000               0.000000000               0.000000000               0.000000000               0.000284886               0.001951554               0.000273916              -0.000137112               0.000696215               0.000559104               0.000000000               0.000000000               0.000000000               0.000000000               0.000268551               0.002037320               0.000231259              -0.000153958               0.000730419               0.000576461               0.000000000               0.000000000               0.000000000               0.000000000               0.000253236               0.002123096               0.000200862              -0.000170423               0.000764499               0.000594076               0.000000000               0.000000000               0.000000000               0.000000000               0.000232201               0.002200870               0.000177152              -0.000188033               0.000796294               0.000608261               0.000000000               0.000000000               0.000000000               0.000000000               0.000211720               0.002269046               0.000150145              -0.000204235               0.000824419               0.000620184               0.000000000               0.000000000               0.000000000               0.000000000               0.000198071               0.002339414               0.000115657              -0.000218150               0.000852514               0.000634364               0.000000000               0.000000000               0.000000000               0.000000000               0.000191574               0.002427226               0.000075056              -0.000231562               0.000886255               0.000654692               0.000000000               0.000000000               0.000000000               0.000000000               0.000183037               0.002530375               0.000034943              -0.000247657               0.000926002               0.000678345               0.000000000               0.000000000               0.000000000               0.000000000               0.000166017               0.002576755               0.000012808              -0.000259837               0.000945522               0.000685685               0.000000000               0.000000000               0.000000000               0.000000000               0.000465758               0.000281130               0.000323053               0.000139517               0.000047203               0.000186720               0.000000000               0.000000000               0.000000000               0.000000000               0.000575773               0.000527378               0.000435738               0.000149991               0.000125794               0.000275784               0.000000000               0.000000000               0.000000000               0.000000000               0.000587160               0.000863000               0.000515002               0.000112309               0.000250227               0.000362536               0.000000000               0.000000000               0.000000000               0.000000000               0.000553371               0.001129010               0.000498198               0.000066387               0.000354204               0.000420591               0.000000000               0.000000000               0.000000000               0.000000000               0.000505726               0.001335427               0.000454418               0.000022718               0.000437565               0.000460283               0.000000000               0.000000000               0.000000000               0.000000000               0.000453458               0.001493037               0.000405963              -0.000016583               0.000503202               0.000486619               0.000000000               0.000000000               0.000000000               0.000000000               0.000406582               0.001620571               0.000356587              -0.000050103               0.000556886               0.000506782               0.000000000               0.000000000               0.000000000               0.000000000               0.000369825               0.001733280               0.000307947              -0.000077976               0.000603746               0.000525770               0.000000000               0.000000000               0.000000000               0.000000000               0.000339409               0.001833992               0.000264385              -0.000101970               0.000645315               0.000543344               0.000000000               0.000000000               0.000000000               0.000000000               0.000317967               0.001933296               0.000229304              -0.000122424               0.000685234               0.000562810               0.000000000               0.000000000               0.000000000               0.000000000               0.000304565               0.002036482               0.000201277              -0.000140348               0.000725603               0.000585255               0.000000000               0.000000000               0.000000000               0.000000000               0.000289193               0.002136097               0.000177777              -0.000158564               0.000764880               0.000606315               0.000000000               0.000000000               0.000000000               0.000000000               0.000271032               0.002223621               0.000155508              -0.000176315               0.000799971               0.000623656               0.000000000               0.000000000               0.000000000               0.000000000               0.000256246               0.002306857               0.000125781              -0.000192264               0.000833033               0.000640768               0.000000000               0.000000000               0.000000000               0.000000000               0.000248322               0.002403988               0.000086006              -0.000207377               0.000870447               0.000663070               0.000000000               0.000000000               0.000000000               0.000000000               0.000246439               0.002518081               0.000042640              -0.000222345               0.000913467               0.000691122               0.000000000               0.000000000               0.000000000               0.000000000               0.000236239               0.002572745               0.000018862              -0.000233003               0.000935241               0.000702238               0.000000000               0.000000000               0.000000000               0.000000000               0.000348638               0.000155140               0.000197653               0.000111346               0.000014598               0.000125943               0.000000000               0.000000000               0.000000000               0.000000000               0.000546613               0.000364675               0.000295848               0.000159394               0.000068426               0.000227819               0.000000000               0.000000000               0.000000000               0.000000000               0.000636153               0.000659506               0.000372839               0.000156117               0.000167794               0.000323911               0.000000000               0.000000000               0.000000000               0.000000000               0.000631478               0.000924120               0.000372985               0.000121288               0.000267607               0.000388895               0.000000000               0.000000000               0.000000000               0.000000000               0.000589892               0.001143154               0.000347517               0.000078314               0.000354943               0.000433257               0.000000000               0.000000000               0.000000000               0.000000000               0.000536219               0.001321504               0.000314868               0.000035893               0.000428532               0.000464426               0.000000000               0.000000000               0.000000000               0.000000000               0.000482374               0.001472878               0.000280041              -0.000003220               0.000492028               0.000488808               0.000000000               0.000000000               0.000000000               0.000000000               0.000437788               0.001606315               0.000243280              -0.000036619               0.000547639               0.000511020               0.000000000               0.000000000               0.000000000               0.000000000               0.000399853               0.001723206               0.000210560              -0.000065456               0.000596215               0.000530759               0.000000000               0.000000000               0.000000000               0.000000000               0.000370247               0.001833196               0.000187812              -0.000090307               0.000641162               0.000550855               0.000000000               0.000000000               0.000000000               0.000000000               0.000351563               0.001944812               0.000168866              -0.000111265               0.000685353               0.000574087               0.000000000               0.000000000               0.000000000               0.000000000               0.000341130               0.002060361               0.000148842              -0.000129621               0.000729987               0.000600366               0.000000000               0.000000000               0.000000000               0.000000000               0.000324943               0.002171467               0.000128290              -0.000149579               0.000773675               0.000624096               0.000000000               0.000000000               0.000000000               0.000000000               0.000310428               0.002277830               0.000106035              -0.000168318               0.000815375               0.000647057               0.000000000               0.000000000               0.000000000               0.000000000               0.000312455               0.002387399               0.000077286              -0.000181254               0.000856210               0.000674956               0.000000000               0.000000000               0.000000000               0.000000000               0.000326778               0.002509464               0.000040944              -0.000191141               0.000900193               0.000709052               0.000000000               0.000000000               0.000000000               0.000000000               0.000330859               0.002572134               0.000020017              -0.000197444               0.000923184               0.000725740               0.000000000               0.000000000               0.000000000               0.000000000               0.000269291               0.000086207               0.000093472               0.000090208              -0.000001334               0.000088874               0.000000000               0.000000000               0.000000000               0.000000000               0.000523815               0.000264882               0.000149589               0.000163319               0.000033854               0.000197172               0.000000000               0.000000000               0.000000000               0.000000000               0.000668548               0.000526903               0.000196171               0.000184841               0.000114019               0.000298860               0.000000000               0.000000000               0.000000000               0.000000000               0.000685134               0.000784134               0.000200097               0.000158907               0.000208406               0.000367313               0.000000000               0.000000000               0.000000000               0.000000000               0.000651237               0.001009009               0.000188649               0.000118086               0.000296971               0.000415057               0.000000000               0.000000000               0.000000000               0.000000000               0.000596732               0.001199117               0.000172797               0.000073884               0.000375074               0.000448958               0.000000000               0.000000000               0.000000000               0.000000000               0.000539296               0.001363947               0.000155242               0.000031742               0.000444064               0.000475806               0.000000000               0.000000000               0.000000000               0.000000000               0.000488473               0.001511011               0.000135664              -0.000005699               0.000505565               0.000499866               0.000000000               0.000000000               0.000000000               0.000000000               0.000449152               0.001643100               0.000116888              -0.000036955               0.000560013               0.000523058               0.000000000               0.000000000               0.000000000               0.000000000               0.000415969               0.001762621               0.000105363              -0.000064339               0.000608981               0.000544642               0.000000000               0.000000000               0.000000000               0.000000000               0.000388027               0.001878578               0.000099397              -0.000089312               0.000655957               0.000566645               0.000000000               0.000000000               0.000000000               0.000000000               0.000369231               0.002000593               0.000086947              -0.000111612               0.000704062               0.000592450               0.000000000               0.000000000               0.000000000               0.000000000               0.000359331               0.002127159               0.000069302              -0.000131145               0.000752761               0.000621616               0.000000000               0.000000000               0.000000000               0.000000000               0.000358312               0.002255640               0.000060306              -0.000147588               0.000801068               0.000653481               0.000000000               0.000000000               0.000000000               0.000000000               0.000370704               0.002383563               0.000048893              -0.000158931               0.000847490               0.000688559               0.000000000               0.000000000               0.000000000               0.000000000               0.000399816               0.002513649               0.000025180              -0.000164275               0.000892633               0.000728358               0.000000000               0.000000000               0.000000000               0.000000000               0.000420918               0.002580128               0.000011290              -0.000164671               0.000914924               0.000750253               0.000000000               0.000000000               0.000000000               0.000000000               0.000000000               0.000000000               0.000000000               0.000000000               0.000000000               0.000000000               0.000000000               0.000000000               0.000000000               0.000000000               0.000000000               0.000000000               0.000000000               0.000000000               0.000000000               0.000000000               0.000000000               0.000000000               0.000000000               0.000000000               0.000000000               0.000000000               0.000000000               0.000000000               0.000000000               0.000000000               0.000000000               0.000000000               0.000000000               0.000000000               0.000000000               0.000000000               0.000000000               0.000000000               0.000000000               0.000000000               0.000000000               0.000000000               0.000000000               0.000000000               0.000000000               0.000000000               0.000000000               0.000000000               0.000000000               0.000000000               0.000000000               0.000000000               0.000000000               0.000000000               0.000000000               0.000000000               0.000000000               0.000000000               0.000000000               0.000000000               0.000000000               0.000000000               0.000000000               0.000000000               0.000000000               0.000000000               0.000000000               0.000000000               0.000000000               0.000000000               0.000000000               0.000000000               0.000000000               0.000000000               0.000000000               0.000000000               0.000000000               0.000000000               0.000000000               0.000000000               0.000000000               0.000000000               0.000000000               0.000000000               0.000000000               0.000000000               0.000000000               0.000000000               0.000000000               0.000000000               0.000000000               0.000000000               0.000000000               0.000000000               0.000000000               0.000000000               0.000000000               0.000000000               0.000000000               0.000000000               0.000000000               0.000000000               0.000000000               0.000000000               0.000000000               0.000000000               0.000000000               0.000000000               0.000000000               0.000000000               0.000000000               0.000000000               0.000000000               0.000000000               0.000000000               0.000000000               0.000000000               0.000000000               0.000000000               0.000000000               0.000000000               0.000000000               0.000000000               0.000000000               0.000000000               0.000000000               0.000000000               0.000000000               0.000000000               0.000000000               0.000000000               0.000000000               0.000000000               0.000000000               0.000000000               0.000000000               0.000000000               0.000000000               0.000000000               0.000000000               0.000000000               0.000000000               0.000000000               0.000000000               0.000000000               0.000000000               0.000000000               0.000000000               0.000000000               0.000000000               0.000000000               0.000000000               0.000000000               0.000000000               0.000000000               0.000000000               0.000000000               0.000000000               0.000000000               0.000000000               0.000000000               0.000000000               0.000000000               0.000000000               0.000000000               0.000000000               0.000000000               0.000000000               0.000000000               0.000000000               0.000000000               0.000000000               0.000000000               0.000000000 </DataArray>
</PointData>
</Piece>
</UnstructuredGrid> </VTKFile>
