<?xml version="1.0"?>
<VTKFile type="UnstructuredGrid" version="0.1">
<UnstructuredGrid>
<Piece NumberOfPoints="      1156" NumberOfCells="      1024">
<Points>
<DataArray type="Float64"                                    Name="coordinates"                                                      NumberOfComponents=" 3" format="ascii">
              0.133000000               0.000000000               0.000000000               0.155937500               0.000000000               0.000000000               0.178875000               0.000000000               0.000000000               0.201812500               0.000000000               0.000000000               0.224750000               0.000000000               0.000000000               0.247687500               0.000000000               0.000000000               0.270625000               0.000000000               0.000000000               0.293562500               0.000000000               0.000000000               0.316500000               0.000000000               0.000000000               0.339437500               0.000000000               0.000000000               0.362375000               0.000000000               0.000000000               0.385312500               0.000000000               0.000000000               0.408250000               0.000000000               0.000000000               0.431187500               0.000000000               0.000000000               0.454125000               0.000000000               0.000000000               0.477062500               0.000000000               0.000000000               0.500000000               0.000000000               0.000000000               0.132359569               0.013036280               0.000000000               0.155337096               0.016127762               0.000000000               0.178314623               0.019219245               0.000000000               0.201292150               0.022310727               0.000000000               0.224269676               0.025402210               0.000000000               0.247247203               0.028493692               0.000000000               0.270224730               0.031585175               0.000000000               0.293202257               0.034676657               0.000000000               0.316179784               0.037768140               0.000000000               0.339157311               0.040859622               0.000000000               0.362134838               0.043951105               0.000000000               0.385112365               0.047042587               0.000000000               0.408089892               0.050134070               0.000000000               0.431067419               0.053225552               0.000000000               0.454044946               0.056317035               0.000000000               0.477022473               0.059408517               0.000000000               0.500000000               0.062500000               0.000000000               0.130444442               0.025947013               0.000000000               0.153541665               0.032137825               0.000000000               0.176638887               0.038328636               0.000000000               0.199736109               0.044519448               0.000000000               0.222833332               0.050710260               0.000000000               0.245930554               0.056901071               0.000000000               0.269027776               0.063091883               0.000000000               0.292124999               0.069282695               0.000000000               0.315222221               0.075473506               0.000000000               0.338319444               0.081664318               0.000000000               0.361416666               0.087855130               0.000000000               0.384513888               0.094045942               0.000000000               0.407611111               0.100236753               0.000000000               0.430708333               0.106427565               0.000000000               0.453805555               0.112618377               0.000000000               0.476902778               0.118809188               0.000000000               0.500000000               0.125000000               0.000000000               0.127273065               0.038607862               0.000000000               0.150568498               0.047913621               0.000000000               0.173863932               0.057219379               0.000000000               0.197159365               0.066525138               0.000000000               0.220454798               0.075830897               0.000000000               0.243750232               0.085136655               0.000000000               0.267045665               0.094442414               0.000000000               0.290341099               0.103748172               0.000000000               0.313636532               0.113053931               0.000000000               0.336931966               0.122359690               0.000000000               0.360227399               0.131665448               0.000000000               0.383522833               0.140971207               0.000000000               0.406818266               0.150276966               0.000000000               0.430113700               0.159582724               0.000000000               0.453409133               0.168888483               0.000000000               0.476704567               0.178194241               0.000000000               0.500000000               0.187500000               0.000000000               0.122875978               0.050896897               0.000000000               0.146446229               0.063340840               0.000000000               0.170016481               0.075784784               0.000000000               0.193586732               0.088228728               0.000000000               0.217156983               0.100672672               0.000000000               0.240727235               0.113116616               0.000000000               0.264297486               0.125560560               0.000000000               0.287867738               0.138004504               0.000000000               0.311437989               0.150448448               0.000000000               0.335008240               0.162892392               0.000000000               0.358578492               0.175336336               0.000000000               0.382148743               0.187780280               0.000000000               0.405718994               0.200224224               0.000000000               0.429289246               0.212668168               0.000000000               0.452859497               0.225112112               0.000000000               0.476429749               0.237556056               0.000000000               0.500000000               0.250000000               0.000000000               0.117295528               0.062695766               0.000000000               0.141214558               0.078308531               0.000000000               0.165133587               0.093921295               0.000000000               0.189052617               0.109534060               0.000000000               0.212971646               0.125146824               0.000000000               0.236890676               0.140759589               0.000000000               0.260809705               0.156372354               0.000000000               0.284728735               0.171985118               0.000000000               0.308647764               0.187597883               0.000000000               0.332566794               0.203210648               0.000000000               0.356485823               0.218823412               0.000000000               0.380404853               0.234436177               0.000000000               0.404323882               0.250048941               0.000000000               0.428242912               0.265661706               0.000000000               0.452161941               0.281274471               0.000000000               0.476080971               0.296887235               0.000000000               0.500000000               0.312500000               0.000000000               0.110585458               0.073890841               0.000000000               0.134923867               0.092710163               0.000000000               0.159262276               0.111529486               0.000000000               0.183600685               0.130348808               0.000000000               0.207939094               0.149168131               0.000000000               0.232277503               0.167987453               0.000000000               0.256615912               0.186806776               0.000000000               0.280954320               0.205626098               0.000000000               0.305292729               0.224445420               0.000000000               0.329631138               0.243264743               0.000000000               0.353969547               0.262084065               0.000000000               0.378307956               0.280903388               0.000000000               0.402646365               0.299722710               0.000000000               0.426984773               0.318542033               0.000000000               0.451323182               0.337361355               0.000000000               0.475661591               0.356180678               0.000000000               0.500000000               0.375000000               0.000000000               0.102810390               0.084374307               0.000000000               0.127634741               0.106444663               0.000000000               0.152459092               0.128515018               0.000000000               0.177283442               0.150585374               0.000000000               0.202107793               0.172655730               0.000000000               0.226932143               0.194726086               0.000000000               0.251756494               0.216796442               0.000000000               0.276580845               0.238866798               0.000000000               0.301405195               0.260937153               0.000000000               0.326229546               0.283007509               0.000000000               0.351053896               0.305077865               0.000000000               0.375878247               0.327148221               0.000000000               0.400702598               0.349218577               0.000000000               0.425526948               0.371288933               0.000000000               0.450351299               0.393359288               0.000000000               0.475175649               0.415429644               0.000000000               0.500000000               0.437500000               0.000000000               0.094045202               0.094045202               0.000000000               0.119417377               0.119417377               0.000000000               0.144789552               0.144789552               0.000000000               0.170161727               0.170161727               0.000000000               0.195533901               0.195533901               0.000000000               0.220906076               0.220906076               0.000000000               0.246278251               0.246278251               0.000000000               0.271650426               0.271650426               0.000000000               0.297022601               0.297022601               0.000000000               0.322394776               0.322394776               0.000000000               0.347766951               0.347766951               0.000000000               0.373139126               0.373139126               0.000000000               0.398511300               0.398511300               0.000000000               0.423883475               0.423883475               0.000000000               0.449255650               0.449255650               0.000000000               0.474627825               0.474627825               0.000000000               0.500000000               0.500000000               0.000000000               0.084374307               0.102810390               0.000000000               0.106444663               0.127634741               0.000000000               0.128515018               0.152459092               0.000000000               0.150585374               0.177283442               0.000000000               0.172655730               0.202107793               0.000000000               0.194726086               0.226932143               0.000000000               0.216796442               0.251756494               0.000000000               0.238866798               0.276580845               0.000000000               0.260937153               0.301405195               0.000000000               0.283007509               0.326229546               0.000000000               0.305077865               0.351053896               0.000000000               0.327148221               0.375878247               0.000000000               0.349218577               0.400702598               0.000000000               0.371288933               0.425526948               0.000000000               0.393359288               0.450351299               0.000000000               0.415429644               0.475175649               0.000000000               0.437500000               0.500000000               0.000000000               0.073890841               0.110585458               0.000000000               0.092710163               0.134923867               0.000000000               0.111529486               0.159262276               0.000000000               0.130348808               0.183600685               0.000000000               0.149168131               0.207939094               0.000000000               0.167987453               0.232277503               0.000000000               0.186806776               0.256615912               0.000000000               0.205626098               0.280954320               0.000000000               0.224445420               0.305292729               0.000000000               0.243264743               0.329631138               0.000000000               0.262084065               0.353969547               0.000000000               0.280903388               0.378307956               0.000000000               0.299722710               0.402646365               0.000000000               0.318542033               0.426984773               0.000000000               0.337361355               0.451323182               0.000000000               0.356180678               0.475661591               0.000000000               0.375000000               0.500000000               0.000000000               0.062695766               0.117295528               0.000000000               0.078308531               0.141214558               0.000000000               0.093921295               0.165133587               0.000000000               0.109534060               0.189052617               0.000000000               0.125146824               0.212971646               0.000000000               0.140759589               0.236890676               0.000000000               0.156372354               0.260809705               0.000000000               0.171985118               0.284728735               0.000000000               0.187597883               0.308647764               0.000000000               0.203210648               0.332566794               0.000000000               0.218823412               0.356485823               0.000000000               0.234436177               0.380404853               0.000000000               0.250048941               0.404323882               0.000000000               0.265661706               0.428242912               0.000000000               0.281274471               0.452161941               0.000000000               0.296887235               0.476080971               0.000000000               0.312500000               0.500000000               0.000000000               0.050896897               0.122875978               0.000000000               0.063340840               0.146446229               0.000000000               0.075784784               0.170016481               0.000000000               0.088228728               0.193586732               0.000000000               0.100672672               0.217156983               0.000000000               0.113116616               0.240727235               0.000000000               0.125560560               0.264297486               0.000000000               0.138004504               0.287867738               0.000000000               0.150448448               0.311437989               0.000000000               0.162892392               0.335008240               0.000000000               0.175336336               0.358578492               0.000000000               0.187780280               0.382148743               0.000000000               0.200224224               0.405718994               0.000000000               0.212668168               0.429289246               0.000000000               0.225112112               0.452859497               0.000000000               0.237556056               0.476429749               0.000000000               0.250000000               0.500000000               0.000000000               0.038607862               0.127273065               0.000000000               0.047913621               0.150568498               0.000000000               0.057219379               0.173863932               0.000000000               0.066525138               0.197159365               0.000000000               0.075830897               0.220454798               0.000000000               0.085136655               0.243750232               0.000000000               0.094442414               0.267045665               0.000000000               0.103748172               0.290341099               0.000000000               0.113053931               0.313636532               0.000000000               0.122359690               0.336931966               0.000000000               0.131665448               0.360227399               0.000000000               0.140971207               0.383522833               0.000000000               0.150276966               0.406818266               0.000000000               0.159582724               0.430113700               0.000000000               0.168888483               0.453409133               0.000000000               0.178194241               0.476704567               0.000000000               0.187500000               0.500000000               0.000000000               0.025947013               0.130444442               0.000000000               0.032137825               0.153541665               0.000000000               0.038328636               0.176638887               0.000000000               0.044519448               0.199736109               0.000000000               0.050710260               0.222833332               0.000000000               0.056901071               0.245930554               0.000000000               0.063091883               0.269027776               0.000000000               0.069282695               0.292124999               0.000000000               0.075473506               0.315222221               0.000000000               0.081664318               0.338319444               0.000000000               0.087855130               0.361416666               0.000000000               0.094045942               0.384513888               0.000000000               0.100236753               0.407611111               0.000000000               0.106427565               0.430708333               0.000000000               0.112618377               0.453805555               0.000000000               0.118809188               0.476902778               0.000000000               0.125000000               0.500000000               0.000000000               0.013036280               0.132359569               0.000000000               0.016127762               0.155337096               0.000000000               0.019219245               0.178314623               0.000000000               0.022310727               0.201292150               0.000000000               0.025402210               0.224269676               0.000000000               0.028493692               0.247247203               0.000000000               0.031585175               0.270224730               0.000000000               0.034676657               0.293202257               0.000000000               0.037768140               0.316179784               0.000000000               0.040859622               0.339157311               0.000000000               0.043951105               0.362134838               0.000000000               0.047042587               0.385112365               0.000000000               0.050134070               0.408089892               0.000000000               0.053225552               0.431067419               0.000000000               0.056317035               0.454044946               0.000000000               0.059408517               0.477022473               0.000000000               0.062500000               0.500000000               0.000000000               0.000000000               0.133000000               0.000000000               0.000000000               0.155937500               0.000000000               0.000000000               0.178875000               0.000000000               0.000000000               0.201812500               0.000000000               0.000000000               0.224750000               0.000000000               0.000000000               0.247687500               0.000000000               0.000000000               0.270625000               0.000000000               0.000000000               0.293562500               0.000000000               0.000000000               0.316500000               0.000000000               0.000000000               0.339437500               0.000000000               0.000000000               0.362375000               0.000000000               0.000000000               0.385312500               0.000000000               0.000000000               0.408250000               0.000000000               0.000000000               0.431187500               0.000000000               0.000000000               0.454125000               0.000000000               0.000000000               0.477062500               0.000000000               0.000000000               0.500000000               0.000000000               0.133000000               0.000000000               0.000000000               0.155937500               0.000000000               0.000000000               0.178875000               0.000000000               0.000000000               0.201812500               0.000000000               0.000000000               0.224750000               0.000000000               0.000000000               0.247687500               0.000000000               0.000000000               0.270625000               0.000000000               0.000000000               0.293562500               0.000000000               0.000000000               0.316500000               0.000000000               0.000000000               0.339437500               0.000000000               0.000000000               0.362375000               0.000000000               0.000000000               0.385312500               0.000000000               0.000000000               0.408250000               0.000000000               0.000000000               0.431187500               0.000000000               0.000000000               0.454125000               0.000000000               0.000000000               0.477062500               0.000000000               0.000000000               0.500000000               0.000000000               0.000000000               0.132359569              -0.013036280               0.000000000               0.155337096              -0.016127762               0.000000000               0.178314623              -0.019219245               0.000000000               0.201292150              -0.022310727               0.000000000               0.224269676              -0.025402210               0.000000000               0.247247203              -0.028493692               0.000000000               0.270224730              -0.031585175               0.000000000               0.293202257              -0.034676657               0.000000000               0.316179784              -0.037768140               0.000000000               0.339157311              -0.040859622               0.000000000               0.362134838              -0.043951105               0.000000000               0.385112365              -0.047042587               0.000000000               0.408089892              -0.050134070               0.000000000               0.431067419              -0.053225552               0.000000000               0.454044946              -0.056317035               0.000000000               0.477022473              -0.059408517               0.000000000               0.500000000              -0.062500000               0.000000000               0.130444442              -0.025947013               0.000000000               0.153541665              -0.032137825               0.000000000               0.176638887              -0.038328636               0.000000000               0.199736109              -0.044519448               0.000000000               0.222833332              -0.050710260               0.000000000               0.245930554              -0.056901071               0.000000000               0.269027776              -0.063091883               0.000000000               0.292124999              -0.069282695               0.000000000               0.315222221              -0.075473506               0.000000000               0.338319444              -0.081664318               0.000000000               0.361416666              -0.087855130               0.000000000               0.384513888              -0.094045942               0.000000000               0.407611111              -0.100236753               0.000000000               0.430708333              -0.106427565               0.000000000               0.453805555              -0.112618377               0.000000000               0.476902778              -0.118809188               0.000000000               0.500000000              -0.125000000               0.000000000               0.127273065              -0.038607862               0.000000000               0.150568498              -0.047913621               0.000000000               0.173863932              -0.057219379               0.000000000               0.197159365              -0.066525138               0.000000000               0.220454798              -0.075830897               0.000000000               0.243750232              -0.085136655               0.000000000               0.267045665              -0.094442414               0.000000000               0.290341099              -0.103748172               0.000000000               0.313636532              -0.113053931               0.000000000               0.336931966              -0.122359690               0.000000000               0.360227399              -0.131665448               0.000000000               0.383522833              -0.140971207               0.000000000               0.406818266              -0.150276966               0.000000000               0.430113700              -0.159582724               0.000000000               0.453409133              -0.168888483               0.000000000               0.476704567              -0.178194241               0.000000000               0.500000000              -0.187500000               0.000000000               0.122875978              -0.050896897               0.000000000               0.146446229              -0.063340840               0.000000000               0.170016481              -0.075784784               0.000000000               0.193586732              -0.088228728               0.000000000               0.217156983              -0.100672672               0.000000000               0.240727235              -0.113116616               0.000000000               0.264297486              -0.125560560               0.000000000               0.287867738              -0.138004504               0.000000000               0.311437989              -0.150448448               0.000000000               0.335008240              -0.162892392               0.000000000               0.358578492              -0.175336336               0.000000000               0.382148743              -0.187780280               0.000000000               0.405718994              -0.200224224               0.000000000               0.429289246              -0.212668168               0.000000000               0.452859497              -0.225112112               0.000000000               0.476429749              -0.237556056               0.000000000               0.500000000              -0.250000000               0.000000000               0.117295528              -0.062695766               0.000000000               0.141214558              -0.078308531               0.000000000               0.165133587              -0.093921295               0.000000000               0.189052617              -0.109534060               0.000000000               0.212971646              -0.125146824               0.000000000               0.236890676              -0.140759589               0.000000000               0.260809705              -0.156372354               0.000000000               0.284728735              -0.171985118               0.000000000               0.308647764              -0.187597883               0.000000000               0.332566794              -0.203210648               0.000000000               0.356485823              -0.218823412               0.000000000               0.380404853              -0.234436177               0.000000000               0.404323882              -0.250048941               0.000000000               0.428242912              -0.265661706               0.000000000               0.452161941              -0.281274471               0.000000000               0.476080971              -0.296887235               0.000000000               0.500000000              -0.312500000               0.000000000               0.110585458              -0.073890841               0.000000000               0.134923867              -0.092710163               0.000000000               0.159262276              -0.111529486               0.000000000               0.183600685              -0.130348808               0.000000000               0.207939094              -0.149168131               0.000000000               0.232277503              -0.167987453               0.000000000               0.256615912              -0.186806776               0.000000000               0.280954320              -0.205626098               0.000000000               0.305292729              -0.224445420               0.000000000               0.329631138              -0.243264743               0.000000000               0.353969547              -0.262084065               0.000000000               0.378307956              -0.280903388               0.000000000               0.402646365              -0.299722710               0.000000000               0.426984773              -0.318542033               0.000000000               0.451323182              -0.337361355               0.000000000               0.475661591              -0.356180678               0.000000000               0.500000000              -0.375000000               0.000000000               0.102810390              -0.084374307               0.000000000               0.127634741              -0.106444663               0.000000000               0.152459092              -0.128515018               0.000000000               0.177283442              -0.150585374               0.000000000               0.202107793              -0.172655730               0.000000000               0.226932143              -0.194726086               0.000000000               0.251756494              -0.216796442               0.000000000               0.276580845              -0.238866798               0.000000000               0.301405195              -0.260937153               0.000000000               0.326229546              -0.283007509               0.000000000               0.351053896              -0.305077865               0.000000000               0.375878247              -0.327148221               0.000000000               0.400702598              -0.349218577               0.000000000               0.425526948              -0.371288933               0.000000000               0.450351299              -0.393359288               0.000000000               0.475175649              -0.415429644               0.000000000               0.500000000              -0.437500000               0.000000000               0.094045202              -0.094045202               0.000000000               0.119417377              -0.119417377               0.000000000               0.144789552              -0.144789552               0.000000000               0.170161727              -0.170161727               0.000000000               0.195533901              -0.195533901               0.000000000               0.220906076              -0.220906076               0.000000000               0.246278251              -0.246278251               0.000000000               0.271650426              -0.271650426               0.000000000               0.297022601              -0.297022601               0.000000000               0.322394776              -0.322394776               0.000000000               0.347766951              -0.347766951               0.000000000               0.373139126              -0.373139126               0.000000000               0.398511300              -0.398511300               0.000000000               0.423883475              -0.423883475               0.000000000               0.449255650              -0.449255650               0.000000000               0.474627825              -0.474627825               0.000000000               0.500000000              -0.500000000               0.000000000               0.084374307              -0.102810390               0.000000000               0.106444663              -0.127634741               0.000000000               0.128515018              -0.152459092               0.000000000               0.150585374              -0.177283442               0.000000000               0.172655730              -0.202107793               0.000000000               0.194726086              -0.226932143               0.000000000               0.216796442              -0.251756494               0.000000000               0.238866798              -0.276580845               0.000000000               0.260937153              -0.301405195               0.000000000               0.283007509              -0.326229546               0.000000000               0.305077865              -0.351053896               0.000000000               0.327148221              -0.375878247               0.000000000               0.349218577              -0.400702598               0.000000000               0.371288933              -0.425526948               0.000000000               0.393359288              -0.450351299               0.000000000               0.415429644              -0.475175649               0.000000000               0.437500000              -0.500000000               0.000000000               0.073890841              -0.110585458               0.000000000               0.092710163              -0.134923867               0.000000000               0.111529486              -0.159262276               0.000000000               0.130348808              -0.183600685               0.000000000               0.149168131              -0.207939094               0.000000000               0.167987453              -0.232277503               0.000000000               0.186806776              -0.256615912               0.000000000               0.205626098              -0.280954320               0.000000000               0.224445420              -0.305292729               0.000000000               0.243264743              -0.329631138               0.000000000               0.262084065              -0.353969547               0.000000000               0.280903388              -0.378307956               0.000000000               0.299722710              -0.402646365               0.000000000               0.318542033              -0.426984773               0.000000000               0.337361355              -0.451323182               0.000000000               0.356180678              -0.475661591               0.000000000               0.375000000              -0.500000000               0.000000000               0.062695766              -0.117295528               0.000000000               0.078308531              -0.141214558               0.000000000               0.093921295              -0.165133587               0.000000000               0.109534060              -0.189052617               0.000000000               0.125146824              -0.212971646               0.000000000               0.140759589              -0.236890676               0.000000000               0.156372354              -0.260809705               0.000000000               0.171985118              -0.284728735               0.000000000               0.187597883              -0.308647764               0.000000000               0.203210648              -0.332566794               0.000000000               0.218823412              -0.356485823               0.000000000               0.234436177              -0.380404853               0.000000000               0.250048941              -0.404323882               0.000000000               0.265661706              -0.428242912               0.000000000               0.281274471              -0.452161941               0.000000000               0.296887235              -0.476080971               0.000000000               0.312500000              -0.500000000               0.000000000               0.050896897              -0.122875978               0.000000000               0.063340840              -0.146446229               0.000000000               0.075784784              -0.170016481               0.000000000               0.088228728              -0.193586732               0.000000000               0.100672672              -0.217156983               0.000000000               0.113116616              -0.240727235               0.000000000               0.125560560              -0.264297486               0.000000000               0.138004504              -0.287867738               0.000000000               0.150448448              -0.311437989               0.000000000               0.162892392              -0.335008240               0.000000000               0.175336336              -0.358578492               0.000000000               0.187780280              -0.382148743               0.000000000               0.200224224              -0.405718994               0.000000000               0.212668168              -0.429289246               0.000000000               0.225112112              -0.452859497               0.000000000               0.237556056              -0.476429749               0.000000000               0.250000000              -0.500000000               0.000000000               0.038607862              -0.127273065               0.000000000               0.047913621              -0.150568498               0.000000000               0.057219379              -0.173863932               0.000000000               0.066525138              -0.197159365               0.000000000               0.075830897              -0.220454798               0.000000000               0.085136655              -0.243750232               0.000000000               0.094442414              -0.267045665               0.000000000               0.103748172              -0.290341099               0.000000000               0.113053931              -0.313636532               0.000000000               0.122359690              -0.336931966               0.000000000               0.131665448              -0.360227399               0.000000000               0.140971207              -0.383522833               0.000000000               0.150276966              -0.406818266               0.000000000               0.159582724              -0.430113700               0.000000000               0.168888483              -0.453409133               0.000000000               0.178194241              -0.476704567               0.000000000               0.187500000              -0.500000000               0.000000000               0.025947013              -0.130444442               0.000000000               0.032137825              -0.153541665               0.000000000               0.038328636              -0.176638887               0.000000000               0.044519448              -0.199736109               0.000000000               0.050710260              -0.222833332               0.000000000               0.056901071              -0.245930554               0.000000000               0.063091883              -0.269027776               0.000000000               0.069282695              -0.292124999               0.000000000               0.075473506              -0.315222221               0.000000000               0.081664318              -0.338319444               0.000000000               0.087855130              -0.361416666               0.000000000               0.094045942              -0.384513888               0.000000000               0.100236753              -0.407611111               0.000000000               0.106427565              -0.430708333               0.000000000               0.112618377              -0.453805555               0.000000000               0.118809188              -0.476902778               0.000000000               0.125000000              -0.500000000               0.000000000               0.013036280              -0.132359569               0.000000000               0.016127762              -0.155337096               0.000000000               0.019219245              -0.178314623               0.000000000               0.022310727              -0.201292150               0.000000000               0.025402210              -0.224269676               0.000000000               0.028493692              -0.247247203               0.000000000               0.031585175              -0.270224730               0.000000000               0.034676657              -0.293202257               0.000000000               0.037768140              -0.316179784               0.000000000               0.040859622              -0.339157311               0.000000000               0.043951105              -0.362134838               0.000000000               0.047042587              -0.385112365               0.000000000               0.050134070              -0.408089892               0.000000000               0.053225552              -0.431067419               0.000000000               0.056317035              -0.454044946               0.000000000               0.059408517              -0.477022473               0.000000000               0.062500000              -0.500000000               0.000000000               0.000000000              -0.133000000               0.000000000               0.000000000              -0.155937500               0.000000000               0.000000000              -0.178875000               0.000000000               0.000000000              -0.201812500               0.000000000               0.000000000              -0.224750000               0.000000000               0.000000000              -0.247687500               0.000000000               0.000000000              -0.270625000               0.000000000               0.000000000              -0.293562500               0.000000000               0.000000000              -0.316500000               0.000000000               0.000000000              -0.339437500               0.000000000               0.000000000              -0.362375000               0.000000000               0.000000000              -0.385312500               0.000000000               0.000000000              -0.408250000               0.000000000               0.000000000              -0.431187500               0.000000000               0.000000000              -0.454125000               0.000000000               0.000000000              -0.477062500               0.000000000               0.000000000              -0.500000000               0.000000000              -0.133000000               0.000000000               0.000000000              -0.155937500               0.000000000               0.000000000              -0.178875000               0.000000000               0.000000000              -0.201812500               0.000000000               0.000000000              -0.224750000               0.000000000               0.000000000              -0.247687500               0.000000000               0.000000000              -0.270625000               0.000000000               0.000000000              -0.293562500               0.000000000               0.000000000              -0.316500000               0.000000000               0.000000000              -0.339437500               0.000000000               0.000000000              -0.362375000               0.000000000               0.000000000              -0.385312500               0.000000000               0.000000000              -0.408250000               0.000000000               0.000000000              -0.431187500               0.000000000               0.000000000              -0.454125000               0.000000000               0.000000000              -0.477062500               0.000000000               0.000000000              -0.500000000               0.000000000               0.000000000              -0.132359569              -0.013036280               0.000000000              -0.155337096              -0.016127762               0.000000000              -0.178314623              -0.019219245               0.000000000              -0.201292150              -0.022310727               0.000000000              -0.224269676              -0.025402210               0.000000000              -0.247247203              -0.028493692               0.000000000              -0.270224730              -0.031585175               0.000000000              -0.293202257              -0.034676657               0.000000000              -0.316179784              -0.037768140               0.000000000              -0.339157311              -0.040859622               0.000000000              -0.362134838              -0.043951105               0.000000000              -0.385112365              -0.047042587               0.000000000              -0.408089892              -0.050134070               0.000000000              -0.431067419              -0.053225552               0.000000000              -0.454044946              -0.056317035               0.000000000              -0.477022473              -0.059408517               0.000000000              -0.500000000              -0.062500000               0.000000000              -0.130444442              -0.025947013               0.000000000              -0.153541665              -0.032137825               0.000000000              -0.176638887              -0.038328636               0.000000000              -0.199736109              -0.044519448               0.000000000              -0.222833332              -0.050710260               0.000000000              -0.245930554              -0.056901071               0.000000000              -0.269027776              -0.063091883               0.000000000              -0.292124999              -0.069282695               0.000000000              -0.315222221              -0.075473506               0.000000000              -0.338319444              -0.081664318               0.000000000              -0.361416666              -0.087855130               0.000000000              -0.384513888              -0.094045942               0.000000000              -0.407611111              -0.100236753               0.000000000              -0.430708333              -0.106427565               0.000000000              -0.453805555              -0.112618377               0.000000000              -0.476902778              -0.118809188               0.000000000              -0.500000000              -0.125000000               0.000000000              -0.127273065              -0.038607862               0.000000000              -0.150568498              -0.047913621               0.000000000              -0.173863932              -0.057219379               0.000000000              -0.197159365              -0.066525138               0.000000000              -0.220454798              -0.075830897               0.000000000              -0.243750232              -0.085136655               0.000000000              -0.267045665              -0.094442414               0.000000000              -0.290341099              -0.103748172               0.000000000              -0.313636532              -0.113053931               0.000000000              -0.336931966              -0.122359690               0.000000000              -0.360227399              -0.131665448               0.000000000              -0.383522833              -0.140971207               0.000000000              -0.406818266              -0.150276966               0.000000000              -0.430113700              -0.159582724               0.000000000              -0.453409133              -0.168888483               0.000000000              -0.476704567              -0.178194241               0.000000000              -0.500000000              -0.187500000               0.000000000              -0.122875978              -0.050896897               0.000000000              -0.146446229              -0.063340840               0.000000000              -0.170016481              -0.075784784               0.000000000              -0.193586732              -0.088228728               0.000000000              -0.217156983              -0.100672672               0.000000000              -0.240727235              -0.113116616               0.000000000              -0.264297486              -0.125560560               0.000000000              -0.287867738              -0.138004504               0.000000000              -0.311437989              -0.150448448               0.000000000              -0.335008240              -0.162892392               0.000000000              -0.358578492              -0.175336336               0.000000000              -0.382148743              -0.187780280               0.000000000              -0.405718994              -0.200224224               0.000000000              -0.429289246              -0.212668168               0.000000000              -0.452859497              -0.225112112               0.000000000              -0.476429749              -0.237556056               0.000000000              -0.500000000              -0.250000000               0.000000000              -0.117295528              -0.062695766               0.000000000              -0.141214558              -0.078308531               0.000000000              -0.165133587              -0.093921295               0.000000000              -0.189052617              -0.109534060               0.000000000              -0.212971646              -0.125146824               0.000000000              -0.236890676              -0.140759589               0.000000000              -0.260809705              -0.156372354               0.000000000              -0.284728735              -0.171985118               0.000000000              -0.308647764              -0.187597883               0.000000000              -0.332566794              -0.203210648               0.000000000              -0.356485823              -0.218823412               0.000000000              -0.380404853              -0.234436177               0.000000000              -0.404323882              -0.250048941               0.000000000              -0.428242912              -0.265661706               0.000000000              -0.452161941              -0.281274471               0.000000000              -0.476080971              -0.296887235               0.000000000              -0.500000000              -0.312500000               0.000000000              -0.110585458              -0.073890841               0.000000000              -0.134923867              -0.092710163               0.000000000              -0.159262276              -0.111529486               0.000000000              -0.183600685              -0.130348808               0.000000000              -0.207939094              -0.149168131               0.000000000              -0.232277503              -0.167987453               0.000000000              -0.256615912              -0.186806776               0.000000000              -0.280954320              -0.205626098               0.000000000              -0.305292729              -0.224445420               0.000000000              -0.329631138              -0.243264743               0.000000000              -0.353969547              -0.262084065               0.000000000              -0.378307956              -0.280903388               0.000000000              -0.402646365              -0.299722710               0.000000000              -0.426984773              -0.318542033               0.000000000              -0.451323182              -0.337361355               0.000000000              -0.475661591              -0.356180678               0.000000000              -0.500000000              -0.375000000               0.000000000              -0.102810390              -0.084374307               0.000000000              -0.127634741              -0.106444663               0.000000000              -0.152459092              -0.128515018               0.000000000              -0.177283442              -0.150585374               0.000000000              -0.202107793              -0.172655730               0.000000000              -0.226932143              -0.194726086               0.000000000              -0.251756494              -0.216796442               0.000000000              -0.276580845              -0.238866798               0.000000000              -0.301405195              -0.260937153               0.000000000              -0.326229546              -0.283007509               0.000000000              -0.351053896              -0.305077865               0.000000000              -0.375878247              -0.327148221               0.000000000              -0.400702598              -0.349218577               0.000000000              -0.425526948              -0.371288933               0.000000000              -0.450351299              -0.393359288               0.000000000              -0.475175649              -0.415429644               0.000000000              -0.500000000              -0.437500000               0.000000000              -0.094045202              -0.094045202               0.000000000              -0.119417377              -0.119417377               0.000000000              -0.144789552              -0.144789552               0.000000000              -0.170161727              -0.170161727               0.000000000              -0.195533901              -0.195533901               0.000000000              -0.220906076              -0.220906076               0.000000000              -0.246278251              -0.246278251               0.000000000              -0.271650426              -0.271650426               0.000000000              -0.297022601              -0.297022601               0.000000000              -0.322394776              -0.322394776               0.000000000              -0.347766951              -0.347766951               0.000000000              -0.373139126              -0.373139126               0.000000000              -0.398511300              -0.398511300               0.000000000              -0.423883475              -0.423883475               0.000000000              -0.449255650              -0.449255650               0.000000000              -0.474627825              -0.474627825               0.000000000              -0.500000000              -0.500000000               0.000000000              -0.084374307              -0.102810390               0.000000000              -0.106444663              -0.127634741               0.000000000              -0.128515018              -0.152459092               0.000000000              -0.150585374              -0.177283442               0.000000000              -0.172655730              -0.202107793               0.000000000              -0.194726086              -0.226932143               0.000000000              -0.216796442              -0.251756494               0.000000000              -0.238866798              -0.276580845               0.000000000              -0.260937153              -0.301405195               0.000000000              -0.283007509              -0.326229546               0.000000000              -0.305077865              -0.351053896               0.000000000              -0.327148221              -0.375878247               0.000000000              -0.349218577              -0.400702598               0.000000000              -0.371288933              -0.425526948               0.000000000              -0.393359288              -0.450351299               0.000000000              -0.415429644              -0.475175649               0.000000000              -0.437500000              -0.500000000               0.000000000              -0.073890841              -0.110585458               0.000000000              -0.092710163              -0.134923867               0.000000000              -0.111529486              -0.159262276               0.000000000              -0.130348808              -0.183600685               0.000000000              -0.149168131              -0.207939094               0.000000000              -0.167987453              -0.232277503               0.000000000              -0.186806776              -0.256615912               0.000000000              -0.205626098              -0.280954320               0.000000000              -0.224445420              -0.305292729               0.000000000              -0.243264743              -0.329631138               0.000000000              -0.262084065              -0.353969547               0.000000000              -0.280903388              -0.378307956               0.000000000              -0.299722710              -0.402646365               0.000000000              -0.318542033              -0.426984773               0.000000000              -0.337361355              -0.451323182               0.000000000              -0.356180678              -0.475661591               0.000000000              -0.375000000              -0.500000000               0.000000000              -0.062695766              -0.117295528               0.000000000              -0.078308531              -0.141214558               0.000000000              -0.093921295              -0.165133587               0.000000000              -0.109534060              -0.189052617               0.000000000              -0.125146824              -0.212971646               0.000000000              -0.140759589              -0.236890676               0.000000000              -0.156372354              -0.260809705               0.000000000              -0.171985118              -0.284728735               0.000000000              -0.187597883              -0.308647764               0.000000000              -0.203210648              -0.332566794               0.000000000              -0.218823412              -0.356485823               0.000000000              -0.234436177              -0.380404853               0.000000000              -0.250048941              -0.404323882               0.000000000              -0.265661706              -0.428242912               0.000000000              -0.281274471              -0.452161941               0.000000000              -0.296887235              -0.476080971               0.000000000              -0.312500000              -0.500000000               0.000000000              -0.050896897              -0.122875978               0.000000000              -0.063340840              -0.146446229               0.000000000              -0.075784784              -0.170016481               0.000000000              -0.088228728              -0.193586732               0.000000000              -0.100672672              -0.217156983               0.000000000              -0.113116616              -0.240727235               0.000000000              -0.125560560              -0.264297486               0.000000000              -0.138004504              -0.287867738               0.000000000              -0.150448448              -0.311437989               0.000000000              -0.162892392              -0.335008240               0.000000000              -0.175336336              -0.358578492               0.000000000              -0.187780280              -0.382148743               0.000000000              -0.200224224              -0.405718994               0.000000000              -0.212668168              -0.429289246               0.000000000              -0.225112112              -0.452859497               0.000000000              -0.237556056              -0.476429749               0.000000000              -0.250000000              -0.500000000               0.000000000              -0.038607862              -0.127273065               0.000000000              -0.047913621              -0.150568498               0.000000000              -0.057219379              -0.173863932               0.000000000              -0.066525138              -0.197159365               0.000000000              -0.075830897              -0.220454798               0.000000000              -0.085136655              -0.243750232               0.000000000              -0.094442414              -0.267045665               0.000000000              -0.103748172              -0.290341099               0.000000000              -0.113053931              -0.313636532               0.000000000              -0.122359690              -0.336931966               0.000000000              -0.131665448              -0.360227399               0.000000000              -0.140971207              -0.383522833               0.000000000              -0.150276966              -0.406818266               0.000000000              -0.159582724              -0.430113700               0.000000000              -0.168888483              -0.453409133               0.000000000              -0.178194241              -0.476704567               0.000000000              -0.187500000              -0.500000000               0.000000000              -0.025947013              -0.130444442               0.000000000              -0.032137825              -0.153541665               0.000000000              -0.038328636              -0.176638887               0.000000000              -0.044519448              -0.199736109               0.000000000              -0.050710260              -0.222833332               0.000000000              -0.056901071              -0.245930554               0.000000000              -0.063091883              -0.269027776               0.000000000              -0.069282695              -0.292124999               0.000000000              -0.075473506              -0.315222221               0.000000000              -0.081664318              -0.338319444               0.000000000              -0.087855130              -0.361416666               0.000000000              -0.094045942              -0.384513888               0.000000000              -0.100236753              -0.407611111               0.000000000              -0.106427565              -0.430708333               0.000000000              -0.112618377              -0.453805555               0.000000000              -0.118809188              -0.476902778               0.000000000              -0.125000000              -0.500000000               0.000000000              -0.013036280              -0.132359569               0.000000000              -0.016127762              -0.155337096               0.000000000              -0.019219245              -0.178314623               0.000000000              -0.022310727              -0.201292150               0.000000000              -0.025402210              -0.224269676               0.000000000              -0.028493692              -0.247247203               0.000000000              -0.031585175              -0.270224730               0.000000000              -0.034676657              -0.293202257               0.000000000              -0.037768140              -0.316179784               0.000000000              -0.040859622              -0.339157311               0.000000000              -0.043951105              -0.362134838               0.000000000              -0.047042587              -0.385112365               0.000000000              -0.050134070              -0.408089892               0.000000000              -0.053225552              -0.431067419               0.000000000              -0.056317035              -0.454044946               0.000000000              -0.059408517              -0.477022473               0.000000000              -0.062500000              -0.500000000               0.000000000               0.000000000              -0.133000000               0.000000000               0.000000000              -0.155937500               0.000000000               0.000000000              -0.178875000               0.000000000               0.000000000              -0.201812500               0.000000000               0.000000000              -0.224750000               0.000000000               0.000000000              -0.247687500               0.000000000               0.000000000              -0.270625000               0.000000000               0.000000000              -0.293562500               0.000000000               0.000000000              -0.316500000               0.000000000               0.000000000              -0.339437500               0.000000000               0.000000000              -0.362375000               0.000000000               0.000000000              -0.385312500               0.000000000               0.000000000              -0.408250000               0.000000000               0.000000000              -0.431187500               0.000000000               0.000000000              -0.454125000               0.000000000               0.000000000              -0.477062500               0.000000000               0.000000000              -0.500000000               0.000000000              -0.133000000               0.000000000               0.000000000              -0.155937500               0.000000000               0.000000000              -0.178875000               0.000000000               0.000000000              -0.201812500               0.000000000               0.000000000              -0.224750000               0.000000000               0.000000000              -0.247687500               0.000000000               0.000000000              -0.270625000               0.000000000               0.000000000              -0.293562500               0.000000000               0.000000000              -0.316500000               0.000000000               0.000000000              -0.339437500               0.000000000               0.000000000              -0.362375000               0.000000000               0.000000000              -0.385312500               0.000000000               0.000000000              -0.408250000               0.000000000               0.000000000              -0.431187500               0.000000000               0.000000000              -0.454125000               0.000000000               0.000000000              -0.477062500               0.000000000               0.000000000              -0.500000000               0.000000000               0.000000000              -0.132359569               0.013036280               0.000000000              -0.155337096               0.016127762               0.000000000              -0.178314623               0.019219245               0.000000000              -0.201292150               0.022310727               0.000000000              -0.224269676               0.025402210               0.000000000              -0.247247203               0.028493692               0.000000000              -0.270224730               0.031585175               0.000000000              -0.293202257               0.034676657               0.000000000              -0.316179784               0.037768140               0.000000000              -0.339157311               0.040859622               0.000000000              -0.362134838               0.043951105               0.000000000              -0.385112365               0.047042587               0.000000000              -0.408089892               0.050134070               0.000000000              -0.431067419               0.053225552               0.000000000              -0.454044946               0.056317035               0.000000000              -0.477022473               0.059408517               0.000000000              -0.500000000               0.062500000               0.000000000              -0.130444442               0.025947013               0.000000000              -0.153541665               0.032137825               0.000000000              -0.176638887               0.038328636               0.000000000              -0.199736109               0.044519448               0.000000000              -0.222833332               0.050710260               0.000000000              -0.245930554               0.056901071               0.000000000              -0.269027776               0.063091883               0.000000000              -0.292124999               0.069282695               0.000000000              -0.315222221               0.075473506               0.000000000              -0.338319444               0.081664318               0.000000000              -0.361416666               0.087855130               0.000000000              -0.384513888               0.094045942               0.000000000              -0.407611111               0.100236753               0.000000000              -0.430708333               0.106427565               0.000000000              -0.453805555               0.112618377               0.000000000              -0.476902778               0.118809188               0.000000000              -0.500000000               0.125000000               0.000000000              -0.127273065               0.038607862               0.000000000              -0.150568498               0.047913621               0.000000000              -0.173863932               0.057219379               0.000000000              -0.197159365               0.066525138               0.000000000              -0.220454798               0.075830897               0.000000000              -0.243750232               0.085136655               0.000000000              -0.267045665               0.094442414               0.000000000              -0.290341099               0.103748172               0.000000000              -0.313636532               0.113053931               0.000000000              -0.336931966               0.122359690               0.000000000              -0.360227399               0.131665448               0.000000000              -0.383522833               0.140971207               0.000000000              -0.406818266               0.150276966               0.000000000              -0.430113700               0.159582724               0.000000000              -0.453409133               0.168888483               0.000000000              -0.476704567               0.178194241               0.000000000              -0.500000000               0.187500000               0.000000000              -0.122875978               0.050896897               0.000000000              -0.146446229               0.063340840               0.000000000              -0.170016481               0.075784784               0.000000000              -0.193586732               0.088228728               0.000000000              -0.217156983               0.100672672               0.000000000              -0.240727235               0.113116616               0.000000000              -0.264297486               0.125560560               0.000000000              -0.287867738               0.138004504               0.000000000              -0.311437989               0.150448448               0.000000000              -0.335008240               0.162892392               0.000000000              -0.358578492               0.175336336               0.000000000              -0.382148743               0.187780280               0.000000000              -0.405718994               0.200224224               0.000000000              -0.429289246               0.212668168               0.000000000              -0.452859497               0.225112112               0.000000000              -0.476429749               0.237556056               0.000000000              -0.500000000               0.250000000               0.000000000              -0.117295528               0.062695766               0.000000000              -0.141214558               0.078308531               0.000000000              -0.165133587               0.093921295               0.000000000              -0.189052617               0.109534060               0.000000000              -0.212971646               0.125146824               0.000000000              -0.236890676               0.140759589               0.000000000              -0.260809705               0.156372354               0.000000000              -0.284728735               0.171985118               0.000000000              -0.308647764               0.187597883               0.000000000              -0.332566794               0.203210648               0.000000000              -0.356485823               0.218823412               0.000000000              -0.380404853               0.234436177               0.000000000              -0.404323882               0.250048941               0.000000000              -0.428242912               0.265661706               0.000000000              -0.452161941               0.281274471               0.000000000              -0.476080971               0.296887235               0.000000000              -0.500000000               0.312500000               0.000000000              -0.110585458               0.073890841               0.000000000              -0.134923867               0.092710163               0.000000000              -0.159262276               0.111529486               0.000000000              -0.183600685               0.130348808               0.000000000              -0.207939094               0.149168131               0.000000000              -0.232277503               0.167987453               0.000000000              -0.256615912               0.186806776               0.000000000              -0.280954320               0.205626098               0.000000000              -0.305292729               0.224445420               0.000000000              -0.329631138               0.243264743               0.000000000              -0.353969547               0.262084065               0.000000000              -0.378307956               0.280903388               0.000000000              -0.402646365               0.299722710               0.000000000              -0.426984773               0.318542033               0.000000000              -0.451323182               0.337361355               0.000000000              -0.475661591               0.356180678               0.000000000              -0.500000000               0.375000000               0.000000000              -0.102810390               0.084374307               0.000000000              -0.127634741               0.106444663               0.000000000              -0.152459092               0.128515018               0.000000000              -0.177283442               0.150585374               0.000000000              -0.202107793               0.172655730               0.000000000              -0.226932143               0.194726086               0.000000000              -0.251756494               0.216796442               0.000000000              -0.276580845               0.238866798               0.000000000              -0.301405195               0.260937153               0.000000000              -0.326229546               0.283007509               0.000000000              -0.351053896               0.305077865               0.000000000              -0.375878247               0.327148221               0.000000000              -0.400702598               0.349218577               0.000000000              -0.425526948               0.371288933               0.000000000              -0.450351299               0.393359288               0.000000000              -0.475175649               0.415429644               0.000000000              -0.500000000               0.437500000               0.000000000              -0.094045202               0.094045202               0.000000000              -0.119417377               0.119417377               0.000000000              -0.144789552               0.144789552               0.000000000              -0.170161727               0.170161727               0.000000000              -0.195533901               0.195533901               0.000000000              -0.220906076               0.220906076               0.000000000              -0.246278251               0.246278251               0.000000000              -0.271650426               0.271650426               0.000000000              -0.297022601               0.297022601               0.000000000              -0.322394776               0.322394776               0.000000000              -0.347766951               0.347766951               0.000000000              -0.373139126               0.373139126               0.000000000              -0.398511300               0.398511300               0.000000000              -0.423883475               0.423883475               0.000000000              -0.449255650               0.449255650               0.000000000              -0.474627825               0.474627825               0.000000000              -0.500000000               0.500000000               0.000000000              -0.084374307               0.102810390               0.000000000              -0.106444663               0.127634741               0.000000000              -0.128515018               0.152459092               0.000000000              -0.150585374               0.177283442               0.000000000              -0.172655730               0.202107793               0.000000000              -0.194726086               0.226932143               0.000000000              -0.216796442               0.251756494               0.000000000              -0.238866798               0.276580845               0.000000000              -0.260937153               0.301405195               0.000000000              -0.283007509               0.326229546               0.000000000              -0.305077865               0.351053896               0.000000000              -0.327148221               0.375878247               0.000000000              -0.349218577               0.400702598               0.000000000              -0.371288933               0.425526948               0.000000000              -0.393359288               0.450351299               0.000000000              -0.415429644               0.475175649               0.000000000              -0.437500000               0.500000000               0.000000000              -0.073890841               0.110585458               0.000000000              -0.092710163               0.134923867               0.000000000              -0.111529486               0.159262276               0.000000000              -0.130348808               0.183600685               0.000000000              -0.149168131               0.207939094               0.000000000              -0.167987453               0.232277503               0.000000000              -0.186806776               0.256615912               0.000000000              -0.205626098               0.280954320               0.000000000              -0.224445420               0.305292729               0.000000000              -0.243264743               0.329631138               0.000000000              -0.262084065               0.353969547               0.000000000              -0.280903388               0.378307956               0.000000000              -0.299722710               0.402646365               0.000000000              -0.318542033               0.426984773               0.000000000              -0.337361355               0.451323182               0.000000000              -0.356180678               0.475661591               0.000000000              -0.375000000               0.500000000               0.000000000              -0.062695766               0.117295528               0.000000000              -0.078308531               0.141214558               0.000000000              -0.093921295               0.165133587               0.000000000              -0.109534060               0.189052617               0.000000000              -0.125146824               0.212971646               0.000000000              -0.140759589               0.236890676               0.000000000              -0.156372354               0.260809705               0.000000000              -0.171985118               0.284728735               0.000000000              -0.187597883               0.308647764               0.000000000              -0.203210648               0.332566794               0.000000000              -0.218823412               0.356485823               0.000000000              -0.234436177               0.380404853               0.000000000              -0.250048941               0.404323882               0.000000000              -0.265661706               0.428242912               0.000000000              -0.281274471               0.452161941               0.000000000              -0.296887235               0.476080971               0.000000000              -0.312500000               0.500000000               0.000000000              -0.050896897               0.122875978               0.000000000              -0.063340840               0.146446229               0.000000000              -0.075784784               0.170016481               0.000000000              -0.088228728               0.193586732               0.000000000              -0.100672672               0.217156983               0.000000000              -0.113116616               0.240727235               0.000000000              -0.125560560               0.264297486               0.000000000              -0.138004504               0.287867738               0.000000000              -0.150448448               0.311437989               0.000000000              -0.162892392               0.335008240               0.000000000              -0.175336336               0.358578492               0.000000000              -0.187780280               0.382148743               0.000000000              -0.200224224               0.405718994               0.000000000              -0.212668168               0.429289246               0.000000000              -0.225112112               0.452859497               0.000000000              -0.237556056               0.476429749               0.000000000              -0.250000000               0.500000000               0.000000000              -0.038607862               0.127273065               0.000000000              -0.047913621               0.150568498               0.000000000              -0.057219379               0.173863932               0.000000000              -0.066525138               0.197159365               0.000000000              -0.075830897               0.220454798               0.000000000              -0.085136655               0.243750232               0.000000000              -0.094442414               0.267045665               0.000000000              -0.103748172               0.290341099               0.000000000              -0.113053931               0.313636532               0.000000000              -0.122359690               0.336931966               0.000000000              -0.131665448               0.360227399               0.000000000              -0.140971207               0.383522833               0.000000000              -0.150276966               0.406818266               0.000000000              -0.159582724               0.430113700               0.000000000              -0.168888483               0.453409133               0.000000000              -0.178194241               0.476704567               0.000000000              -0.187500000               0.500000000               0.000000000              -0.025947013               0.130444442               0.000000000              -0.032137825               0.153541665               0.000000000              -0.038328636               0.176638887               0.000000000              -0.044519448               0.199736109               0.000000000              -0.050710260               0.222833332               0.000000000              -0.056901071               0.245930554               0.000000000              -0.063091883               0.269027776               0.000000000              -0.069282695               0.292124999               0.000000000              -0.075473506               0.315222221               0.000000000              -0.081664318               0.338319444               0.000000000              -0.087855130               0.361416666               0.000000000              -0.094045942               0.384513888               0.000000000              -0.100236753               0.407611111               0.000000000              -0.106427565               0.430708333               0.000000000              -0.112618377               0.453805555               0.000000000              -0.118809188               0.476902778               0.000000000              -0.125000000               0.500000000               0.000000000              -0.013036280               0.132359569               0.000000000              -0.016127762               0.155337096               0.000000000              -0.019219245               0.178314623               0.000000000              -0.022310727               0.201292150               0.000000000              -0.025402210               0.224269676               0.000000000              -0.028493692               0.247247203               0.000000000              -0.031585175               0.270224730               0.000000000              -0.034676657               0.293202257               0.000000000              -0.037768140               0.316179784               0.000000000              -0.040859622               0.339157311               0.000000000              -0.043951105               0.362134838               0.000000000              -0.047042587               0.385112365               0.000000000              -0.050134070               0.408089892               0.000000000              -0.053225552               0.431067419               0.000000000              -0.056317035               0.454044946               0.000000000              -0.059408517               0.477022473               0.000000000              -0.062500000               0.500000000               0.000000000               0.000000000               0.133000000               0.000000000               0.000000000               0.155937500               0.000000000               0.000000000               0.178875000               0.000000000               0.000000000               0.201812500               0.000000000               0.000000000               0.224750000               0.000000000               0.000000000               0.247687500               0.000000000               0.000000000               0.270625000               0.000000000               0.000000000               0.293562500               0.000000000               0.000000000               0.316500000               0.000000000               0.000000000               0.339437500               0.000000000               0.000000000               0.362375000               0.000000000               0.000000000               0.385312500               0.000000000               0.000000000               0.408250000               0.000000000               0.000000000               0.431187500               0.000000000               0.000000000               0.454125000               0.000000000               0.000000000               0.477062500               0.000000000               0.000000000               0.500000000               0.000000000 </DataArray>
</Points>
<Cells>
<DataArray type="Int32"                                    Name="connectivity"                                                      NumberOfComponents=" 1" format="ascii">
         0          1         18         17          1          2         19         18          2          3         20         19          3          4         21         20          4          5         22         21          5          6         23         22          6          7         24         23          7          8         25         24          8          9         26         25          9         10         27         26         10         11         28         27         11         12         29         28         12         13         30         29         13         14         31         30         14         15         32         31         15         16         33         32         17         18         35         34         18         19         36         35         19         20         37         36         20         21         38         37         21         22         39         38         22         23         40         39         23         24         41         40         24         25         42         41         25         26         43         42         26         27         44         43         27         28         45         44         28         29         46         45         29         30         47         46         30         31         48         47         31         32         49         48         32         33         50         49         34         35         52         51         35         36         53         52         36         37         54         53         37         38         55         54         38         39         56         55         39         40         57         56         40         41         58         57         41         42         59         58         42         43         60         59         43         44         61         60         44         45         62         61         45         46         63         62         46         47         64         63         47         48         65         64         48         49         66         65         49         50         67         66         51         52         69         68         52         53         70         69         53         54         71         70         54         55         72         71         55         56         73         72         56         57         74         73         57         58         75         74         58         59         76         75         59         60         77         76         60         61         78         77         61         62         79         78         62         63         80         79         63         64         81         80         64         65         82         81         65         66         83         82         66         67         84         83         68         69         86         85         69         70         87         86         70         71         88         87         71         72         89         88         72         73         90         89         73         74         91         90         74         75         92         91         75         76         93         92         76         77         94         93         77         78         95         94         78         79         96         95         79         80         97         96         80         81         98         97         81         82         99         98         82         83        100         99         83         84        101        100         85         86        103        102         86         87        104        103         87         88        105        104         88         89        106        105         89         90        107        106         90         91        108        107         91         92        109        108         92         93        110        109         93         94        111        110         94         95        112        111         95         96        113        112         96         97        114        113         97         98        115        114         98         99        116        115         99        100        117        116        100        101        118        117        102        103        120        119        103        104        121        120        104        105        122        121        105        106        123        122        106        107        124        123        107        108        125        124        108        109        126        125        109        110        127        126        110        111        128        127        111        112        129        128        112        113        130        129        113        114        131        130        114        115        132        131        115        116        133        132        116        117        134        133        117        118        135        134        119        120        137        136        120        121        138        137        121        122        139        138        122        123        140        139        123        124        141        140        124        125        142        141        125        126        143        142        126        127        144        143        127        128        145        144        128        129        146        145        129        130        147        146        130        131        148        147        131        132        149        148        132        133        150        149        133        134        151        150        134        135        152        151        136        137        154        153        137        138        155        154        138        139        156        155        139        140        157        156        140        141        158        157        141        142        159        158        142        143        160        159        143        144        161        160        144        145        162        161        145        146        163        162        146        147        164        163        147        148        165        164        148        149        166        165        149        150        167        166        150        151        168        167        151        152        169        168        153        154        171        170        154        155        172        171        155        156        173        172        156        157        174        173        157        158        175        174        158        159        176        175        159        160        177        176        160        161        178        177        161        162        179        178        162        163        180        179        163        164        181        180        164        165        182        181        165        166        183        182        166        167        184        183        167        168        185        184        168        169        186        185        170        171        188        187        171        172        189        188        172        173        190        189        173        174        191        190        174        175        192        191        175        176        193        192        176        177        194        193        177        178        195        194        178        179        196        195        179        180        197        196        180        181        198        197        181        182        199        198        182        183        200        199        183        184        201        200        184        185        202        201        185        186        203        202        187        188        205        204        188        189        206        205        189        190        207        206        190        191        208        207        191        192        209        208        192        193        210        209        193        194        211        210        194        195        212        211        195        196        213        212        196        197        214        213        197        198        215        214        198        199        216        215        199        200        217        216        200        201        218        217        201        202        219        218        202        203        220        219        204        205        222        221        205        206        223        222        206        207        224        223        207        208        225        224        208        209        226        225        209        210        227        226        210        211        228        227        211        212        229        228        212        213        230        229        213        214        231        230        214        215        232        231        215        216        233        232        216        217        234        233        217        218        235        234        218        219        236        235        219        220        237        236        221        222        239        238        222        223        240        239        223        224        241        240        224        225        242        241        225        226        243        242        226        227        244        243        227        228        245        244        228        229        246        245        229        230        247        246        230        231        248        247        231        232        249        248        232        233        250        249        233        234        251        250        234        235        252        251        235        236        253        252        236        237        254        253        238        239        256        255        239        240        257        256        240        241        258        257        241        242        259        258        242        243        260        259        243        244        261        260        244        245        262        261        245        246        263        262        246        247        264        263        247        248        265        264        248        249        266        265        249        250        267        266        250        251        268        267        251        252        269        268        252        253        270        269        253        254        271        270        255        256        273        272        256        257        274        273        257        258        275        274        258        259        276        275        259        260        277        276        260        261        278        277        261        262        279        278        262        263        280        279        263        264        281        280        264        265        282        281        265        266        283        282        266        267        284        283        267        268        285        284        268        269        286        285        269        270        287        286        270        271        288        287        306        307          1          0        307        308          2          1        308        309          3          2        309        310          4          3        310        311          5          4        311        312          6          5        312        313          7          6        313        314          8          7        314        315          9          8        315        316         10          9        316        317         11         10        317        318         12         11        318        319         13         12        319        320         14         13        320        321         15         14        321        322         16         15        323        324        307        306        324        325        308        307        325        326        309        308        326        327        310        309        327        328        311        310        328        329        312        311        329        330        313        312        330        331        314        313        331        332        315        314        332        333        316        315        333        334        317        316        334        335        318        317        335        336        319        318        336        337        320        319        337        338        321        320        338        339        322        321        340        341        324        323        341        342        325        324        342        343        326        325        343        344        327        326        344        345        328        327        345        346        329        328        346        347        330        329        347        348        331        330        348        349        332        331        349        350        333        332        350        351        334        333        351        352        335        334        352        353        336        335        353        354        337        336        354        355        338        337        355        356        339        338        357        358        341        340        358        359        342        341        359        360        343        342        360        361        344        343        361        362        345        344        362        363        346        345        363        364        347        346        364        365        348        347        365        366        349        348        366        367        350        349        367        368        351        350        368        369        352        351        369        370        353        352        370        371        354        353        371        372        355        354        372        373        356        355        374        375        358        357        375        376        359        358        376        377        360        359        377        378        361        360        378        379        362        361        379        380        363        362        380        381        364        363        381        382        365        364        382        383        366        365        383        384        367        366        384        385        368        367        385        386        369        368        386        387        370        369        387        388        371        370        388        389        372        371        389        390        373        372        391        392        375        374        392        393        376        375        393        394        377        376        394        395        378        377        395        396        379        378        396        397        380        379        397        398        381        380        398        399        382        381        399        400        383        382        400        401        384        383        401        402        385        384        402        403        386        385        403        404        387        386        404        405        388        387        405        406        389        388        406        407        390        389        408        409        392        391        409        410        393        392        410        411        394        393        411        412        395        394        412        413        396        395        413        414        397        396        414        415        398        397        415        416        399        398        416        417        400        399        417        418        401        400        418        419        402        401        419        420        403        402        420        421        404        403        421        422        405        404        422        423        406        405        423        424        407        406        425        426        409        408        426        427        410        409        427        428        411        410        428        429        412        411        429        430        413        412        430        431        414        413        431        432        415        414        432        433        416        415        433        434        417        416        434        435        418        417        435        436        419        418        436        437        420        419        437        438        421        420        438        439        422        421        439        440        423        422        440        441        424        423        442        443        426        425        443        444        427        426        444        445        428        427        445        446        429        428        446        447        430        429        447        448        431        430        448        449        432        431        449        450        433        432        450        451        434        433        451        452        435        434        452        453        436        435        453        454        437        436        454        455        438        437        455        456        439        438        456        457        440        439        457        458        441        440        459        460        443        442        460        461        444        443        461        462        445        444        462        463        446        445        463        464        447        446        464        465        448        447        465        466        449        448        466        467        450        449        467        468        451        450        468        469        452        451        469        470        453        452        470        471        454        453        471        472        455        454        472        473        456        455        473        474        457        456        474        475        458        457        476        477        460        459        477        478        461        460        478        479        462        461        479        480        463        462        480        481        464        463        481        482        465        464        482        483        466        465        483        484        467        466        484        485        468        467        485        486        469        468        486        487        470        469        487        488        471        470        488        489        472        471        489        490        473        472        490        491        474        473        491        492        475        474        493        494        477        476        494        495        478        477        495        496        479        478        496        497        480        479        497        498        481        480        498        499        482        481        499        500        483        482        500        501        484        483        501        502        485        484        502        503        486        485        503        504        487        486        504        505        488        487        505        506        489        488        506        507        490        489        507        508        491        490        508        509        492        491        510        511        494        493        511        512        495        494        512        513        496        495        513        514        497        496        514        515        498        497        515        516        499        498        516        517        500        499        517        518        501        500        518        519        502        501        519        520        503        502        520        521        504        503        521        522        505        504        522        523        506        505        523        524        507        506        524        525        508        507        525        526        509        508        527        528        511        510        528        529        512        511        529        530        513        512        530        531        514        513        531        532        515        514        532        533        516        515        533        534        517        516        534        535        518        517        535        536        519        518        536        537        520        519        537        538        521        520        538        539        522        521        539        540        523        522        540        541        524        523        541        542        525        524        542        543        526        525        544        545        528        527        545        546        529        528        546        547        530        529        547        548        531        530        548        549        532        531        549        550        533        532        550        551        534        533        551        552        535        534        552        553        536        535        553        554        537        536        554        555        538        537        555        556        539        538        556        557        540        539        557        558        541        540        558        559        542        541        559        560        543        542        561        562        545        544        562        563        546        545        563        564        547        546        564        565        548        547        565        566        549        548        566        567        550        549        567        568        551        550        568        569        552        551        569        570        553        552        570        571        554        553        571        572        555        554        572        573        556        555        573        574        557        556        574        575        558        557        575        576        559        558        576        577        560        559        578        579        596        595        579        580        597        596        580        581        598        597        581        582        599        598        582        583        600        599        583        584        601        600        584        585        602        601        585        586        603        602        586        587        604        603        587        588        605        604        588        589        606        605        589        590        607        606        590        591        608        607        591        592        609        608        592        593        610        609        593        594        611        610        595        596        613        612        596        597        614        613        597        598        615        614        598        599        616        615        599        600        617        616        600        601        618        617        601        602        619        618        602        603        620        619        603        604        621        620        604        605        622        621        605        606        623        622        606        607        624        623        607        608        625        624        608        609        626        625        609        610        627        626        610        611        628        627        612        613        630        629        613        614        631        630        614        615        632        631        615        616        633        632        616        617        634        633        617        618        635        634        618        619        636        635        619        620        637        636        620        621        638        637        621        622        639        638        622        623        640        639        623        624        641        640        624        625        642        641        625        626        643        642        626        627        644        643        627        628        645        644        629        630        647        646        630        631        648        647        631        632        649        648        632        633        650        649        633        634        651        650        634        635        652        651        635        636        653        652        636        637        654        653        637        638        655        654        638        639        656        655        639        640        657        656        640        641        658        657        641        642        659        658        642        643        660        659        643        644        661        660        644        645        662        661        646        647        664        663        647        648        665        664        648        649        666        665        649        650        667        666        650        651        668        667        651        652        669        668        652        653        670        669        653        654        671        670        654        655        672        671        655        656        673        672        656        657        674        673        657        658        675        674        658        659        676        675        659        660        677        676        660        661        678        677        661        662        679        678        663        664        681        680        664        665        682        681        665        666        683        682        666        667        684        683        667        668        685        684        668        669        686        685        669        670        687        686        670        671        688        687        671        672        689        688        672        673        690        689        673        674        691        690        674        675        692        691        675        676        693        692        676        677        694        693        677        678        695        694        678        679        696        695        680        681        698        697        681        682        699        698        682        683        700        699        683        684        701        700        684        685        702        701        685        686        703        702        686        687        704        703        687        688        705        704        688        689        706        705        689        690        707        706        690        691        708        707        691        692        709        708        692        693        710        709        693        694        711        710        694        695        712        711        695        696        713        712        697        698        715        714        698        699        716        715        699        700        717        716        700        701        718        717        701        702        719        718        702        703        720        719        703        704        721        720        704        705        722        721        705        706        723        722        706        707        724        723        707        708        725        724        708        709        726        725        709        710        727        726        710        711        728        727        711        712        729        728        712        713        730        729        714        715        732        731        715        716        733        732        716        717        734        733        717        718        735        734        718        719        736        735        719        720        737        736        720        721        738        737        721        722        739        738        722        723        740        739        723        724        741        740        724        725        742        741        725        726        743        742        726        727        744        743        727        728        745        744        728        729        746        745        729        730        747        746        731        732        749        748        732        733        750        749        733        734        751        750        734        735        752        751        735        736        753        752        736        737        754        753        737        738        755        754        738        739        756        755        739        740        757        756        740        741        758        757        741        742        759        758        742        743        760        759        743        744        761        760        744        745        762        761        745        746        763        762        746        747        764        763        748        749        766        765        749        750        767        766        750        751        768        767        751        752        769        768        752        753        770        769        753        754        771        770        754        755        772        771        755        756        773        772        756        757        774        773        757        758        775        774        758        759        776        775        759        760        777        776        760        761        778        777        761        762        779        778        762        763        780        779        763        764        781        780        765        766        783        782        766        767        784        783        767        768        785        784        768        769        786        785        769        770        787        786        770        771        788        787        771        772        789        788        772        773        790        789        773        774        791        790        774        775        792        791        775        776        793        792        776        777        794        793        777        778        795        794        778        779        796        795        779        780        797        796        780        781        798        797        782        783        800        799        783        784        801        800        784        785        802        801        785        786        803        802        786        787        804        803        787        788        805        804        788        789        806        805        789        790        807        806        790        791        808        807        791        792        809        808        792        793        810        809        793        794        811        810        794        795        812        811        795        796        813        812        796        797        814        813        797        798        815        814        799        800        817        816        800        801        818        817        801        802        819        818        802        803        820        819        803        804        821        820        804        805        822        821        805        806        823        822        806        807        824        823        807        808        825        824        808        809        826        825        809        810        827        826        810        811        828        827        811        812        829        828        812        813        830        829        813        814        831        830        814        815        832        831        816        817        834        833        817        818        835        834        818        819        836        835        819        820        837        836        820        821        838        837        821        822        839        838        822        823        840        839        823        824        841        840        824        825        842        841        825        826        843        842        826        827        844        843        827        828        845        844        828        829        846        845        829        830        847        846        830        831        848        847        831        832        849        848        833        834        562        561        834        835        563        562        835        836        564        563        836        837        565        564        837        838        566        565        838        839        567        566        839        840        568        567        840        841        569        568        841        842        570        569        842        843        571        570        843        844        572        571        844        845        573        572        845        846        574        573        846        847        575        574        847        848        576        575        848        849        577        576        884        885        579        578        885        886        580        579        886        887        581        580        887        888        582        581        888        889        583        582        889        890        584        583        890        891        585        584        891        892        586        585        892        893        587        586        893        894        588        587        894        895        589        588        895        896        590        589        896        897        591        590        897        898        592        591        898        899        593        592        899        900        594        593        901        902        885        884        902        903        886        885        903        904        887        886        904        905        888        887        905        906        889        888        906        907        890        889        907        908        891        890        908        909        892        891        909        910        893        892        910        911        894        893        911        912        895        894        912        913        896        895        913        914        897        896        914        915        898        897        915        916        899        898        916        917        900        899        918        919        902        901        919        920        903        902        920        921        904        903        921        922        905        904        922        923        906        905        923        924        907        906        924        925        908        907        925        926        909        908        926        927        910        909        927        928        911        910        928        929        912        911        929        930        913        912        930        931        914        913        931        932        915        914        932        933        916        915        933        934        917        916        935        936        919        918        936        937        920        919        937        938        921        920        938        939        922        921        939        940        923        922        940        941        924        923        941        942        925        924        942        943        926        925        943        944        927        926        944        945        928        927        945        946        929        928        946        947        930        929        947        948        931        930        948        949        932        931        949        950        933        932        950        951        934        933        952        953        936        935        953        954        937        936        954        955        938        937        955        956        939        938        956        957        940        939        957        958        941        940        958        959        942        941        959        960        943        942        960        961        944        943        961        962        945        944        962        963        946        945        963        964        947        946        964        965        948        947        965        966        949        948        966        967        950        949        967        968        951        950        969        970        953        952        970        971        954        953        971        972        955        954        972        973        956        955        973        974        957        956        974        975        958        957        975        976        959        958        976        977        960        959        977        978        961        960        978        979        962        961        979        980        963        962        980        981        964        963        981        982        965        964        982        983        966        965        983        984        967        966        984        985        968        967        986        987        970        969        987        988        971        970        988        989        972        971        989        990        973        972        990        991        974        973        991        992        975        974        992        993        976        975        993        994        977        976        994        995        978        977        995        996        979        978        996        997        980        979        997        998        981        980        998        999        982        981        999       1000        983        982       1000       1001        984        983       1001       1002        985        984       1003       1004        987        986       1004       1005        988        987       1005       1006        989        988       1006       1007        990        989       1007       1008        991        990       1008       1009        992        991       1009       1010        993        992       1010       1011        994        993       1011       1012        995        994       1012       1013        996        995       1013       1014        997        996       1014       1015        998        997       1015       1016        999        998       1016       1017       1000        999       1017       1018       1001       1000       1018       1019       1002       1001       1020       1021       1004       1003       1021       1022       1005       1004       1022       1023       1006       1005       1023       1024       1007       1006       1024       1025       1008       1007       1025       1026       1009       1008       1026       1027       1010       1009       1027       1028       1011       1010       1028       1029       1012       1011       1029       1030       1013       1012       1030       1031       1014       1013       1031       1032       1015       1014       1032       1033       1016       1015       1033       1034       1017       1016       1034       1035       1018       1017       1035       1036       1019       1018       1037       1038       1021       1020       1038       1039       1022       1021       1039       1040       1023       1022       1040       1041       1024       1023       1041       1042       1025       1024       1042       1043       1026       1025       1043       1044       1027       1026       1044       1045       1028       1027       1045       1046       1029       1028       1046       1047       1030       1029       1047       1048       1031       1030       1048       1049       1032       1031       1049       1050       1033       1032       1050       1051       1034       1033       1051       1052       1035       1034       1052       1053       1036       1035       1054       1055       1038       1037       1055       1056       1039       1038       1056       1057       1040       1039       1057       1058       1041       1040       1058       1059       1042       1041       1059       1060       1043       1042       1060       1061       1044       1043       1061       1062       1045       1044       1062       1063       1046       1045       1063       1064       1047       1046       1064       1065       1048       1047       1065       1066       1049       1048       1066       1067       1050       1049       1067       1068       1051       1050       1068       1069       1052       1051       1069       1070       1053       1052       1071       1072       1055       1054       1072       1073       1056       1055       1073       1074       1057       1056       1074       1075       1058       1057       1075       1076       1059       1058       1076       1077       1060       1059       1077       1078       1061       1060       1078       1079       1062       1061       1079       1080       1063       1062       1080       1081       1064       1063       1081       1082       1065       1064       1082       1083       1066       1065       1083       1084       1067       1066       1084       1085       1068       1067       1085       1086       1069       1068       1086       1087       1070       1069       1088       1089       1072       1071       1089       1090       1073       1072       1090       1091       1074       1073       1091       1092       1075       1074       1092       1093       1076       1075       1093       1094       1077       1076       1094       1095       1078       1077       1095       1096       1079       1078       1096       1097       1080       1079       1097       1098       1081       1080       1098       1099       1082       1081       1099       1100       1083       1082       1100       1101       1084       1083       1101       1102       1085       1084       1102       1103       1086       1085       1103       1104       1087       1086       1105       1106       1089       1088       1106       1107       1090       1089       1107       1108       1091       1090       1108       1109       1092       1091       1109       1110       1093       1092       1110       1111       1094       1093       1111       1112       1095       1094       1112       1113       1096       1095       1113       1114       1097       1096       1114       1115       1098       1097       1115       1116       1099       1098       1116       1117       1100       1099       1117       1118       1101       1100       1118       1119       1102       1101       1119       1120       1103       1102       1120       1121       1104       1103       1122       1123       1106       1105       1123       1124       1107       1106       1124       1125       1108       1107       1125       1126       1109       1108       1126       1127       1110       1109       1127       1128       1111       1110       1128       1129       1112       1111       1129       1130       1113       1112       1130       1131       1114       1113       1131       1132       1115       1114       1132       1133       1116       1115       1133       1134       1117       1116       1134       1135       1118       1117       1135       1136       1119       1118       1136       1137       1120       1119       1137       1138       1121       1120        272        273       1123       1122        273        274       1124       1123        274        275       1125       1124        275        276       1126       1125        276        277       1127       1126        277        278       1128       1127        278        279       1129       1128        279        280       1130       1129        280        281       1131       1130        281        282       1132       1131        282        283       1133       1132        283        284       1134       1133        284        285       1135       1134        285        286       1136       1135        286        287       1137       1136        287        288       1138       1137 </DataArray>
<DataArray type="Int32"                                    Name="offsets"                                                      NumberOfComponents=" 1" format="ascii">
         4          8         12         16         20         24         28         32         36         40         44         48         52         56         60         64         68         72         76         80         84         88         92         96        100        104        108        112        116        120        124        128        132        136        140        144        148        152        156        160        164        168        172        176        180        184        188        192        196        200        204        208        212        216        220        224        228        232        236        240        244        248        252        256        260        264        268        272        276        280        284        288        292        296        300        304        308        312        316        320        324        328        332        336        340        344        348        352        356        360        364        368        372        376        380        384        388        392        396        400        404        408        412        416        420        424        428        432        436        440        444        448        452        456        460        464        468        472        476        480        484        488        492        496        500        504        508        512        516        520        524        528        532        536        540        544        548        552        556        560        564        568        572        576        580        584        588        592        596        600        604        608        612        616        620        624        628        632        636        640        644        648        652        656        660        664        668        672        676        680        684        688        692        696        700        704        708        712        716        720        724        728        732        736        740        744        748        752        756        760        764        768        772        776        780        784        788        792        796        800        804        808        812        816        820        824        828        832        836        840        844        848        852        856        860        864        868        872        876        880        884        888        892        896        900        904        908        912        916        920        924        928        932        936        940        944        948        952        956        960        964        968        972        976        980        984        988        992        996       1000       1004       1008       1012       1016       1020       1024       1028       1032       1036       1040       1044       1048       1052       1056       1060       1064       1068       1072       1076       1080       1084       1088       1092       1096       1100       1104       1108       1112       1116       1120       1124       1128       1132       1136       1140       1144       1148       1152       1156       1160       1164       1168       1172       1176       1180       1184       1188       1192       1196       1200       1204       1208       1212       1216       1220       1224       1228       1232       1236       1240       1244       1248       1252       1256       1260       1264       1268       1272       1276       1280       1284       1288       1292       1296       1300       1304       1308       1312       1316       1320       1324       1328       1332       1336       1340       1344       1348       1352       1356       1360       1364       1368       1372       1376       1380       1384       1388       1392       1396       1400       1404       1408       1412       1416       1420       1424       1428       1432       1436       1440       1444       1448       1452       1456       1460       1464       1468       1472       1476       1480       1484       1488       1492       1496       1500       1504       1508       1512       1516       1520       1524       1528       1532       1536       1540       1544       1548       1552       1556       1560       1564       1568       1572       1576       1580       1584       1588       1592       1596       1600       1604       1608       1612       1616       1620       1624       1628       1632       1636       1640       1644       1648       1652       1656       1660       1664       1668       1672       1676       1680       1684       1688       1692       1696       1700       1704       1708       1712       1716       1720       1724       1728       1732       1736       1740       1744       1748       1752       1756       1760       1764       1768       1772       1776       1780       1784       1788       1792       1796       1800       1804       1808       1812       1816       1820       1824       1828       1832       1836       1840       1844       1848       1852       1856       1860       1864       1868       1872       1876       1880       1884       1888       1892       1896       1900       1904       1908       1912       1916       1920       1924       1928       1932       1936       1940       1944       1948       1952       1956       1960       1964       1968       1972       1976       1980       1984       1988       1992       1996       2000       2004       2008       2012       2016       2020       2024       2028       2032       2036       2040       2044       2048       2052       2056       2060       2064       2068       2072       2076       2080       2084       2088       2092       2096       2100       2104       2108       2112       2116       2120       2124       2128       2132       2136       2140       2144       2148       2152       2156       2160       2164       2168       2172       2176       2180       2184       2188       2192       2196       2200       2204       2208       2212       2216       2220       2224       2228       2232       2236       2240       2244       2248       2252       2256       2260       2264       2268       2272       2276       2280       2284       2288       2292       2296       2300       2304       2308       2312       2316       2320       2324       2328       2332       2336       2340       2344       2348       2352       2356       2360       2364       2368       2372       2376       2380       2384       2388       2392       2396       2400       2404       2408       2412       2416       2420       2424       2428       2432       2436       2440       2444       2448       2452       2456       2460       2464       2468       2472       2476       2480       2484       2488       2492       2496       2500       2504       2508       2512       2516       2520       2524       2528       2532       2536       2540       2544       2548       2552       2556       2560       2564       2568       2572       2576       2580       2584       2588       2592       2596       2600       2604       2608       2612       2616       2620       2624       2628       2632       2636       2640       2644       2648       2652       2656       2660       2664       2668       2672       2676       2680       2684       2688       2692       2696       2700       2704       2708       2712       2716       2720       2724       2728       2732       2736       2740       2744       2748       2752       2756       2760       2764       2768       2772       2776       2780       2784       2788       2792       2796       2800       2804       2808       2812       2816       2820       2824       2828       2832       2836       2840       2844       2848       2852       2856       2860       2864       2868       2872       2876       2880       2884       2888       2892       2896       2900       2904       2908       2912       2916       2920       2924       2928       2932       2936       2940       2944       2948       2952       2956       2960       2964       2968       2972       2976       2980       2984       2988       2992       2996       3000       3004       3008       3012       3016       3020       3024       3028       3032       3036       3040       3044       3048       3052       3056       3060       3064       3068       3072       3076       3080       3084       3088       3092       3096       3100       3104       3108       3112       3116       3120       3124       3128       3132       3136       3140       3144       3148       3152       3156       3160       3164       3168       3172       3176       3180       3184       3188       3192       3196       3200       3204       3208       3212       3216       3220       3224       3228       3232       3236       3240       3244       3248       3252       3256       3260       3264       3268       3272       3276       3280       3284       3288       3292       3296       3300       3304       3308       3312       3316       3320       3324       3328       3332       3336       3340       3344       3348       3352       3356       3360       3364       3368       3372       3376       3380       3384       3388       3392       3396       3400       3404       3408       3412       3416       3420       3424       3428       3432       3436       3440       3444       3448       3452       3456       3460       3464       3468       3472       3476       3480       3484       3488       3492       3496       3500       3504       3508       3512       3516       3520       3524       3528       3532       3536       3540       3544       3548       3552       3556       3560       3564       3568       3572       3576       3580       3584       3588       3592       3596       3600       3604       3608       3612       3616       3620       3624       3628       3632       3636       3640       3644       3648       3652       3656       3660       3664       3668       3672       3676       3680       3684       3688       3692       3696       3700       3704       3708       3712       3716       3720       3724       3728       3732       3736       3740       3744       3748       3752       3756       3760       3764       3768       3772       3776       3780       3784       3788       3792       3796       3800       3804       3808       3812       3816       3820       3824       3828       3832       3836       3840       3844       3848       3852       3856       3860       3864       3868       3872       3876       3880       3884       3888       3892       3896       3900       3904       3908       3912       3916       3920       3924       3928       3932       3936       3940       3944       3948       3952       3956       3960       3964       3968       3972       3976       3980       3984       3988       3992       3996       4000       4004       4008       4012       4016       4020       4024       4028       4032       4036       4040       4044       4048       4052       4056       4060       4064       4068       4072       4076       4080       4084       4088       4092       4096 </DataArray>
<DataArray type="UInt8"                                    Name="types"                                                      NumberOfComponents=" 1" format="ascii">
         9          9          9          9          9          9          9          9          9          9          9          9          9          9          9          9          9          9          9          9          9          9          9          9          9          9          9          9          9          9          9          9          9          9          9          9          9          9          9          9          9          9          9          9          9          9          9          9          9          9          9          9          9          9          9          9          9          9          9          9          9          9          9          9          9          9          9          9          9          9          9          9          9          9          9          9          9          9          9          9          9          9          9          9          9          9          9          9          9          9          9          9          9          9          9          9          9          9          9          9          9          9          9          9          9          9          9          9          9          9          9          9          9          9          9          9          9          9          9          9          9          9          9          9          9          9          9          9          9          9          9          9          9          9          9          9          9          9          9          9          9          9          9          9          9          9          9          9          9          9          9          9          9          9          9          9          9          9          9          9          9          9          9          9          9          9          9          9          9          9          9          9          9          9          9          9          9          9          9          9          9          9          9          9          9          9          9          9          9          9          9          9          9          9          9          9          9          9          9          9          9          9          9          9          9          9          9          9          9          9          9          9          9          9          9          9          9          9          9          9          9          9          9          9          9          9          9          9          9          9          9          9          9          9          9          9          9          9          9          9          9          9          9          9          9          9          9          9          9          9          9          9          9          9          9          9          9          9          9          9          9          9          9          9          9          9          9          9          9          9          9          9          9          9          9          9          9          9          9          9          9          9          9          9          9          9          9          9          9          9          9          9          9          9          9          9          9          9          9          9          9          9          9          9          9          9          9          9          9          9          9          9          9          9          9          9          9          9          9          9          9          9          9          9          9          9          9          9          9          9          9          9          9          9          9          9          9          9          9          9          9          9          9          9          9          9          9          9          9          9          9          9          9          9          9          9          9          9          9          9          9          9          9          9          9          9          9          9          9          9          9          9          9          9          9          9          9          9          9          9          9          9          9          9          9          9          9          9          9          9          9          9          9          9          9          9          9          9          9          9          9          9          9          9          9          9          9          9          9          9          9          9          9          9          9          9          9          9          9          9          9          9          9          9          9          9          9          9          9          9          9          9          9          9          9          9          9          9          9          9          9          9          9          9          9          9          9          9          9          9          9          9          9          9          9          9          9          9          9          9          9          9          9          9          9          9          9          9          9          9          9          9          9          9          9          9          9          9          9          9          9          9          9          9          9          9          9          9          9          9          9          9          9          9          9          9          9          9          9          9          9          9          9          9          9          9          9          9          9          9          9          9          9          9          9          9          9          9          9          9          9          9          9          9          9          9          9          9          9          9          9          9          9          9          9          9          9          9          9          9          9          9          9          9          9          9          9          9          9          9          9          9          9          9          9          9          9          9          9          9          9          9          9          9          9          9          9          9          9          9          9          9          9          9          9          9          9          9          9          9          9          9          9          9          9          9          9          9          9          9          9          9          9          9          9          9          9          9          9          9          9          9          9          9          9          9          9          9          9          9          9          9          9          9          9          9          9          9          9          9          9          9          9          9          9          9          9          9          9          9          9          9          9          9          9          9          9          9          9          9          9          9          9          9          9          9          9          9          9          9          9          9          9          9          9          9          9          9          9          9          9          9          9          9          9          9          9          9          9          9          9          9          9          9          9          9          9          9          9          9          9          9          9          9          9          9          9          9          9          9          9          9          9          9          9          9          9          9          9          9          9          9          9          9          9          9          9          9          9          9          9          9          9          9          9          9          9          9          9          9          9          9          9          9          9          9          9          9          9          9          9          9          9          9          9          9          9          9          9          9          9          9          9          9          9          9          9          9          9          9          9          9          9          9          9          9          9          9          9          9          9          9          9          9          9          9          9          9          9          9          9          9          9          9          9          9          9          9          9          9          9          9          9          9          9          9          9          9          9          9          9          9          9          9          9          9          9          9          9          9          9          9          9          9          9          9          9          9          9          9          9          9          9          9          9          9          9          9          9          9          9          9          9          9          9          9          9          9          9          9          9          9          9          9          9          9          9          9          9          9          9          9          9          9          9          9          9          9          9          9          9          9          9          9          9          9          9          9          9          9          9          9          9          9          9          9          9          9          9          9          9          9          9          9          9          9          9          9          9          9          9          9          9          9          9          9          9          9          9          9          9          9          9          9          9          9          9          9          9          9          9          9          9          9          9          9          9          9          9          9          9          9          9          9          9          9          9          9          9          9          9          9          9          9          9          9          9          9          9          9          9          9          9          9          9          9          9          9          9          9          9          9          9          9          9          9          9          9          9          9          9          9          9          9          9          9          9          9          9          9          9          9          9          9          9          9          9          9          9          9          9          9          9          9          9          9          9          9          9          9          9          9          9          9          9          9          9          9          9          9          9          9          9          9          9          9          9          9          9          9          9          9          9          9          9          9          9          9          9          9          9          9          9          9          9          9          9          9          9          9          9          9          9          9 </DataArray>
</Cells>
<CellData>
<DataArray type="Int32"                                    Name="material"                                                      NumberOfComponents=" 1" format="ascii">
         1          1          1          1          1          1          1          1          1          1          1          1          1          1          1          1          1          1          1          1          1          1          1          1          1          1          1          1          1          1          1          1          1          1          1          1          1          1          1          1          1          1          1          1          1          1          1          1          1          1          1          1          1          1          1          1          1          1          1          1          1          1          1          1          1          1          1          1          1          1          1          1          1          1          1          1          1          1          1          1          1          1          1          1          1          1          1          1          1          1          1          1          1          1          1          1          1          1          1          1          1          1          1          1          1          1          1          1          1          1          1          1          1          1          1          1          1          1          1          1          1          1          1          1          1          1          1          1          1          1          1          1          1          1          1          1          1          1          1          1          1          1          1          1          1          1          1          1          1          1          1          1          1          1          1          1          1          1          1          1          1          1          1          1          1          1          1          1          1          1          1          1          1          1          1          1          1          1          1          1          1          1          1          1          1          1          1          1          1          1          1          1          1          1          1          1          1          1          1          1          1          1          1          1          1          1          1          1          1          1          1          1          1          1          1          1          1          1          1          1          1          1          1          1          1          1          1          1          1          1          1          1          1          1          1          1          1          1          1          1          1          1          1          1          1          1          1          1          1          1          1          1          1          1          1          1          1          1          1          1          1          1          1          1          1          1          1          1          1          1          1          1          1          1          1          1          1          1          1          1          1          1          1          1          1          1          1          1          1          1          1          1          1          1          1          1          1          1          1          1          1          1          1          1          1          1          1          1          1          1          1          1          1          1          1          1          1          1          1          1          1          1          1          1          1          1          1          1          1          1          1          1          1          1          1          1          1          1          1          1          1          1          1          1          1          1          1          1          1          1          1          1          1          1          1          1          1          1          1          1          1          1          1          1          1          1          1          1          1          1          1          1          1          1          1          1          1          1          1          1          1          1          1          1          1          1          1          1          1          1          1          1          1          1          1          1          1          1          1          1          1          1          1          1          1          1          1          1          1          1          1          1          1          1          1          1          1          1          1          1          1          1          1          1          1          1          1          1          1          1          1          1          1          1          1          1          1          1          1          1          1          1          1          1          1          1          1          1          1          1          1          1          1          1          1          1          1          1          1          1          1          1          1          1          1          1          1          1          1          1          1          1          1          1          1          1          1          1          1          1          1          1          1          1          1          1          1          1          1          1          1          1          1          1          1          1          1          1          1          1          1          1          1          1          1          1          1          1          1          1          1          1          1          1          1          1          1          1          1          1          1          1          1          1          1          1          1          1          1          1          1          1          1          1          1          1          1          1          1          1          1          1          1          1          1          1          1          1          1          1          1          1          1          1          1          1          1          1          1          1          1          1          1          1          1          1          1          1          1          1          1          1          1          1          1          1          1          1          1          1          1          1          1          1          1          1          1          1          1          1          1          1          1          1          1          1          1          1          1          1          1          1          1          1          1          1          1          1          1          1          1          1          1          1          1          1          1          1          1          1          1          1          1          1          1          1          1          1          1          1          1          1          1          1          1          1          1          1          1          1          1          1          1          1          1          1          1          1          1          1          1          1          1          1          1          1          1          1          1          1          1          1          1          1          1          1          1          1          1          1          1          1          1          1          1          1          1          1          1          1          1          1          1          1          1          1          1          1          1          1          1          1          1          1          1          1          1          1          1          1          1          1          1          1          1          1          1          1          1          1          1          1          1          1          1          1          1          1          1          1          1          1          1          1          1          1          1          1          1          1          1          1          1          1          1          1          1          1          1          1          1          1          1          1          1          1          1          1          1          1          1          1          1          1          1          1          1          1          1          1          1          1          1          1          1          1          1          1          1          1          1          1          1          1          1          1          1          1          1          1          1          1          1          1          1          1          1          1          1          1          1          1          1          1          1          1          1          1          1          1          1          1          1          1          1          1          1          1          1          1          1          1          1          1          1          1          1          1          1          1          1          1          1          1          1          1          1          1          1          1          1          1          1          1          1          1          1          1          1          1          1          1          1          1          1          1          1          1          1          1          1          1          1          1          1          1          1          1          1          1          1          1          1          1          1          1          1          1          1          1          1          1          1          1          1          1          1          1          1          1          1          1          1          1          1          1          1          1          1          1          1          1          1          1          1          1          1          1          1          1          1          1          1          1          1          1          1          1          1          1          1          1          1          1          1          1          1          1          1          1          1          1          1          1          1          1          1          1          1          1          1          1          1          1          1          1          1          1          1          1          1          1          1          1          1          1          1          1          1          1          1          1          1          1          1          1          1          1          1          1          1          1          1          1          1          1          1          1          1          1          1          1          1          1          1          1          1          1          1          1          1          1          1          1          1          1          1          1          1          1          1          1          1          1          1          1          1          1          1          1          1          1          1          1          1          1          1          1          1          1          1          1          1          1          1          1          1          1          1          1          1          1          1          1 </DataArray>
</CellData>
<PointData>
<DataArray type="Float64"                                    Name="u"                                                      NumberOfComponents=" 3" format="ascii">
              0.000006279              -0.000000000               0.999999998              -0.000003502               0.000000000               0.999999998              -0.000008318               0.000000000               0.999999998              -0.000011171              -0.000000000               0.999999998              -0.000013282               0.000000000               0.999999998              -0.000015272               0.000000000               0.999999998              -0.000017477               0.000000000               0.999999998              -0.000020032               0.000000000               0.999999998              -0.000023117               0.000000000               0.999999998              -0.000026789               0.000000000               0.999999998              -0.000030924              -0.000000000               0.999999998              -0.000035541              -0.000000000               0.999999998              -0.000040657               0.000000000               0.999999998              -0.000046282              -0.000000000               0.999999998              -0.000052420              -0.000000000               0.999999998              -0.000059045               0.000000000               0.999999998              -0.000066130              -0.000000000               0.999999998               0.000006185               0.000024187               0.999999998              -0.000003277               0.000021843               0.999999998              -0.000007915               0.000021345               0.999999998              -0.000010668               0.000021956               0.999999998              -0.000012753               0.000023239               0.999999998              -0.000014835               0.000025033               0.999999998              -0.000017145               0.000027203               0.999999998              -0.000019864               0.000029597               0.999999998              -0.000023078               0.000032304               0.999999998              -0.000026805               0.000035148               0.999999998              -0.000031096               0.000038174               0.999999998              -0.000035909               0.000041276               0.999999998              -0.000041219               0.000044610               0.999999998              -0.000047041               0.000048148               0.999999998              -0.000053368               0.000051899               0.999999998              -0.000060145               0.000055767               0.999999998              -0.000067334               0.000059701               0.999999998               0.000005925               0.000048138               0.999999998              -0.000002581               0.000043378               0.999999998              -0.000006671               0.000042459               0.999999998              -0.000009220               0.000043739               0.999999998              -0.000011359               0.000046428               0.999999998              -0.000013626               0.000050053               0.999999998              -0.000016259               0.000054359               0.999999998              -0.000019371               0.000059310               0.999999998              -0.000023004               0.000064629               0.999999998              -0.000027203               0.000070329               0.999999998              -0.000031989               0.000076318               0.999999998              -0.000037257               0.000082633               0.999999998              -0.000043046               0.000089298               0.999999998              -0.000049377               0.000096429               0.999999998              -0.000056192               0.000103759               0.999999998              -0.000063431               0.000111341               0.999999998              -0.000071044               0.000119103               0.999999998               0.000005497               0.000071623               0.999999998              -0.000001409               0.000064406               0.999999998              -0.000004728               0.000063217               0.999999998              -0.000007084               0.000065355               0.999999998              -0.000009380               0.000069552               0.999999998              -0.000012062               0.000075122               0.999999998              -0.000015264               0.000081745               0.999999998              -0.000019018               0.000089125               0.999999998              -0.000023397               0.000097135               0.999999998              -0.000028365               0.000105654               0.999999998              -0.000033912               0.000114647               0.999999998              -0.000040031               0.000124030               0.999999998              -0.000046661               0.000134007               0.999999998              -0.000053789               0.000144586               0.999999998              -0.000061361               0.000155500               0.999999998              -0.000069307               0.000166591               0.999999998              -0.000077564               0.000178052               0.999999998               0.000004984               0.000094455               0.999999998               0.000000240               0.000084829               0.999999998              -0.000002270               0.000083576               0.999999998              -0.000004558               0.000086738               0.999999998              -0.000007248               0.000092540               0.999999998              -0.000010621               0.000100101               0.999999998              -0.000014643               0.000108984               0.999999998              -0.000019344               0.000118850               0.999999998              -0.000024675               0.000129485               0.999999998              -0.000030607               0.000140809               0.999999998              -0.000037143               0.000152748               0.999999998              -0.000044276               0.000165354               0.999999998              -0.000051935               0.000178596               0.999999998              -0.000060025               0.000192573               0.999999998              -0.000068503               0.000206873               0.999999998              -0.000077284               0.000221222               0.999999998              -0.000086288               0.000235937               0.999999998               0.000004451               0.000116462               0.999999998               0.000002254               0.000104525               0.999999998               0.000000481               0.000103407               0.999999998              -0.000001972               0.000107736               0.999999998              -0.000005392               0.000115233               0.999999998              -0.000009687               0.000124870               0.999999998              -0.000014787               0.000136010               0.999999998              -0.000020582               0.000148318               0.999999998              -0.000027065               0.000161599               0.999999998              -0.000034144               0.000175736               0.999999998              -0.000041775               0.000190678               0.999999998              -0.000049989               0.000206520               0.999999998              -0.000058704               0.000223094               0.999999998              -0.000067830               0.000240317               0.999999998              -0.000077156               0.000257714               0.999999998              -0.000086626               0.000275132               0.999999998              -0.000096319               0.000292879               0.999999998               0.000003906               0.000137405               0.999999998               0.000004560               0.000123414               0.999999998               0.000003310               0.000122670               0.999999998               0.000000339               0.000128249               0.999999998              -0.000004024               0.000137547               0.999999998              -0.000009446               0.000149223               0.999999998              -0.000015746               0.000162626               0.999999998              -0.000022780               0.000177413               0.999999998              -0.000030426               0.000193416               0.999999998              -0.000038587               0.000210391               0.999999998              -0.000047294               0.000228444               0.999999998              -0.000056590               0.000247528               0.999999998              -0.000066305               0.000267424               0.999999998              -0.000076233               0.000287585               0.999999998              -0.000086303               0.000307881               0.999999998              -0.000096513               0.000328319               0.999999998              -0.000107020               0.000349273               0.999999998               0.000003424               0.000157008               0.999999998               0.000006974               0.000141473               0.999999998               0.000005878               0.000141289               0.999999998               0.000002141               0.000148160               0.999999998              -0.000003321               0.000159284               0.999999998              -0.000009978               0.000173050               0.999999998              -0.000017528               0.000188791               0.999999998              -0.000025698               0.000206150               0.999999998              -0.000034331               0.000224902               0.999999998              -0.000043545               0.000244812               0.999999998              -0.000053332               0.000265997               0.999999998              -0.000063629               0.000288303               0.999999998              -0.000074109               0.000311279               0.999999998              -0.000084761               0.000334594               0.999999998              -0.000095605               0.000358163               0.999999998              -0.000106788               0.000382130               0.999999998              -0.000118447               0.000406969               0.999999998               0.000002914               0.000174886               0.999999998               0.000009309               0.000158706               0.999999998               0.000007966               0.000159089               0.999999998               0.000003362               0.000167346               0.999999998              -0.000003299               0.000180286               0.999999998              -0.000011130               0.000196223               0.999999998              -0.000019762               0.000214369               0.999999998              -0.000028901               0.000234388               0.999999998              -0.000038499               0.000255997               0.999999998              -0.000048681               0.000279028               0.999999998              -0.000059491               0.000303449               0.999999998              -0.000070602               0.000329003               0.999999998              -0.000081825               0.000355284               0.999999998              -0.000093246               0.000382140               0.999999998              -0.000105011               0.000409593               0.999999998              -0.000117199               0.000438023               0.999999998              -0.000129707               0.000467324               0.999999998               0.000002134               0.000191590               0.999999998               0.000010718               0.000176621               0.999999998               0.000010470               0.000175230               0.999999998               0.000006651               0.000181492               0.999999998               0.000000804               0.000192376               0.999999998              -0.000006258               0.000206357               0.999999998              -0.000013996               0.000222523               0.999999998              -0.000022169               0.000240529               0.999999998              -0.000030610               0.000260096               0.999999998              -0.000039450               0.000281056               0.999999998              -0.000048732               0.000303328               0.999999998              -0.000058569               0.000326767               0.999999998              -0.000068625               0.000351262               0.999999998              -0.000078727               0.000376434               0.999999998              -0.000088839               0.000402445               0.999999998              -0.000099101               0.000429287               0.999999998              -0.000109696               0.000457254               0.999999998               0.000001550               0.000206691               0.999999998               0.000011303               0.000193741               0.999999998               0.000012173               0.000191553               0.999999998               0.000009281               0.000196171               0.999999998               0.000004421               0.000205255               0.999999998              -0.000001733               0.000217383               0.999999998              -0.000008475               0.000231781               0.999999998              -0.000015721               0.000247938               0.999999998              -0.000023096               0.000265619               0.999999998              -0.000030591               0.000284700               0.999999998              -0.000038526               0.000305037               0.999999998              -0.000046976               0.000326493               0.999999998              -0.000055814               0.000349009               0.999999998              -0.000064617               0.000372475               0.999999998              -0.000073265               0.000396833               0.999999998              -0.000081701               0.000422111               0.999999998              -0.000090226               0.000448362               0.999999998               0.000001088               0.000219861               0.999999998               0.000011019               0.000209584               0.999999998               0.000012804               0.000207375               0.999999998               0.000010932               0.000210861               0.999999998               0.000007090               0.000218461               0.999999998               0.000002017               0.000229018               0.999999998              -0.000003759               0.000241763               0.999999998              -0.000009942               0.000256309               0.999999998              -0.000016239               0.000272327               0.999999998              -0.000022548               0.000289726               0.999999998              -0.000029175               0.000308343               0.999999998              -0.000036353               0.000328052               0.999999998              -0.000043738               0.000348806               0.999999998              -0.000050970               0.000370596               0.999999998              -0.000057972               0.000393464               0.999999998              -0.000064751               0.000417305               0.999999998              -0.000071377               0.000442068               0.999999998               0.000000732               0.000230881               0.999999998               0.000009912               0.000223601               0.999999998               0.000012242               0.000221916               0.999999998               0.000011269               0.000224819               0.999999998               0.000008456               0.000231306               0.999999998               0.000004509               0.000240617               0.999999998              -0.000000228               0.000252000               0.999999998              -0.000005308               0.000265168               0.999999998              -0.000010472               0.000279828               0.999999998              -0.000015619               0.000295783               0.999999998              -0.000020986               0.000312991               0.999999998              -0.000026756               0.000331313               0.999999998              -0.000032662               0.000350639               0.999999998              -0.000038212               0.000371005               0.999999998              -0.000043529               0.000392418               0.999999998              -0.000048585               0.000414857               0.999999998              -0.000053198               0.000438355               0.999999998               0.000000452               0.000239593               0.999999998               0.000008107               0.000235209               0.999999998               0.000010483               0.000234400               0.999999998               0.000010125               0.000237166               0.999999998               0.000008313               0.000242984               0.999999998               0.000005437               0.000251324               0.999999998               0.000001903               0.000261752               0.999999998              -0.000002033               0.000273890               0.999999998              -0.000005986               0.000287512               0.999999998              -0.000009979               0.000302446               0.999999998              -0.000014000               0.000318583               0.999999998              -0.000018264               0.000335949               0.999999998              -0.000022597               0.000354313               0.999999998              -0.000026754               0.000373607               0.999999998              -0.000030432               0.000393848               0.999999998              -0.000033633               0.000415153               0.999999998              -0.000036187               0.000437564               0.999999998               0.000000228               0.000245917               0.999999998               0.000005729               0.000243863               0.999999998               0.000007660               0.000244032               0.999999998               0.000007644               0.000246960               0.999999998               0.000006590               0.000252433               0.999999998               0.000004790               0.000260217               0.999999998               0.000002451               0.000269980               0.999999998              -0.000000160               0.000281421               0.999999998              -0.000002847               0.000294372               0.999999998              -0.000005563               0.000308664               0.999999998              -0.000008296               0.000324152               0.999999998              -0.000011138               0.000340775               0.999999998              -0.000014007               0.000358408               0.999999998              -0.000016788               0.000377056               0.999999998              -0.000019054               0.000396706               0.999999998              -0.000020655               0.000417421               0.999999998              -0.000021553               0.000439180               0.999999998               0.000000088               0.000249783               0.999999998               0.000002961               0.000249262               0.999999998               0.000004043               0.000250126               0.999999998               0.000004127               0.000253264               0.999999998               0.000003646               0.000258659               0.999999998               0.000002776               0.000266119               0.999999998               0.000001613               0.000275502               0.999999998               0.000000327               0.000286596               0.999999998              -0.000000979               0.000299193               0.999999998              -0.000002339               0.000313064               0.999999998              -0.000003839               0.000328143               0.999999998              -0.000005297               0.000344387               0.999999998              -0.000006622               0.000361712               0.999999998              -0.000007939               0.000380064               0.999999998              -0.000009128               0.000399431               0.999999998              -0.000009649               0.000419878               0.999999998              -0.000009702               0.000441340               0.999999998              -0.000000000               0.000251027               0.999999998              -0.000000000               0.000251056               0.999999998              -0.000000000               0.000252218               0.999999998               0.000000000               0.000255453               0.999999998               0.000000000               0.000260832               0.999999998               0.000000000               0.000268236               0.999999998               0.000000000               0.000277515               0.999999998               0.000000000               0.000288405               0.999999998               0.000000000               0.000300835               0.999999998               0.000000000               0.000314627               0.999999998              -0.000000000               0.000329560               0.999999998              -0.000000000               0.000345679               0.999999998               0.000000000               0.000363006               0.999999998               0.000000000               0.000381347               0.999999998              -0.000000000               0.000400642               0.999999998               0.000000000               0.000420911               0.999999998               0.000000000               0.000442197               0.999999998               0.000006279              -0.000000000               0.999999998              -0.000003502               0.000000000               0.999999998              -0.000008318               0.000000000               0.999999998              -0.000011171              -0.000000000               0.999999998              -0.000013282               0.000000000               0.999999998              -0.000015272               0.000000000               0.999999998              -0.000017477               0.000000000               0.999999998              -0.000020032               0.000000000               0.999999998              -0.000023117               0.000000000               0.999999998              -0.000026789               0.000000000               0.999999998              -0.000030924              -0.000000000               0.999999998              -0.000035541              -0.000000000               0.999999998              -0.000040657               0.000000000               0.999999998              -0.000046282              -0.000000000               0.999999998              -0.000052420              -0.000000000               0.999999998              -0.000059045               0.000000000               0.999999998              -0.000066130              -0.000000000               0.999999998               0.000006185              -0.000024187               0.999999998              -0.000003277              -0.000021843               0.999999998              -0.000007915              -0.000021345               0.999999998              -0.000010668              -0.000021956               0.999999998              -0.000012753              -0.000023239               0.999999998              -0.000014835              -0.000025033               0.999999998              -0.000017145              -0.000027203               0.999999998              -0.000019864              -0.000029597               0.999999998              -0.000023078              -0.000032304               0.999999998              -0.000026805              -0.000035148               0.999999998              -0.000031096              -0.000038174               0.999999998              -0.000035909              -0.000041276               0.999999998              -0.000041219              -0.000044610               0.999999998              -0.000047041              -0.000048148               0.999999998              -0.000053368              -0.000051899               0.999999998              -0.000060145              -0.000055767               0.999999998              -0.000067334              -0.000059701               0.999999998               0.000005925              -0.000048138               0.999999998              -0.000002581              -0.000043378               0.999999998              -0.000006671              -0.000042459               0.999999998              -0.000009220              -0.000043739               0.999999998              -0.000011359              -0.000046428               0.999999998              -0.000013626              -0.000050053               0.999999998              -0.000016259              -0.000054359               0.999999998              -0.000019371              -0.000059310               0.999999998              -0.000023004              -0.000064629               0.999999998              -0.000027203              -0.000070329               0.999999998              -0.000031989              -0.000076318               0.999999998              -0.000037257              -0.000082633               0.999999998              -0.000043046              -0.000089298               0.999999998              -0.000049377              -0.000096429               0.999999998              -0.000056192              -0.000103759               0.999999998              -0.000063431              -0.000111341               0.999999998              -0.000071044              -0.000119103               0.999999998               0.000005497              -0.000071623               0.999999998              -0.000001409              -0.000064406               0.999999998              -0.000004728              -0.000063217               0.999999998              -0.000007084              -0.000065355               0.999999998              -0.000009380              -0.000069552               0.999999998              -0.000012062              -0.000075122               0.999999998              -0.000015264              -0.000081745               0.999999998              -0.000019018              -0.000089125               0.999999998              -0.000023397              -0.000097135               0.999999998              -0.000028365              -0.000105654               0.999999998              -0.000033912              -0.000114647               0.999999998              -0.000040031              -0.000124030               0.999999998              -0.000046661              -0.000134007               0.999999998              -0.000053789              -0.000144586               0.999999998              -0.000061361              -0.000155500               0.999999998              -0.000069307              -0.000166591               0.999999998              -0.000077564              -0.000178052               0.999999998               0.000004984              -0.000094455               0.999999998               0.000000240              -0.000084829               0.999999998              -0.000002270              -0.000083576               0.999999998              -0.000004558              -0.000086738               0.999999998              -0.000007248              -0.000092540               0.999999998              -0.000010621              -0.000100101               0.999999998              -0.000014643              -0.000108984               0.999999998              -0.000019344              -0.000118850               0.999999998              -0.000024675              -0.000129485               0.999999998              -0.000030607              -0.000140809               0.999999998              -0.000037143              -0.000152748               0.999999998              -0.000044276              -0.000165354               0.999999998              -0.000051935              -0.000178596               0.999999998              -0.000060025              -0.000192573               0.999999998              -0.000068503              -0.000206873               0.999999998              -0.000077284              -0.000221222               0.999999998              -0.000086288              -0.000235937               0.999999998               0.000004451              -0.000116462               0.999999998               0.000002254              -0.000104525               0.999999998               0.000000481              -0.000103407               0.999999998              -0.000001972              -0.000107736               0.999999998              -0.000005392              -0.000115233               0.999999998              -0.000009687              -0.000124870               0.999999998              -0.000014787              -0.000136010               0.999999998              -0.000020582              -0.000148318               0.999999998              -0.000027065              -0.000161599               0.999999998              -0.000034144              -0.000175736               0.999999998              -0.000041775              -0.000190678               0.999999998              -0.000049989              -0.000206520               0.999999998              -0.000058704              -0.000223094               0.999999998              -0.000067830              -0.000240317               0.999999998              -0.000077156              -0.000257714               0.999999998              -0.000086626              -0.000275132               0.999999998              -0.000096319              -0.000292879               0.999999998               0.000003906              -0.000137405               0.999999998               0.000004560              -0.000123414               0.999999998               0.000003310              -0.000122670               0.999999998               0.000000339              -0.000128249               0.999999998              -0.000004024              -0.000137547               0.999999998              -0.000009446              -0.000149223               0.999999998              -0.000015746              -0.000162626               0.999999998              -0.000022780              -0.000177413               0.999999998              -0.000030426              -0.000193416               0.999999998              -0.000038587              -0.000210391               0.999999998              -0.000047294              -0.000228444               0.999999998              -0.000056590              -0.000247528               0.999999998              -0.000066305              -0.000267424               0.999999998              -0.000076233              -0.000287585               0.999999998              -0.000086303              -0.000307881               0.999999998              -0.000096513              -0.000328319               0.999999998              -0.000107020              -0.000349273               0.999999998               0.000003424              -0.000157008               0.999999998               0.000006974              -0.000141473               0.999999998               0.000005878              -0.000141289               0.999999998               0.000002141              -0.000148160               0.999999998              -0.000003321              -0.000159284               0.999999998              -0.000009978              -0.000173050               0.999999998              -0.000017528              -0.000188791               0.999999998              -0.000025698              -0.000206150               0.999999998              -0.000034331              -0.000224902               0.999999998              -0.000043545              -0.000244812               0.999999998              -0.000053332              -0.000265997               0.999999998              -0.000063629              -0.000288303               0.999999998              -0.000074109              -0.000311279               0.999999998              -0.000084761              -0.000334594               0.999999998              -0.000095605              -0.000358163               0.999999998              -0.000106788              -0.000382130               0.999999998              -0.000118447              -0.000406969               0.999999998               0.000002914              -0.000174886               0.999999998               0.000009309              -0.000158706               0.999999998               0.000007966              -0.000159089               0.999999998               0.000003362              -0.000167346               0.999999998              -0.000003299              -0.000180286               0.999999998              -0.000011130              -0.000196223               0.999999998              -0.000019762              -0.000214369               0.999999998              -0.000028901              -0.000234388               0.999999998              -0.000038499              -0.000255997               0.999999998              -0.000048681              -0.000279028               0.999999998              -0.000059491              -0.000303449               0.999999998              -0.000070602              -0.000329003               0.999999998              -0.000081825              -0.000355284               0.999999998              -0.000093246              -0.000382140               0.999999998              -0.000105011              -0.000409593               0.999999998              -0.000117199              -0.000438023               0.999999998              -0.000129707              -0.000467324               0.999999998               0.000002134              -0.000191590               0.999999998               0.000010718              -0.000176621               0.999999998               0.000010470              -0.000175230               0.999999998               0.000006651              -0.000181492               0.999999998               0.000000804              -0.000192376               0.999999998              -0.000006258              -0.000206357               0.999999998              -0.000013996              -0.000222523               0.999999998              -0.000022169              -0.000240529               0.999999998              -0.000030610              -0.000260096               0.999999998              -0.000039450              -0.000281056               0.999999998              -0.000048732              -0.000303328               0.999999998              -0.000058569              -0.000326767               0.999999998              -0.000068625              -0.000351262               0.999999998              -0.000078727              -0.000376434               0.999999998              -0.000088839              -0.000402445               0.999999998              -0.000099101              -0.000429287               0.999999998              -0.000109696              -0.000457254               0.999999998               0.000001550              -0.000206691               0.999999998               0.000011303              -0.000193741               0.999999998               0.000012173              -0.000191553               0.999999998               0.000009281              -0.000196171               0.999999998               0.000004421              -0.000205255               0.999999998              -0.000001733              -0.000217383               0.999999998              -0.000008475              -0.000231781               0.999999998              -0.000015721              -0.000247938               0.999999998              -0.000023096              -0.000265619               0.999999998              -0.000030591              -0.000284700               0.999999998              -0.000038526              -0.000305037               0.999999998              -0.000046976              -0.000326493               0.999999998              -0.000055814              -0.000349009               0.999999998              -0.000064617              -0.000372475               0.999999998              -0.000073265              -0.000396833               0.999999998              -0.000081701              -0.000422111               0.999999998              -0.000090226              -0.000448362               0.999999998               0.000001088              -0.000219861               0.999999998               0.000011019              -0.000209584               0.999999998               0.000012804              -0.000207375               0.999999998               0.000010932              -0.000210861               0.999999998               0.000007090              -0.000218461               0.999999998               0.000002017              -0.000229018               0.999999998              -0.000003759              -0.000241763               0.999999998              -0.000009942              -0.000256309               0.999999998              -0.000016239              -0.000272327               0.999999998              -0.000022548              -0.000289726               0.999999998              -0.000029175              -0.000308343               0.999999998              -0.000036353              -0.000328052               0.999999998              -0.000043738              -0.000348806               0.999999998              -0.000050970              -0.000370596               0.999999998              -0.000057972              -0.000393464               0.999999998              -0.000064751              -0.000417305               0.999999998              -0.000071377              -0.000442068               0.999999998               0.000000732              -0.000230881               0.999999998               0.000009912              -0.000223601               0.999999998               0.000012242              -0.000221916               0.999999998               0.000011269              -0.000224819               0.999999998               0.000008456              -0.000231306               0.999999998               0.000004509              -0.000240617               0.999999998              -0.000000228              -0.000252000               0.999999998              -0.000005308              -0.000265168               0.999999998              -0.000010472              -0.000279828               0.999999998              -0.000015619              -0.000295783               0.999999998              -0.000020986              -0.000312991               0.999999998              -0.000026756              -0.000331313               0.999999998              -0.000032662              -0.000350639               0.999999998              -0.000038212              -0.000371005               0.999999998              -0.000043529              -0.000392418               0.999999998              -0.000048585              -0.000414857               0.999999998              -0.000053198              -0.000438355               0.999999998               0.000000452              -0.000239593               0.999999998               0.000008107              -0.000235209               0.999999998               0.000010483              -0.000234400               0.999999998               0.000010125              -0.000237166               0.999999998               0.000008313              -0.000242984               0.999999998               0.000005437              -0.000251324               0.999999998               0.000001903              -0.000261752               0.999999998              -0.000002033              -0.000273890               0.999999998              -0.000005986              -0.000287512               0.999999998              -0.000009979              -0.000302446               0.999999998              -0.000014000              -0.000318583               0.999999998              -0.000018264              -0.000335949               0.999999998              -0.000022597              -0.000354313               0.999999998              -0.000026754              -0.000373607               0.999999998              -0.000030432              -0.000393848               0.999999998              -0.000033633              -0.000415153               0.999999998              -0.000036187              -0.000437564               0.999999998               0.000000228              -0.000245917               0.999999998               0.000005729              -0.000243863               0.999999998               0.000007660              -0.000244032               0.999999998               0.000007644              -0.000246960               0.999999998               0.000006590              -0.000252433               0.999999998               0.000004790              -0.000260217               0.999999998               0.000002451              -0.000269980               0.999999998              -0.000000160              -0.000281421               0.999999998              -0.000002847              -0.000294372               0.999999998              -0.000005563              -0.000308664               0.999999998              -0.000008296              -0.000324152               0.999999998              -0.000011138              -0.000340775               0.999999998              -0.000014007              -0.000358408               0.999999998              -0.000016788              -0.000377056               0.999999998              -0.000019054              -0.000396706               0.999999998              -0.000020655              -0.000417421               0.999999998              -0.000021553              -0.000439180               0.999999998               0.000000088              -0.000249783               0.999999998               0.000002961              -0.000249262               0.999999998               0.000004043              -0.000250126               0.999999998               0.000004127              -0.000253264               0.999999998               0.000003646              -0.000258659               0.999999998               0.000002776              -0.000266119               0.999999998               0.000001613              -0.000275502               0.999999998               0.000000327              -0.000286596               0.999999998              -0.000000979              -0.000299193               0.999999998              -0.000002339              -0.000313064               0.999999998              -0.000003839              -0.000328143               0.999999998              -0.000005297              -0.000344387               0.999999998              -0.000006622              -0.000361712               0.999999998              -0.000007939              -0.000380064               0.999999998              -0.000009128              -0.000399431               0.999999998              -0.000009649              -0.000419878               0.999999998              -0.000009702              -0.000441340               0.999999998               0.000000000              -0.000251027               0.999999998              -0.000000000              -0.000251056               0.999999998              -0.000000000              -0.000252218               0.999999998               0.000000000              -0.000255453               0.999999998               0.000000000              -0.000260832               0.999999998              -0.000000000              -0.000268236               0.999999998              -0.000000000              -0.000277515               0.999999998              -0.000000000              -0.000288405               0.999999998               0.000000000              -0.000300835               0.999999998              -0.000000000              -0.000314627               0.999999998              -0.000000000              -0.000329560               0.999999998              -0.000000000              -0.000345679               0.999999998              -0.000000000              -0.000363006               0.999999998              -0.000000000              -0.000381347               0.999999998               0.000000000              -0.000400642               0.999999998               0.000000000              -0.000420911               0.999999998               0.000000000              -0.000442197               0.999999998              -0.000006279              -0.000000000               0.999999998               0.000003502              -0.000000000               0.999999998               0.000008318              -0.000000000               0.999999998               0.000011171              -0.000000000               0.999999998               0.000013282              -0.000000000               0.999999998               0.000015272               0.000000000               0.999999998               0.000017477               0.000000000               0.999999998               0.000020032               0.000000000               0.999999998               0.000023117               0.000000000               0.999999998               0.000026789               0.000000000               0.999999998               0.000030924               0.000000000               0.999999998               0.000035541               0.000000000               0.999999998               0.000040657               0.000000000               0.999999998               0.000046282               0.000000000               0.999999998               0.000052420               0.000000000               0.999999998               0.000059045               0.000000000               0.999999998               0.000066130              -0.000000000               0.999999998              -0.000006185              -0.000024187               0.999999998               0.000003277              -0.000021843               0.999999998               0.000007915              -0.000021345               0.999999998               0.000010668              -0.000021956               0.999999998               0.000012753              -0.000023239               0.999999998               0.000014835              -0.000025033               0.999999998               0.000017145              -0.000027203               0.999999998               0.000019864              -0.000029597               0.999999998               0.000023078              -0.000032304               0.999999998               0.000026805              -0.000035148               0.999999998               0.000031096              -0.000038174               0.999999998               0.000035909              -0.000041276               0.999999998               0.000041219              -0.000044610               0.999999998               0.000047041              -0.000048148               0.999999998               0.000053368              -0.000051899               0.999999998               0.000060145              -0.000055767               0.999999998               0.000067334              -0.000059701               0.999999998              -0.000005925              -0.000048138               0.999999998               0.000002581              -0.000043378               0.999999998               0.000006671              -0.000042459               0.999999998               0.000009220              -0.000043739               0.999999998               0.000011359              -0.000046428               0.999999998               0.000013626              -0.000050053               0.999999998               0.000016259              -0.000054359               0.999999998               0.000019371              -0.000059310               0.999999998               0.000023004              -0.000064629               0.999999998               0.000027203              -0.000070329               0.999999998               0.000031989              -0.000076318               0.999999998               0.000037257              -0.000082633               0.999999998               0.000043046              -0.000089298               0.999999998               0.000049377              -0.000096429               0.999999998               0.000056192              -0.000103759               0.999999998               0.000063431              -0.000111341               0.999999998               0.000071044              -0.000119103               0.999999998              -0.000005497              -0.000071623               0.999999998               0.000001409              -0.000064406               0.999999998               0.000004728              -0.000063217               0.999999998               0.000007084              -0.000065355               0.999999998               0.000009380              -0.000069552               0.999999998               0.000012062              -0.000075122               0.999999998               0.000015264              -0.000081745               0.999999998               0.000019018              -0.000089125               0.999999998               0.000023397              -0.000097135               0.999999998               0.000028365              -0.000105654               0.999999998               0.000033912              -0.000114647               0.999999998               0.000040031              -0.000124030               0.999999998               0.000046661              -0.000134007               0.999999998               0.000053789              -0.000144586               0.999999998               0.000061361              -0.000155500               0.999999998               0.000069307              -0.000166591               0.999999998               0.000077564              -0.000178052               0.999999998              -0.000004984              -0.000094455               0.999999998              -0.000000240              -0.000084829               0.999999998               0.000002270              -0.000083576               0.999999998               0.000004558              -0.000086738               0.999999998               0.000007248              -0.000092540               0.999999998               0.000010621              -0.000100101               0.999999998               0.000014643              -0.000108984               0.999999998               0.000019344              -0.000118850               0.999999998               0.000024675              -0.000129485               0.999999998               0.000030607              -0.000140809               0.999999998               0.000037143              -0.000152748               0.999999998               0.000044276              -0.000165354               0.999999998               0.000051935              -0.000178596               0.999999998               0.000060025              -0.000192573               0.999999998               0.000068503              -0.000206873               0.999999998               0.000077284              -0.000221222               0.999999998               0.000086288              -0.000235937               0.999999998              -0.000004451              -0.000116462               0.999999998              -0.000002254              -0.000104525               0.999999998              -0.000000481              -0.000103407               0.999999998               0.000001972              -0.000107736               0.999999998               0.000005392              -0.000115233               0.999999998               0.000009687              -0.000124870               0.999999998               0.000014787              -0.000136010               0.999999998               0.000020582              -0.000148318               0.999999998               0.000027065              -0.000161599               0.999999998               0.000034144              -0.000175736               0.999999998               0.000041775              -0.000190678               0.999999998               0.000049989              -0.000206520               0.999999998               0.000058704              -0.000223094               0.999999998               0.000067830              -0.000240317               0.999999998               0.000077156              -0.000257714               0.999999998               0.000086626              -0.000275132               0.999999998               0.000096319              -0.000292879               0.999999998              -0.000003906              -0.000137405               0.999999998              -0.000004560              -0.000123414               0.999999998              -0.000003310              -0.000122670               0.999999998              -0.000000339              -0.000128249               0.999999998               0.000004024              -0.000137547               0.999999998               0.000009446              -0.000149223               0.999999998               0.000015746              -0.000162626               0.999999998               0.000022780              -0.000177413               0.999999998               0.000030426              -0.000193416               0.999999998               0.000038587              -0.000210391               0.999999998               0.000047294              -0.000228444               0.999999998               0.000056590              -0.000247528               0.999999998               0.000066305              -0.000267424               0.999999998               0.000076233              -0.000287585               0.999999998               0.000086303              -0.000307881               0.999999998               0.000096513              -0.000328319               0.999999998               0.000107020              -0.000349273               0.999999998              -0.000003424              -0.000157008               0.999999998              -0.000006974              -0.000141473               0.999999998              -0.000005878              -0.000141289               0.999999998              -0.000002141              -0.000148160               0.999999998               0.000003321              -0.000159284               0.999999998               0.000009978              -0.000173050               0.999999998               0.000017528              -0.000188791               0.999999998               0.000025698              -0.000206150               0.999999998               0.000034331              -0.000224902               0.999999998               0.000043545              -0.000244812               0.999999998               0.000053332              -0.000265997               0.999999998               0.000063629              -0.000288303               0.999999998               0.000074109              -0.000311279               0.999999998               0.000084761              -0.000334594               0.999999998               0.000095605              -0.000358163               0.999999998               0.000106788              -0.000382130               0.999999998               0.000118447              -0.000406969               0.999999998              -0.000002914              -0.000174886               0.999999998              -0.000009309              -0.000158706               0.999999998              -0.000007966              -0.000159089               0.999999998              -0.000003362              -0.000167346               0.999999998               0.000003299              -0.000180286               0.999999998               0.000011130              -0.000196223               0.999999998               0.000019762              -0.000214369               0.999999998               0.000028901              -0.000234388               0.999999998               0.000038499              -0.000255997               0.999999998               0.000048681              -0.000279028               0.999999998               0.000059491              -0.000303449               0.999999998               0.000070602              -0.000329003               0.999999998               0.000081825              -0.000355284               0.999999998               0.000093246              -0.000382140               0.999999998               0.000105011              -0.000409593               0.999999998               0.000117199              -0.000438023               0.999999998               0.000129707              -0.000467324               0.999999998              -0.000002134              -0.000191590               0.999999998              -0.000010718              -0.000176621               0.999999998              -0.000010470              -0.000175230               0.999999998              -0.000006651              -0.000181492               0.999999998              -0.000000804              -0.000192376               0.999999998               0.000006258              -0.000206357               0.999999998               0.000013996              -0.000222523               0.999999998               0.000022169              -0.000240529               0.999999998               0.000030610              -0.000260096               0.999999998               0.000039450              -0.000281056               0.999999998               0.000048732              -0.000303328               0.999999998               0.000058569              -0.000326767               0.999999998               0.000068625              -0.000351262               0.999999998               0.000078727              -0.000376434               0.999999998               0.000088839              -0.000402445               0.999999998               0.000099101              -0.000429287               0.999999998               0.000109696              -0.000457254               0.999999998              -0.000001550              -0.000206691               0.999999998              -0.000011303              -0.000193741               0.999999998              -0.000012173              -0.000191553               0.999999998              -0.000009281              -0.000196171               0.999999998              -0.000004421              -0.000205255               0.999999998               0.000001733              -0.000217383               0.999999998               0.000008475              -0.000231781               0.999999998               0.000015721              -0.000247938               0.999999998               0.000023096              -0.000265619               0.999999998               0.000030591              -0.000284700               0.999999998               0.000038526              -0.000305037               0.999999998               0.000046976              -0.000326493               0.999999998               0.000055814              -0.000349009               0.999999998               0.000064617              -0.000372475               0.999999998               0.000073265              -0.000396833               0.999999998               0.000081701              -0.000422111               0.999999998               0.000090226              -0.000448362               0.999999998              -0.000001088              -0.000219861               0.999999998              -0.000011019              -0.000209584               0.999999998              -0.000012804              -0.000207375               0.999999998              -0.000010932              -0.000210861               0.999999998              -0.000007090              -0.000218461               0.999999998              -0.000002017              -0.000229018               0.999999998               0.000003759              -0.000241763               0.999999998               0.000009942              -0.000256309               0.999999998               0.000016239              -0.000272327               0.999999998               0.000022548              -0.000289726               0.999999998               0.000029175              -0.000308343               0.999999998               0.000036353              -0.000328052               0.999999998               0.000043738              -0.000348806               0.999999998               0.000050970              -0.000370596               0.999999998               0.000057972              -0.000393464               0.999999998               0.000064751              -0.000417305               0.999999998               0.000071377              -0.000442068               0.999999998              -0.000000732              -0.000230881               0.999999998              -0.000009912              -0.000223601               0.999999998              -0.000012242              -0.000221916               0.999999998              -0.000011269              -0.000224819               0.999999998              -0.000008456              -0.000231306               0.999999998              -0.000004509              -0.000240617               0.999999998               0.000000228              -0.000252000               0.999999998               0.000005308              -0.000265168               0.999999998               0.000010472              -0.000279828               0.999999998               0.000015619              -0.000295783               0.999999998               0.000020986              -0.000312991               0.999999998               0.000026756              -0.000331313               0.999999998               0.000032662              -0.000350639               0.999999998               0.000038212              -0.000371005               0.999999998               0.000043529              -0.000392418               0.999999998               0.000048585              -0.000414857               0.999999998               0.000053198              -0.000438355               0.999999998              -0.000000452              -0.000239593               0.999999998              -0.000008107              -0.000235209               0.999999998              -0.000010483              -0.000234400               0.999999998              -0.000010125              -0.000237166               0.999999998              -0.000008313              -0.000242984               0.999999998              -0.000005437              -0.000251324               0.999999998              -0.000001903              -0.000261752               0.999999998               0.000002033              -0.000273890               0.999999998               0.000005986              -0.000287512               0.999999998               0.000009979              -0.000302446               0.999999998               0.000014000              -0.000318583               0.999999998               0.000018264              -0.000335949               0.999999998               0.000022597              -0.000354313               0.999999998               0.000026754              -0.000373607               0.999999998               0.000030432              -0.000393848               0.999999998               0.000033633              -0.000415153               0.999999998               0.000036187              -0.000437564               0.999999998              -0.000000228              -0.000245917               0.999999998              -0.000005729              -0.000243863               0.999999998              -0.000007660              -0.000244032               0.999999998              -0.000007644              -0.000246960               0.999999998              -0.000006590              -0.000252433               0.999999998              -0.000004790              -0.000260217               0.999999998              -0.000002451              -0.000269980               0.999999998               0.000000160              -0.000281421               0.999999998               0.000002847              -0.000294372               0.999999998               0.000005563              -0.000308664               0.999999998               0.000008296              -0.000324152               0.999999998               0.000011138              -0.000340775               0.999999998               0.000014007              -0.000358408               0.999999998               0.000016788              -0.000377056               0.999999998               0.000019054              -0.000396706               0.999999998               0.000020655              -0.000417421               0.999999998               0.000021553              -0.000439180               0.999999998              -0.000000088              -0.000249783               0.999999998              -0.000002961              -0.000249262               0.999999998              -0.000004043              -0.000250126               0.999999998              -0.000004127              -0.000253264               0.999999998              -0.000003646              -0.000258659               0.999999998              -0.000002776              -0.000266119               0.999999998              -0.000001613              -0.000275502               0.999999998              -0.000000327              -0.000286596               0.999999998               0.000000979              -0.000299193               0.999999998               0.000002339              -0.000313064               0.999999998               0.000003839              -0.000328143               0.999999998               0.000005297              -0.000344387               0.999999998               0.000006622              -0.000361712               0.999999998               0.000007939              -0.000380064               0.999999998               0.000009128              -0.000399431               0.999999998               0.000009649              -0.000419878               0.999999998               0.000009702              -0.000441340               0.999999998               0.000000000              -0.000251027               0.999999998              -0.000000000              -0.000251056               0.999999998              -0.000000000              -0.000252218               0.999999998               0.000000000              -0.000255453               0.999999998               0.000000000              -0.000260832               0.999999998              -0.000000000              -0.000268236               0.999999998              -0.000000000              -0.000277515               0.999999998              -0.000000000              -0.000288405               0.999999998               0.000000000              -0.000300835               0.999999998              -0.000000000              -0.000314627               0.999999998              -0.000000000              -0.000329560               0.999999998              -0.000000000              -0.000345679               0.999999998              -0.000000000              -0.000363006               0.999999998              -0.000000000              -0.000381347               0.999999998               0.000000000              -0.000400642               0.999999998               0.000000000              -0.000420911               0.999999998               0.000000000              -0.000442197               0.999999998              -0.000006279              -0.000000000               0.999999998               0.000003502              -0.000000000               0.999999998               0.000008318              -0.000000000               0.999999998               0.000011171              -0.000000000               0.999999998               0.000013282              -0.000000000               0.999999998               0.000015272               0.000000000               0.999999998               0.000017477               0.000000000               0.999999998               0.000020032               0.000000000               0.999999998               0.000023117               0.000000000               0.999999998               0.000026789               0.000000000               0.999999998               0.000030924               0.000000000               0.999999998               0.000035541               0.000000000               0.999999998               0.000040657               0.000000000               0.999999998               0.000046282               0.000000000               0.999999998               0.000052420               0.000000000               0.999999998               0.000059045               0.000000000               0.999999998               0.000066130              -0.000000000               0.999999998              -0.000006185               0.000024187               0.999999998               0.000003277               0.000021843               0.999999998               0.000007915               0.000021345               0.999999998               0.000010668               0.000021956               0.999999998               0.000012753               0.000023239               0.999999998               0.000014835               0.000025033               0.999999998               0.000017145               0.000027203               0.999999998               0.000019864               0.000029597               0.999999998               0.000023078               0.000032304               0.999999998               0.000026805               0.000035148               0.999999998               0.000031096               0.000038174               0.999999998               0.000035909               0.000041276               0.999999998               0.000041219               0.000044610               0.999999998               0.000047041               0.000048148               0.999999998               0.000053368               0.000051899               0.999999998               0.000060145               0.000055767               0.999999998               0.000067334               0.000059701               0.999999998              -0.000005925               0.000048138               0.999999998               0.000002581               0.000043378               0.999999998               0.000006671               0.000042459               0.999999998               0.000009220               0.000043739               0.999999998               0.000011359               0.000046428               0.999999998               0.000013626               0.000050053               0.999999998               0.000016259               0.000054359               0.999999998               0.000019371               0.000059310               0.999999998               0.000023004               0.000064629               0.999999998               0.000027203               0.000070329               0.999999998               0.000031989               0.000076318               0.999999998               0.000037257               0.000082633               0.999999998               0.000043046               0.000089298               0.999999998               0.000049377               0.000096429               0.999999998               0.000056192               0.000103759               0.999999998               0.000063431               0.000111341               0.999999998               0.000071044               0.000119103               0.999999998              -0.000005497               0.000071623               0.999999998               0.000001409               0.000064406               0.999999998               0.000004728               0.000063217               0.999999998               0.000007084               0.000065355               0.999999998               0.000009380               0.000069552               0.999999998               0.000012062               0.000075122               0.999999998               0.000015264               0.000081745               0.999999998               0.000019018               0.000089125               0.999999998               0.000023397               0.000097135               0.999999998               0.000028365               0.000105654               0.999999998               0.000033912               0.000114647               0.999999998               0.000040031               0.000124030               0.999999998               0.000046661               0.000134007               0.999999998               0.000053789               0.000144586               0.999999998               0.000061361               0.000155500               0.999999998               0.000069307               0.000166591               0.999999998               0.000077564               0.000178052               0.999999998              -0.000004984               0.000094455               0.999999998              -0.000000240               0.000084829               0.999999998               0.000002270               0.000083576               0.999999998               0.000004558               0.000086738               0.999999998               0.000007248               0.000092540               0.999999998               0.000010621               0.000100101               0.999999998               0.000014643               0.000108984               0.999999998               0.000019344               0.000118850               0.999999998               0.000024675               0.000129485               0.999999998               0.000030607               0.000140809               0.999999998               0.000037143               0.000152748               0.999999998               0.000044276               0.000165354               0.999999998               0.000051935               0.000178596               0.999999998               0.000060025               0.000192573               0.999999998               0.000068503               0.000206873               0.999999998               0.000077284               0.000221222               0.999999998               0.000086288               0.000235937               0.999999998              -0.000004451               0.000116462               0.999999998              -0.000002254               0.000104525               0.999999998              -0.000000481               0.000103407               0.999999998               0.000001972               0.000107736               0.999999998               0.000005392               0.000115233               0.999999998               0.000009687               0.000124870               0.999999998               0.000014787               0.000136010               0.999999998               0.000020582               0.000148318               0.999999998               0.000027065               0.000161599               0.999999998               0.000034144               0.000175736               0.999999998               0.000041775               0.000190678               0.999999998               0.000049989               0.000206520               0.999999998               0.000058704               0.000223094               0.999999998               0.000067830               0.000240317               0.999999998               0.000077156               0.000257714               0.999999998               0.000086626               0.000275132               0.999999998               0.000096319               0.000292879               0.999999998              -0.000003906               0.000137405               0.999999998              -0.000004560               0.000123414               0.999999998              -0.000003310               0.000122670               0.999999998              -0.000000339               0.000128249               0.999999998               0.000004024               0.000137547               0.999999998               0.000009446               0.000149223               0.999999998               0.000015746               0.000162626               0.999999998               0.000022780               0.000177413               0.999999998               0.000030426               0.000193416               0.999999998               0.000038587               0.000210391               0.999999998               0.000047294               0.000228444               0.999999998               0.000056590               0.000247528               0.999999998               0.000066305               0.000267424               0.999999998               0.000076233               0.000287585               0.999999998               0.000086303               0.000307881               0.999999998               0.000096513               0.000328319               0.999999998               0.000107020               0.000349273               0.999999998              -0.000003424               0.000157008               0.999999998              -0.000006974               0.000141473               0.999999998              -0.000005878               0.000141289               0.999999998              -0.000002141               0.000148160               0.999999998               0.000003321               0.000159284               0.999999998               0.000009978               0.000173050               0.999999998               0.000017528               0.000188791               0.999999998               0.000025698               0.000206150               0.999999998               0.000034331               0.000224902               0.999999998               0.000043545               0.000244812               0.999999998               0.000053332               0.000265997               0.999999998               0.000063629               0.000288303               0.999999998               0.000074109               0.000311279               0.999999998               0.000084761               0.000334594               0.999999998               0.000095605               0.000358163               0.999999998               0.000106788               0.000382130               0.999999998               0.000118447               0.000406969               0.999999998              -0.000002914               0.000174886               0.999999998              -0.000009309               0.000158706               0.999999998              -0.000007966               0.000159089               0.999999998              -0.000003362               0.000167346               0.999999998               0.000003299               0.000180286               0.999999998               0.000011130               0.000196223               0.999999998               0.000019762               0.000214369               0.999999998               0.000028901               0.000234388               0.999999998               0.000038499               0.000255997               0.999999998               0.000048681               0.000279028               0.999999998               0.000059491               0.000303449               0.999999998               0.000070602               0.000329003               0.999999998               0.000081825               0.000355284               0.999999998               0.000093246               0.000382140               0.999999998               0.000105011               0.000409593               0.999999998               0.000117199               0.000438023               0.999999998               0.000129707               0.000467324               0.999999998              -0.000002134               0.000191590               0.999999998              -0.000010718               0.000176621               0.999999998              -0.000010470               0.000175230               0.999999998              -0.000006651               0.000181492               0.999999998              -0.000000804               0.000192376               0.999999998               0.000006258               0.000206357               0.999999998               0.000013996               0.000222523               0.999999998               0.000022169               0.000240529               0.999999998               0.000030610               0.000260096               0.999999998               0.000039450               0.000281056               0.999999998               0.000048732               0.000303328               0.999999998               0.000058569               0.000326767               0.999999998               0.000068625               0.000351262               0.999999998               0.000078727               0.000376434               0.999999998               0.000088839               0.000402445               0.999999998               0.000099101               0.000429287               0.999999998               0.000109696               0.000457254               0.999999998              -0.000001550               0.000206691               0.999999998              -0.000011303               0.000193741               0.999999998              -0.000012173               0.000191553               0.999999998              -0.000009281               0.000196171               0.999999998              -0.000004421               0.000205255               0.999999998               0.000001733               0.000217383               0.999999998               0.000008475               0.000231781               0.999999998               0.000015721               0.000247938               0.999999998               0.000023096               0.000265619               0.999999998               0.000030591               0.000284700               0.999999998               0.000038526               0.000305037               0.999999998               0.000046976               0.000326493               0.999999998               0.000055814               0.000349009               0.999999998               0.000064617               0.000372475               0.999999998               0.000073265               0.000396833               0.999999998               0.000081701               0.000422111               0.999999998               0.000090226               0.000448362               0.999999998              -0.000001088               0.000219861               0.999999998              -0.000011019               0.000209584               0.999999998              -0.000012804               0.000207375               0.999999998              -0.000010932               0.000210861               0.999999998              -0.000007090               0.000218461               0.999999998              -0.000002017               0.000229018               0.999999998               0.000003759               0.000241763               0.999999998               0.000009942               0.000256309               0.999999998               0.000016239               0.000272327               0.999999998               0.000022548               0.000289726               0.999999998               0.000029175               0.000308343               0.999999998               0.000036353               0.000328052               0.999999998               0.000043738               0.000348806               0.999999998               0.000050970               0.000370596               0.999999998               0.000057972               0.000393464               0.999999998               0.000064751               0.000417305               0.999999998               0.000071377               0.000442068               0.999999998              -0.000000732               0.000230881               0.999999998              -0.000009912               0.000223601               0.999999998              -0.000012242               0.000221916               0.999999998              -0.000011269               0.000224819               0.999999998              -0.000008456               0.000231306               0.999999998              -0.000004509               0.000240617               0.999999998               0.000000228               0.000252000               0.999999998               0.000005308               0.000265168               0.999999998               0.000010472               0.000279828               0.999999998               0.000015619               0.000295783               0.999999998               0.000020986               0.000312991               0.999999998               0.000026756               0.000331313               0.999999998               0.000032662               0.000350639               0.999999998               0.000038212               0.000371005               0.999999998               0.000043529               0.000392418               0.999999998               0.000048585               0.000414857               0.999999998               0.000053198               0.000438355               0.999999998              -0.000000452               0.000239593               0.999999998              -0.000008107               0.000235209               0.999999998              -0.000010483               0.000234400               0.999999998              -0.000010125               0.000237166               0.999999998              -0.000008313               0.000242984               0.999999998              -0.000005437               0.000251324               0.999999998              -0.000001903               0.000261752               0.999999998               0.000002033               0.000273890               0.999999998               0.000005986               0.000287512               0.999999998               0.000009979               0.000302446               0.999999998               0.000014000               0.000318583               0.999999998               0.000018264               0.000335949               0.999999998               0.000022597               0.000354313               0.999999998               0.000026754               0.000373607               0.999999998               0.000030432               0.000393848               0.999999998               0.000033633               0.000415153               0.999999998               0.000036187               0.000437564               0.999999998              -0.000000228               0.000245917               0.999999998              -0.000005729               0.000243863               0.999999998              -0.000007660               0.000244032               0.999999998              -0.000007644               0.000246960               0.999999998              -0.000006590               0.000252433               0.999999998              -0.000004790               0.000260217               0.999999998              -0.000002451               0.000269980               0.999999998               0.000000160               0.000281421               0.999999998               0.000002847               0.000294372               0.999999998               0.000005563               0.000308664               0.999999998               0.000008296               0.000324152               0.999999998               0.000011138               0.000340775               0.999999998               0.000014007               0.000358408               0.999999998               0.000016788               0.000377056               0.999999998               0.000019054               0.000396706               0.999999998               0.000020655               0.000417421               0.999999998               0.000021553               0.000439180               0.999999998              -0.000000088               0.000249783               0.999999998              -0.000002961               0.000249262               0.999999998              -0.000004043               0.000250126               0.999999998              -0.000004127               0.000253264               0.999999998              -0.000003646               0.000258659               0.999999998              -0.000002776               0.000266119               0.999999998              -0.000001613               0.000275502               0.999999998              -0.000000327               0.000286596               0.999999998               0.000000979               0.000299193               0.999999998               0.000002339               0.000313064               0.999999998               0.000003839               0.000328143               0.999999998               0.000005297               0.000344387               0.999999998               0.000006622               0.000361712               0.999999998               0.000007939               0.000380064               0.999999998               0.000009128               0.000399431               0.999999998               0.000009649               0.000419878               0.999999998               0.000009702               0.000441340               0.999999998              -0.000000000               0.000251027               0.999999998              -0.000000000               0.000251056               0.999999998              -0.000000000               0.000252218               0.999999998               0.000000000               0.000255453               0.999999998               0.000000000               0.000260832               0.999999998               0.000000000               0.000268236               0.999999998               0.000000000               0.000277515               0.999999998               0.000000000               0.000288405               0.999999998               0.000000000               0.000300835               0.999999998               0.000000000               0.000314627               0.999999998              -0.000000000               0.000329560               0.999999998              -0.000000000               0.000345679               0.999999998               0.000000000               0.000363006               0.999999998               0.000000000               0.000381347               0.999999998              -0.000000000               0.000400642               0.999999998               0.000000000               0.000420911               0.999999998               0.000000000               0.000442197               0.999999998 </DataArray>
<DataArray type="Float64"                                    Name="defo"                                                      NumberOfComponents=" 3" format="ascii">
              0.000006279              -0.000000000               0.999999998              -0.000003502               0.000000000               0.999999998              -0.000008318               0.000000000               0.999999998              -0.000011171              -0.000000000               0.999999998              -0.000013282               0.000000000               0.999999998              -0.000015272               0.000000000               0.999999998              -0.000017477               0.000000000               0.999999998              -0.000020032               0.000000000               0.999999998              -0.000023117               0.000000000               0.999999998              -0.000026789               0.000000000               0.999999998              -0.000030924              -0.000000000               0.999999998              -0.000035541              -0.000000000               0.999999998              -0.000040657               0.000000000               0.999999998              -0.000046282              -0.000000000               0.999999998              -0.000052420              -0.000000000               0.999999998              -0.000059045               0.000000000               0.999999998              -0.000066130              -0.000000000               0.999999998               0.000006185               0.000024187               0.999999998              -0.000003277               0.000021843               0.999999998              -0.000007915               0.000021345               0.999999998              -0.000010668               0.000021956               0.999999998              -0.000012753               0.000023239               0.999999998              -0.000014835               0.000025033               0.999999998              -0.000017145               0.000027203               0.999999998              -0.000019864               0.000029597               0.999999998              -0.000023078               0.000032304               0.999999998              -0.000026805               0.000035148               0.999999998              -0.000031096               0.000038174               0.999999998              -0.000035909               0.000041276               0.999999998              -0.000041219               0.000044610               0.999999998              -0.000047041               0.000048148               0.999999998              -0.000053368               0.000051899               0.999999998              -0.000060145               0.000055767               0.999999998              -0.000067334               0.000059701               0.999999998               0.000005925               0.000048138               0.999999998              -0.000002581               0.000043378               0.999999998              -0.000006671               0.000042459               0.999999998              -0.000009220               0.000043739               0.999999998              -0.000011359               0.000046428               0.999999998              -0.000013626               0.000050053               0.999999998              -0.000016259               0.000054359               0.999999998              -0.000019371               0.000059310               0.999999998              -0.000023004               0.000064629               0.999999998              -0.000027203               0.000070329               0.999999998              -0.000031989               0.000076318               0.999999998              -0.000037257               0.000082633               0.999999998              -0.000043046               0.000089298               0.999999998              -0.000049377               0.000096429               0.999999998              -0.000056192               0.000103759               0.999999998              -0.000063431               0.000111341               0.999999998              -0.000071044               0.000119103               0.999999998               0.000005497               0.000071623               0.999999998              -0.000001409               0.000064406               0.999999998              -0.000004728               0.000063217               0.999999998              -0.000007084               0.000065355               0.999999998              -0.000009380               0.000069552               0.999999998              -0.000012062               0.000075122               0.999999998              -0.000015264               0.000081745               0.999999998              -0.000019018               0.000089125               0.999999998              -0.000023397               0.000097135               0.999999998              -0.000028365               0.000105654               0.999999998              -0.000033912               0.000114647               0.999999998              -0.000040031               0.000124030               0.999999998              -0.000046661               0.000134007               0.999999998              -0.000053789               0.000144586               0.999999998              -0.000061361               0.000155500               0.999999998              -0.000069307               0.000166591               0.999999998              -0.000077564               0.000178052               0.999999998               0.000004984               0.000094455               0.999999998               0.000000240               0.000084829               0.999999998              -0.000002270               0.000083576               0.999999998              -0.000004558               0.000086738               0.999999998              -0.000007248               0.000092540               0.999999998              -0.000010621               0.000100101               0.999999998              -0.000014643               0.000108984               0.999999998              -0.000019344               0.000118850               0.999999998              -0.000024675               0.000129485               0.999999998              -0.000030607               0.000140809               0.999999998              -0.000037143               0.000152748               0.999999998              -0.000044276               0.000165354               0.999999998              -0.000051935               0.000178596               0.999999998              -0.000060025               0.000192573               0.999999998              -0.000068503               0.000206873               0.999999998              -0.000077284               0.000221222               0.999999998              -0.000086288               0.000235937               0.999999998               0.000004451               0.000116462               0.999999998               0.000002254               0.000104525               0.999999998               0.000000481               0.000103407               0.999999998              -0.000001972               0.000107736               0.999999998              -0.000005392               0.000115233               0.999999998              -0.000009687               0.000124870               0.999999998              -0.000014787               0.000136010               0.999999998              -0.000020582               0.000148318               0.999999998              -0.000027065               0.000161599               0.999999998              -0.000034144               0.000175736               0.999999998              -0.000041775               0.000190678               0.999999998              -0.000049989               0.000206520               0.999999998              -0.000058704               0.000223094               0.999999998              -0.000067830               0.000240317               0.999999998              -0.000077156               0.000257714               0.999999998              -0.000086626               0.000275132               0.999999998              -0.000096319               0.000292879               0.999999998               0.000003906               0.000137405               0.999999998               0.000004560               0.000123414               0.999999998               0.000003310               0.000122670               0.999999998               0.000000339               0.000128249               0.999999998              -0.000004024               0.000137547               0.999999998              -0.000009446               0.000149223               0.999999998              -0.000015746               0.000162626               0.999999998              -0.000022780               0.000177413               0.999999998              -0.000030426               0.000193416               0.999999998              -0.000038587               0.000210391               0.999999998              -0.000047294               0.000228444               0.999999998              -0.000056590               0.000247528               0.999999998              -0.000066305               0.000267424               0.999999998              -0.000076233               0.000287585               0.999999998              -0.000086303               0.000307881               0.999999998              -0.000096513               0.000328319               0.999999998              -0.000107020               0.000349273               0.999999998               0.000003424               0.000157008               0.999999998               0.000006974               0.000141473               0.999999998               0.000005878               0.000141289               0.999999998               0.000002141               0.000148160               0.999999998              -0.000003321               0.000159284               0.999999998              -0.000009978               0.000173050               0.999999998              -0.000017528               0.000188791               0.999999998              -0.000025698               0.000206150               0.999999998              -0.000034331               0.000224902               0.999999998              -0.000043545               0.000244812               0.999999998              -0.000053332               0.000265997               0.999999998              -0.000063629               0.000288303               0.999999998              -0.000074109               0.000311279               0.999999998              -0.000084761               0.000334594               0.999999998              -0.000095605               0.000358163               0.999999998              -0.000106788               0.000382130               0.999999998              -0.000118447               0.000406969               0.999999998               0.000002914               0.000174886               0.999999998               0.000009309               0.000158706               0.999999998               0.000007966               0.000159089               0.999999998               0.000003362               0.000167346               0.999999998              -0.000003299               0.000180286               0.999999998              -0.000011130               0.000196223               0.999999998              -0.000019762               0.000214369               0.999999998              -0.000028901               0.000234388               0.999999998              -0.000038499               0.000255997               0.999999998              -0.000048681               0.000279028               0.999999998              -0.000059491               0.000303449               0.999999998              -0.000070602               0.000329003               0.999999998              -0.000081825               0.000355284               0.999999998              -0.000093246               0.000382140               0.999999998              -0.000105011               0.000409593               0.999999998              -0.000117199               0.000438023               0.999999998              -0.000129707               0.000467324               0.999999998               0.000002134               0.000191590               0.999999998               0.000010718               0.000176621               0.999999998               0.000010470               0.000175230               0.999999998               0.000006651               0.000181492               0.999999998               0.000000804               0.000192376               0.999999998              -0.000006258               0.000206357               0.999999998              -0.000013996               0.000222523               0.999999998              -0.000022169               0.000240529               0.999999998              -0.000030610               0.000260096               0.999999998              -0.000039450               0.000281056               0.999999998              -0.000048732               0.000303328               0.999999998              -0.000058569               0.000326767               0.999999998              -0.000068625               0.000351262               0.999999998              -0.000078727               0.000376434               0.999999998              -0.000088839               0.000402445               0.999999998              -0.000099101               0.000429287               0.999999998              -0.000109696               0.000457254               0.999999998               0.000001550               0.000206691               0.999999998               0.000011303               0.000193741               0.999999998               0.000012173               0.000191553               0.999999998               0.000009281               0.000196171               0.999999998               0.000004421               0.000205255               0.999999998              -0.000001733               0.000217383               0.999999998              -0.000008475               0.000231781               0.999999998              -0.000015721               0.000247938               0.999999998              -0.000023096               0.000265619               0.999999998              -0.000030591               0.000284700               0.999999998              -0.000038526               0.000305037               0.999999998              -0.000046976               0.000326493               0.999999998              -0.000055814               0.000349009               0.999999998              -0.000064617               0.000372475               0.999999998              -0.000073265               0.000396833               0.999999998              -0.000081701               0.000422111               0.999999998              -0.000090226               0.000448362               0.999999998               0.000001088               0.000219861               0.999999998               0.000011019               0.000209584               0.999999998               0.000012804               0.000207375               0.999999998               0.000010932               0.000210861               0.999999998               0.000007090               0.000218461               0.999999998               0.000002017               0.000229018               0.999999998              -0.000003759               0.000241763               0.999999998              -0.000009942               0.000256309               0.999999998              -0.000016239               0.000272327               0.999999998              -0.000022548               0.000289726               0.999999998              -0.000029175               0.000308343               0.999999998              -0.000036353               0.000328052               0.999999998              -0.000043738               0.000348806               0.999999998              -0.000050970               0.000370596               0.999999998              -0.000057972               0.000393464               0.999999998              -0.000064751               0.000417305               0.999999998              -0.000071377               0.000442068               0.999999998               0.000000732               0.000230881               0.999999998               0.000009912               0.000223601               0.999999998               0.000012242               0.000221916               0.999999998               0.000011269               0.000224819               0.999999998               0.000008456               0.000231306               0.999999998               0.000004509               0.000240617               0.999999998              -0.000000228               0.000252000               0.999999998              -0.000005308               0.000265168               0.999999998              -0.000010472               0.000279828               0.999999998              -0.000015619               0.000295783               0.999999998              -0.000020986               0.000312991               0.999999998              -0.000026756               0.000331313               0.999999998              -0.000032662               0.000350639               0.999999998              -0.000038212               0.000371005               0.999999998              -0.000043529               0.000392418               0.999999998              -0.000048585               0.000414857               0.999999998              -0.000053198               0.000438355               0.999999998               0.000000452               0.000239593               0.999999998               0.000008107               0.000235209               0.999999998               0.000010483               0.000234400               0.999999998               0.000010125               0.000237166               0.999999998               0.000008313               0.000242984               0.999999998               0.000005437               0.000251324               0.999999998               0.000001903               0.000261752               0.999999998              -0.000002033               0.000273890               0.999999998              -0.000005986               0.000287512               0.999999998              -0.000009979               0.000302446               0.999999998              -0.000014000               0.000318583               0.999999998              -0.000018264               0.000335949               0.999999998              -0.000022597               0.000354313               0.999999998              -0.000026754               0.000373607               0.999999998              -0.000030432               0.000393848               0.999999998              -0.000033633               0.000415153               0.999999998              -0.000036187               0.000437564               0.999999998               0.000000228               0.000245917               0.999999998               0.000005729               0.000243863               0.999999998               0.000007660               0.000244032               0.999999998               0.000007644               0.000246960               0.999999998               0.000006590               0.000252433               0.999999998               0.000004790               0.000260217               0.999999998               0.000002451               0.000269980               0.999999998              -0.000000160               0.000281421               0.999999998              -0.000002847               0.000294372               0.999999998              -0.000005563               0.000308664               0.999999998              -0.000008296               0.000324152               0.999999998              -0.000011138               0.000340775               0.999999998              -0.000014007               0.000358408               0.999999998              -0.000016788               0.000377056               0.999999998              -0.000019054               0.000396706               0.999999998              -0.000020655               0.000417421               0.999999998              -0.000021553               0.000439180               0.999999998               0.000000088               0.000249783               0.999999998               0.000002961               0.000249262               0.999999998               0.000004043               0.000250126               0.999999998               0.000004127               0.000253264               0.999999998               0.000003646               0.000258659               0.999999998               0.000002776               0.000266119               0.999999998               0.000001613               0.000275502               0.999999998               0.000000327               0.000286596               0.999999998              -0.000000979               0.000299193               0.999999998              -0.000002339               0.000313064               0.999999998              -0.000003839               0.000328143               0.999999998              -0.000005297               0.000344387               0.999999998              -0.000006622               0.000361712               0.999999998              -0.000007939               0.000380064               0.999999998              -0.000009128               0.000399431               0.999999998              -0.000009649               0.000419878               0.999999998              -0.000009702               0.000441340               0.999999998              -0.000000000               0.000251027               0.999999998              -0.000000000               0.000251056               0.999999998              -0.000000000               0.000252218               0.999999998               0.000000000               0.000255453               0.999999998               0.000000000               0.000260832               0.999999998               0.000000000               0.000268236               0.999999998               0.000000000               0.000277515               0.999999998               0.000000000               0.000288405               0.999999998               0.000000000               0.000300835               0.999999998               0.000000000               0.000314627               0.999999998              -0.000000000               0.000329560               0.999999998              -0.000000000               0.000345679               0.999999998               0.000000000               0.000363006               0.999999998               0.000000000               0.000381347               0.999999998              -0.000000000               0.000400642               0.999999998               0.000000000               0.000420911               0.999999998               0.000000000               0.000442197               0.999999998               0.000006279              -0.000000000               0.999999998              -0.000003502               0.000000000               0.999999998              -0.000008318               0.000000000               0.999999998              -0.000011171              -0.000000000               0.999999998              -0.000013282               0.000000000               0.999999998              -0.000015272               0.000000000               0.999999998              -0.000017477               0.000000000               0.999999998              -0.000020032               0.000000000               0.999999998              -0.000023117               0.000000000               0.999999998              -0.000026789               0.000000000               0.999999998              -0.000030924              -0.000000000               0.999999998              -0.000035541              -0.000000000               0.999999998              -0.000040657               0.000000000               0.999999998              -0.000046282              -0.000000000               0.999999998              -0.000052420              -0.000000000               0.999999998              -0.000059045               0.000000000               0.999999998              -0.000066130              -0.000000000               0.999999998               0.000006185              -0.000024187               0.999999998              -0.000003277              -0.000021843               0.999999998              -0.000007915              -0.000021345               0.999999998              -0.000010668              -0.000021956               0.999999998              -0.000012753              -0.000023239               0.999999998              -0.000014835              -0.000025033               0.999999998              -0.000017145              -0.000027203               0.999999998              -0.000019864              -0.000029597               0.999999998              -0.000023078              -0.000032304               0.999999998              -0.000026805              -0.000035148               0.999999998              -0.000031096              -0.000038174               0.999999998              -0.000035909              -0.000041276               0.999999998              -0.000041219              -0.000044610               0.999999998              -0.000047041              -0.000048148               0.999999998              -0.000053368              -0.000051899               0.999999998              -0.000060145              -0.000055767               0.999999998              -0.000067334              -0.000059701               0.999999998               0.000005925              -0.000048138               0.999999998              -0.000002581              -0.000043378               0.999999998              -0.000006671              -0.000042459               0.999999998              -0.000009220              -0.000043739               0.999999998              -0.000011359              -0.000046428               0.999999998              -0.000013626              -0.000050053               0.999999998              -0.000016259              -0.000054359               0.999999998              -0.000019371              -0.000059310               0.999999998              -0.000023004              -0.000064629               0.999999998              -0.000027203              -0.000070329               0.999999998              -0.000031989              -0.000076318               0.999999998              -0.000037257              -0.000082633               0.999999998              -0.000043046              -0.000089298               0.999999998              -0.000049377              -0.000096429               0.999999998              -0.000056192              -0.000103759               0.999999998              -0.000063431              -0.000111341               0.999999998              -0.000071044              -0.000119103               0.999999998               0.000005497              -0.000071623               0.999999998              -0.000001409              -0.000064406               0.999999998              -0.000004728              -0.000063217               0.999999998              -0.000007084              -0.000065355               0.999999998              -0.000009380              -0.000069552               0.999999998              -0.000012062              -0.000075122               0.999999998              -0.000015264              -0.000081745               0.999999998              -0.000019018              -0.000089125               0.999999998              -0.000023397              -0.000097135               0.999999998              -0.000028365              -0.000105654               0.999999998              -0.000033912              -0.000114647               0.999999998              -0.000040031              -0.000124030               0.999999998              -0.000046661              -0.000134007               0.999999998              -0.000053789              -0.000144586               0.999999998              -0.000061361              -0.000155500               0.999999998              -0.000069307              -0.000166591               0.999999998              -0.000077564              -0.000178052               0.999999998               0.000004984              -0.000094455               0.999999998               0.000000240              -0.000084829               0.999999998              -0.000002270              -0.000083576               0.999999998              -0.000004558              -0.000086738               0.999999998              -0.000007248              -0.000092540               0.999999998              -0.000010621              -0.000100101               0.999999998              -0.000014643              -0.000108984               0.999999998              -0.000019344              -0.000118850               0.999999998              -0.000024675              -0.000129485               0.999999998              -0.000030607              -0.000140809               0.999999998              -0.000037143              -0.000152748               0.999999998              -0.000044276              -0.000165354               0.999999998              -0.000051935              -0.000178596               0.999999998              -0.000060025              -0.000192573               0.999999998              -0.000068503              -0.000206873               0.999999998              -0.000077284              -0.000221222               0.999999998              -0.000086288              -0.000235937               0.999999998               0.000004451              -0.000116462               0.999999998               0.000002254              -0.000104525               0.999999998               0.000000481              -0.000103407               0.999999998              -0.000001972              -0.000107736               0.999999998              -0.000005392              -0.000115233               0.999999998              -0.000009687              -0.000124870               0.999999998              -0.000014787              -0.000136010               0.999999998              -0.000020582              -0.000148318               0.999999998              -0.000027065              -0.000161599               0.999999998              -0.000034144              -0.000175736               0.999999998              -0.000041775              -0.000190678               0.999999998              -0.000049989              -0.000206520               0.999999998              -0.000058704              -0.000223094               0.999999998              -0.000067830              -0.000240317               0.999999998              -0.000077156              -0.000257714               0.999999998              -0.000086626              -0.000275132               0.999999998              -0.000096319              -0.000292879               0.999999998               0.000003906              -0.000137405               0.999999998               0.000004560              -0.000123414               0.999999998               0.000003310              -0.000122670               0.999999998               0.000000339              -0.000128249               0.999999998              -0.000004024              -0.000137547               0.999999998              -0.000009446              -0.000149223               0.999999998              -0.000015746              -0.000162626               0.999999998              -0.000022780              -0.000177413               0.999999998              -0.000030426              -0.000193416               0.999999998              -0.000038587              -0.000210391               0.999999998              -0.000047294              -0.000228444               0.999999998              -0.000056590              -0.000247528               0.999999998              -0.000066305              -0.000267424               0.999999998              -0.000076233              -0.000287585               0.999999998              -0.000086303              -0.000307881               0.999999998              -0.000096513              -0.000328319               0.999999998              -0.000107020              -0.000349273               0.999999998               0.000003424              -0.000157008               0.999999998               0.000006974              -0.000141473               0.999999998               0.000005878              -0.000141289               0.999999998               0.000002141              -0.000148160               0.999999998              -0.000003321              -0.000159284               0.999999998              -0.000009978              -0.000173050               0.999999998              -0.000017528              -0.000188791               0.999999998              -0.000025698              -0.000206150               0.999999998              -0.000034331              -0.000224902               0.999999998              -0.000043545              -0.000244812               0.999999998              -0.000053332              -0.000265997               0.999999998              -0.000063629              -0.000288303               0.999999998              -0.000074109              -0.000311279               0.999999998              -0.000084761              -0.000334594               0.999999998              -0.000095605              -0.000358163               0.999999998              -0.000106788              -0.000382130               0.999999998              -0.000118447              -0.000406969               0.999999998               0.000002914              -0.000174886               0.999999998               0.000009309              -0.000158706               0.999999998               0.000007966              -0.000159089               0.999999998               0.000003362              -0.000167346               0.999999998              -0.000003299              -0.000180286               0.999999998              -0.000011130              -0.000196223               0.999999998              -0.000019762              -0.000214369               0.999999998              -0.000028901              -0.000234388               0.999999998              -0.000038499              -0.000255997               0.999999998              -0.000048681              -0.000279028               0.999999998              -0.000059491              -0.000303449               0.999999998              -0.000070602              -0.000329003               0.999999998              -0.000081825              -0.000355284               0.999999998              -0.000093246              -0.000382140               0.999999998              -0.000105011              -0.000409593               0.999999998              -0.000117199              -0.000438023               0.999999998              -0.000129707              -0.000467324               0.999999998               0.000002134              -0.000191590               0.999999998               0.000010718              -0.000176621               0.999999998               0.000010470              -0.000175230               0.999999998               0.000006651              -0.000181492               0.999999998               0.000000804              -0.000192376               0.999999998              -0.000006258              -0.000206357               0.999999998              -0.000013996              -0.000222523               0.999999998              -0.000022169              -0.000240529               0.999999998              -0.000030610              -0.000260096               0.999999998              -0.000039450              -0.000281056               0.999999998              -0.000048732              -0.000303328               0.999999998              -0.000058569              -0.000326767               0.999999998              -0.000068625              -0.000351262               0.999999998              -0.000078727              -0.000376434               0.999999998              -0.000088839              -0.000402445               0.999999998              -0.000099101              -0.000429287               0.999999998              -0.000109696              -0.000457254               0.999999998               0.000001550              -0.000206691               0.999999998               0.000011303              -0.000193741               0.999999998               0.000012173              -0.000191553               0.999999998               0.000009281              -0.000196171               0.999999998               0.000004421              -0.000205255               0.999999998              -0.000001733              -0.000217383               0.999999998              -0.000008475              -0.000231781               0.999999998              -0.000015721              -0.000247938               0.999999998              -0.000023096              -0.000265619               0.999999998              -0.000030591              -0.000284700               0.999999998              -0.000038526              -0.000305037               0.999999998              -0.000046976              -0.000326493               0.999999998              -0.000055814              -0.000349009               0.999999998              -0.000064617              -0.000372475               0.999999998              -0.000073265              -0.000396833               0.999999998              -0.000081701              -0.000422111               0.999999998              -0.000090226              -0.000448362               0.999999998               0.000001088              -0.000219861               0.999999998               0.000011019              -0.000209584               0.999999998               0.000012804              -0.000207375               0.999999998               0.000010932              -0.000210861               0.999999998               0.000007090              -0.000218461               0.999999998               0.000002017              -0.000229018               0.999999998              -0.000003759              -0.000241763               0.999999998              -0.000009942              -0.000256309               0.999999998              -0.000016239              -0.000272327               0.999999998              -0.000022548              -0.000289726               0.999999998              -0.000029175              -0.000308343               0.999999998              -0.000036353              -0.000328052               0.999999998              -0.000043738              -0.000348806               0.999999998              -0.000050970              -0.000370596               0.999999998              -0.000057972              -0.000393464               0.999999998              -0.000064751              -0.000417305               0.999999998              -0.000071377              -0.000442068               0.999999998               0.000000732              -0.000230881               0.999999998               0.000009912              -0.000223601               0.999999998               0.000012242              -0.000221916               0.999999998               0.000011269              -0.000224819               0.999999998               0.000008456              -0.000231306               0.999999998               0.000004509              -0.000240617               0.999999998              -0.000000228              -0.000252000               0.999999998              -0.000005308              -0.000265168               0.999999998              -0.000010472              -0.000279828               0.999999998              -0.000015619              -0.000295783               0.999999998              -0.000020986              -0.000312991               0.999999998              -0.000026756              -0.000331313               0.999999998              -0.000032662              -0.000350639               0.999999998              -0.000038212              -0.000371005               0.999999998              -0.000043529              -0.000392418               0.999999998              -0.000048585              -0.000414857               0.999999998              -0.000053198              -0.000438355               0.999999998               0.000000452              -0.000239593               0.999999998               0.000008107              -0.000235209               0.999999998               0.000010483              -0.000234400               0.999999998               0.000010125              -0.000237166               0.999999998               0.000008313              -0.000242984               0.999999998               0.000005437              -0.000251324               0.999999998               0.000001903              -0.000261752               0.999999998              -0.000002033              -0.000273890               0.999999998              -0.000005986              -0.000287512               0.999999998              -0.000009979              -0.000302446               0.999999998              -0.000014000              -0.000318583               0.999999998              -0.000018264              -0.000335949               0.999999998              -0.000022597              -0.000354313               0.999999998              -0.000026754              -0.000373607               0.999999998              -0.000030432              -0.000393848               0.999999998              -0.000033633              -0.000415153               0.999999998              -0.000036187              -0.000437564               0.999999998               0.000000228              -0.000245917               0.999999998               0.000005729              -0.000243863               0.999999998               0.000007660              -0.000244032               0.999999998               0.000007644              -0.000246960               0.999999998               0.000006590              -0.000252433               0.999999998               0.000004790              -0.000260217               0.999999998               0.000002451              -0.000269980               0.999999998              -0.000000160              -0.000281421               0.999999998              -0.000002847              -0.000294372               0.999999998              -0.000005563              -0.000308664               0.999999998              -0.000008296              -0.000324152               0.999999998              -0.000011138              -0.000340775               0.999999998              -0.000014007              -0.000358408               0.999999998              -0.000016788              -0.000377056               0.999999998              -0.000019054              -0.000396706               0.999999998              -0.000020655              -0.000417421               0.999999998              -0.000021553              -0.000439180               0.999999998               0.000000088              -0.000249783               0.999999998               0.000002961              -0.000249262               0.999999998               0.000004043              -0.000250126               0.999999998               0.000004127              -0.000253264               0.999999998               0.000003646              -0.000258659               0.999999998               0.000002776              -0.000266119               0.999999998               0.000001613              -0.000275502               0.999999998               0.000000327              -0.000286596               0.999999998              -0.000000979              -0.000299193               0.999999998              -0.000002339              -0.000313064               0.999999998              -0.000003839              -0.000328143               0.999999998              -0.000005297              -0.000344387               0.999999998              -0.000006622              -0.000361712               0.999999998              -0.000007939              -0.000380064               0.999999998              -0.000009128              -0.000399431               0.999999998              -0.000009649              -0.000419878               0.999999998              -0.000009702              -0.000441340               0.999999998               0.000000000              -0.000251027               0.999999998              -0.000000000              -0.000251056               0.999999998              -0.000000000              -0.000252218               0.999999998               0.000000000              -0.000255453               0.999999998               0.000000000              -0.000260832               0.999999998              -0.000000000              -0.000268236               0.999999998              -0.000000000              -0.000277515               0.999999998              -0.000000000              -0.000288405               0.999999998               0.000000000              -0.000300835               0.999999998              -0.000000000              -0.000314627               0.999999998              -0.000000000              -0.000329560               0.999999998              -0.000000000              -0.000345679               0.999999998              -0.000000000              -0.000363006               0.999999998              -0.000000000              -0.000381347               0.999999998               0.000000000              -0.000400642               0.999999998               0.000000000              -0.000420911               0.999999998               0.000000000              -0.000442197               0.999999998              -0.000006279              -0.000000000               0.999999998               0.000003502              -0.000000000               0.999999998               0.000008318              -0.000000000               0.999999998               0.000011171              -0.000000000               0.999999998               0.000013282              -0.000000000               0.999999998               0.000015272               0.000000000               0.999999998               0.000017477               0.000000000               0.999999998               0.000020032               0.000000000               0.999999998               0.000023117               0.000000000               0.999999998               0.000026789               0.000000000               0.999999998               0.000030924               0.000000000               0.999999998               0.000035541               0.000000000               0.999999998               0.000040657               0.000000000               0.999999998               0.000046282               0.000000000               0.999999998               0.000052420               0.000000000               0.999999998               0.000059045               0.000000000               0.999999998               0.000066130              -0.000000000               0.999999998              -0.000006185              -0.000024187               0.999999998               0.000003277              -0.000021843               0.999999998               0.000007915              -0.000021345               0.999999998               0.000010668              -0.000021956               0.999999998               0.000012753              -0.000023239               0.999999998               0.000014835              -0.000025033               0.999999998               0.000017145              -0.000027203               0.999999998               0.000019864              -0.000029597               0.999999998               0.000023078              -0.000032304               0.999999998               0.000026805              -0.000035148               0.999999998               0.000031096              -0.000038174               0.999999998               0.000035909              -0.000041276               0.999999998               0.000041219              -0.000044610               0.999999998               0.000047041              -0.000048148               0.999999998               0.000053368              -0.000051899               0.999999998               0.000060145              -0.000055767               0.999999998               0.000067334              -0.000059701               0.999999998              -0.000005925              -0.000048138               0.999999998               0.000002581              -0.000043378               0.999999998               0.000006671              -0.000042459               0.999999998               0.000009220              -0.000043739               0.999999998               0.000011359              -0.000046428               0.999999998               0.000013626              -0.000050053               0.999999998               0.000016259              -0.000054359               0.999999998               0.000019371              -0.000059310               0.999999998               0.000023004              -0.000064629               0.999999998               0.000027203              -0.000070329               0.999999998               0.000031989              -0.000076318               0.999999998               0.000037257              -0.000082633               0.999999998               0.000043046              -0.000089298               0.999999998               0.000049377              -0.000096429               0.999999998               0.000056192              -0.000103759               0.999999998               0.000063431              -0.000111341               0.999999998               0.000071044              -0.000119103               0.999999998              -0.000005497              -0.000071623               0.999999998               0.000001409              -0.000064406               0.999999998               0.000004728              -0.000063217               0.999999998               0.000007084              -0.000065355               0.999999998               0.000009380              -0.000069552               0.999999998               0.000012062              -0.000075122               0.999999998               0.000015264              -0.000081745               0.999999998               0.000019018              -0.000089125               0.999999998               0.000023397              -0.000097135               0.999999998               0.000028365              -0.000105654               0.999999998               0.000033912              -0.000114647               0.999999998               0.000040031              -0.000124030               0.999999998               0.000046661              -0.000134007               0.999999998               0.000053789              -0.000144586               0.999999998               0.000061361              -0.000155500               0.999999998               0.000069307              -0.000166591               0.999999998               0.000077564              -0.000178052               0.999999998              -0.000004984              -0.000094455               0.999999998              -0.000000240              -0.000084829               0.999999998               0.000002270              -0.000083576               0.999999998               0.000004558              -0.000086738               0.999999998               0.000007248              -0.000092540               0.999999998               0.000010621              -0.000100101               0.999999998               0.000014643              -0.000108984               0.999999998               0.000019344              -0.000118850               0.999999998               0.000024675              -0.000129485               0.999999998               0.000030607              -0.000140809               0.999999998               0.000037143              -0.000152748               0.999999998               0.000044276              -0.000165354               0.999999998               0.000051935              -0.000178596               0.999999998               0.000060025              -0.000192573               0.999999998               0.000068503              -0.000206873               0.999999998               0.000077284              -0.000221222               0.999999998               0.000086288              -0.000235937               0.999999998              -0.000004451              -0.000116462               0.999999998              -0.000002254              -0.000104525               0.999999998              -0.000000481              -0.000103407               0.999999998               0.000001972              -0.000107736               0.999999998               0.000005392              -0.000115233               0.999999998               0.000009687              -0.000124870               0.999999998               0.000014787              -0.000136010               0.999999998               0.000020582              -0.000148318               0.999999998               0.000027065              -0.000161599               0.999999998               0.000034144              -0.000175736               0.999999998               0.000041775              -0.000190678               0.999999998               0.000049989              -0.000206520               0.999999998               0.000058704              -0.000223094               0.999999998               0.000067830              -0.000240317               0.999999998               0.000077156              -0.000257714               0.999999998               0.000086626              -0.000275132               0.999999998               0.000096319              -0.000292879               0.999999998              -0.000003906              -0.000137405               0.999999998              -0.000004560              -0.000123414               0.999999998              -0.000003310              -0.000122670               0.999999998              -0.000000339              -0.000128249               0.999999998               0.000004024              -0.000137547               0.999999998               0.000009446              -0.000149223               0.999999998               0.000015746              -0.000162626               0.999999998               0.000022780              -0.000177413               0.999999998               0.000030426              -0.000193416               0.999999998               0.000038587              -0.000210391               0.999999998               0.000047294              -0.000228444               0.999999998               0.000056590              -0.000247528               0.999999998               0.000066305              -0.000267424               0.999999998               0.000076233              -0.000287585               0.999999998               0.000086303              -0.000307881               0.999999998               0.000096513              -0.000328319               0.999999998               0.000107020              -0.000349273               0.999999998              -0.000003424              -0.000157008               0.999999998              -0.000006974              -0.000141473               0.999999998              -0.000005878              -0.000141289               0.999999998              -0.000002141              -0.000148160               0.999999998               0.000003321              -0.000159284               0.999999998               0.000009978              -0.000173050               0.999999998               0.000017528              -0.000188791               0.999999998               0.000025698              -0.000206150               0.999999998               0.000034331              -0.000224902               0.999999998               0.000043545              -0.000244812               0.999999998               0.000053332              -0.000265997               0.999999998               0.000063629              -0.000288303               0.999999998               0.000074109              -0.000311279               0.999999998               0.000084761              -0.000334594               0.999999998               0.000095605              -0.000358163               0.999999998               0.000106788              -0.000382130               0.999999998               0.000118447              -0.000406969               0.999999998              -0.000002914              -0.000174886               0.999999998              -0.000009309              -0.000158706               0.999999998              -0.000007966              -0.000159089               0.999999998              -0.000003362              -0.000167346               0.999999998               0.000003299              -0.000180286               0.999999998               0.000011130              -0.000196223               0.999999998               0.000019762              -0.000214369               0.999999998               0.000028901              -0.000234388               0.999999998               0.000038499              -0.000255997               0.999999998               0.000048681              -0.000279028               0.999999998               0.000059491              -0.000303449               0.999999998               0.000070602              -0.000329003               0.999999998               0.000081825              -0.000355284               0.999999998               0.000093246              -0.000382140               0.999999998               0.000105011              -0.000409593               0.999999998               0.000117199              -0.000438023               0.999999998               0.000129707              -0.000467324               0.999999998              -0.000002134              -0.000191590               0.999999998              -0.000010718              -0.000176621               0.999999998              -0.000010470              -0.000175230               0.999999998              -0.000006651              -0.000181492               0.999999998              -0.000000804              -0.000192376               0.999999998               0.000006258              -0.000206357               0.999999998               0.000013996              -0.000222523               0.999999998               0.000022169              -0.000240529               0.999999998               0.000030610              -0.000260096               0.999999998               0.000039450              -0.000281056               0.999999998               0.000048732              -0.000303328               0.999999998               0.000058569              -0.000326767               0.999999998               0.000068625              -0.000351262               0.999999998               0.000078727              -0.000376434               0.999999998               0.000088839              -0.000402445               0.999999998               0.000099101              -0.000429287               0.999999998               0.000109696              -0.000457254               0.999999998              -0.000001550              -0.000206691               0.999999998              -0.000011303              -0.000193741               0.999999998              -0.000012173              -0.000191553               0.999999998              -0.000009281              -0.000196171               0.999999998              -0.000004421              -0.000205255               0.999999998               0.000001733              -0.000217383               0.999999998               0.000008475              -0.000231781               0.999999998               0.000015721              -0.000247938               0.999999998               0.000023096              -0.000265619               0.999999998               0.000030591              -0.000284700               0.999999998               0.000038526              -0.000305037               0.999999998               0.000046976              -0.000326493               0.999999998               0.000055814              -0.000349009               0.999999998               0.000064617              -0.000372475               0.999999998               0.000073265              -0.000396833               0.999999998               0.000081701              -0.000422111               0.999999998               0.000090226              -0.000448362               0.999999998              -0.000001088              -0.000219861               0.999999998              -0.000011019              -0.000209584               0.999999998              -0.000012804              -0.000207375               0.999999998              -0.000010932              -0.000210861               0.999999998              -0.000007090              -0.000218461               0.999999998              -0.000002017              -0.000229018               0.999999998               0.000003759              -0.000241763               0.999999998               0.000009942              -0.000256309               0.999999998               0.000016239              -0.000272327               0.999999998               0.000022548              -0.000289726               0.999999998               0.000029175              -0.000308343               0.999999998               0.000036353              -0.000328052               0.999999998               0.000043738              -0.000348806               0.999999998               0.000050970              -0.000370596               0.999999998               0.000057972              -0.000393464               0.999999998               0.000064751              -0.000417305               0.999999998               0.000071377              -0.000442068               0.999999998              -0.000000732              -0.000230881               0.999999998              -0.000009912              -0.000223601               0.999999998              -0.000012242              -0.000221916               0.999999998              -0.000011269              -0.000224819               0.999999998              -0.000008456              -0.000231306               0.999999998              -0.000004509              -0.000240617               0.999999998               0.000000228              -0.000252000               0.999999998               0.000005308              -0.000265168               0.999999998               0.000010472              -0.000279828               0.999999998               0.000015619              -0.000295783               0.999999998               0.000020986              -0.000312991               0.999999998               0.000026756              -0.000331313               0.999999998               0.000032662              -0.000350639               0.999999998               0.000038212              -0.000371005               0.999999998               0.000043529              -0.000392418               0.999999998               0.000048585              -0.000414857               0.999999998               0.000053198              -0.000438355               0.999999998              -0.000000452              -0.000239593               0.999999998              -0.000008107              -0.000235209               0.999999998              -0.000010483              -0.000234400               0.999999998              -0.000010125              -0.000237166               0.999999998              -0.000008313              -0.000242984               0.999999998              -0.000005437              -0.000251324               0.999999998              -0.000001903              -0.000261752               0.999999998               0.000002033              -0.000273890               0.999999998               0.000005986              -0.000287512               0.999999998               0.000009979              -0.000302446               0.999999998               0.000014000              -0.000318583               0.999999998               0.000018264              -0.000335949               0.999999998               0.000022597              -0.000354313               0.999999998               0.000026754              -0.000373607               0.999999998               0.000030432              -0.000393848               0.999999998               0.000033633              -0.000415153               0.999999998               0.000036187              -0.000437564               0.999999998              -0.000000228              -0.000245917               0.999999998              -0.000005729              -0.000243863               0.999999998              -0.000007660              -0.000244032               0.999999998              -0.000007644              -0.000246960               0.999999998              -0.000006590              -0.000252433               0.999999998              -0.000004790              -0.000260217               0.999999998              -0.000002451              -0.000269980               0.999999998               0.000000160              -0.000281421               0.999999998               0.000002847              -0.000294372               0.999999998               0.000005563              -0.000308664               0.999999998               0.000008296              -0.000324152               0.999999998               0.000011138              -0.000340775               0.999999998               0.000014007              -0.000358408               0.999999998               0.000016788              -0.000377056               0.999999998               0.000019054              -0.000396706               0.999999998               0.000020655              -0.000417421               0.999999998               0.000021553              -0.000439180               0.999999998              -0.000000088              -0.000249783               0.999999998              -0.000002961              -0.000249262               0.999999998              -0.000004043              -0.000250126               0.999999998              -0.000004127              -0.000253264               0.999999998              -0.000003646              -0.000258659               0.999999998              -0.000002776              -0.000266119               0.999999998              -0.000001613              -0.000275502               0.999999998              -0.000000327              -0.000286596               0.999999998               0.000000979              -0.000299193               0.999999998               0.000002339              -0.000313064               0.999999998               0.000003839              -0.000328143               0.999999998               0.000005297              -0.000344387               0.999999998               0.000006622              -0.000361712               0.999999998               0.000007939              -0.000380064               0.999999998               0.000009128              -0.000399431               0.999999998               0.000009649              -0.000419878               0.999999998               0.000009702              -0.000441340               0.999999998               0.000000000              -0.000251027               0.999999998              -0.000000000              -0.000251056               0.999999998              -0.000000000              -0.000252218               0.999999998               0.000000000              -0.000255453               0.999999998               0.000000000              -0.000260832               0.999999998              -0.000000000              -0.000268236               0.999999998              -0.000000000              -0.000277515               0.999999998              -0.000000000              -0.000288405               0.999999998               0.000000000              -0.000300835               0.999999998              -0.000000000              -0.000314627               0.999999998              -0.000000000              -0.000329560               0.999999998              -0.000000000              -0.000345679               0.999999998              -0.000000000              -0.000363006               0.999999998              -0.000000000              -0.000381347               0.999999998               0.000000000              -0.000400642               0.999999998               0.000000000              -0.000420911               0.999999998               0.000000000              -0.000442197               0.999999998              -0.000006279              -0.000000000               0.999999998               0.000003502              -0.000000000               0.999999998               0.000008318              -0.000000000               0.999999998               0.000011171              -0.000000000               0.999999998               0.000013282              -0.000000000               0.999999998               0.000015272               0.000000000               0.999999998               0.000017477               0.000000000               0.999999998               0.000020032               0.000000000               0.999999998               0.000023117               0.000000000               0.999999998               0.000026789               0.000000000               0.999999998               0.000030924               0.000000000               0.999999998               0.000035541               0.000000000               0.999999998               0.000040657               0.000000000               0.999999998               0.000046282               0.000000000               0.999999998               0.000052420               0.000000000               0.999999998               0.000059045               0.000000000               0.999999998               0.000066130              -0.000000000               0.999999998              -0.000006185               0.000024187               0.999999998               0.000003277               0.000021843               0.999999998               0.000007915               0.000021345               0.999999998               0.000010668               0.000021956               0.999999998               0.000012753               0.000023239               0.999999998               0.000014835               0.000025033               0.999999998               0.000017145               0.000027203               0.999999998               0.000019864               0.000029597               0.999999998               0.000023078               0.000032304               0.999999998               0.000026805               0.000035148               0.999999998               0.000031096               0.000038174               0.999999998               0.000035909               0.000041276               0.999999998               0.000041219               0.000044610               0.999999998               0.000047041               0.000048148               0.999999998               0.000053368               0.000051899               0.999999998               0.000060145               0.000055767               0.999999998               0.000067334               0.000059701               0.999999998              -0.000005925               0.000048138               0.999999998               0.000002581               0.000043378               0.999999998               0.000006671               0.000042459               0.999999998               0.000009220               0.000043739               0.999999998               0.000011359               0.000046428               0.999999998               0.000013626               0.000050053               0.999999998               0.000016259               0.000054359               0.999999998               0.000019371               0.000059310               0.999999998               0.000023004               0.000064629               0.999999998               0.000027203               0.000070329               0.999999998               0.000031989               0.000076318               0.999999998               0.000037257               0.000082633               0.999999998               0.000043046               0.000089298               0.999999998               0.000049377               0.000096429               0.999999998               0.000056192               0.000103759               0.999999998               0.000063431               0.000111341               0.999999998               0.000071044               0.000119103               0.999999998              -0.000005497               0.000071623               0.999999998               0.000001409               0.000064406               0.999999998               0.000004728               0.000063217               0.999999998               0.000007084               0.000065355               0.999999998               0.000009380               0.000069552               0.999999998               0.000012062               0.000075122               0.999999998               0.000015264               0.000081745               0.999999998               0.000019018               0.000089125               0.999999998               0.000023397               0.000097135               0.999999998               0.000028365               0.000105654               0.999999998               0.000033912               0.000114647               0.999999998               0.000040031               0.000124030               0.999999998               0.000046661               0.000134007               0.999999998               0.000053789               0.000144586               0.999999998               0.000061361               0.000155500               0.999999998               0.000069307               0.000166591               0.999999998               0.000077564               0.000178052               0.999999998              -0.000004984               0.000094455               0.999999998              -0.000000240               0.000084829               0.999999998               0.000002270               0.000083576               0.999999998               0.000004558               0.000086738               0.999999998               0.000007248               0.000092540               0.999999998               0.000010621               0.000100101               0.999999998               0.000014643               0.000108984               0.999999998               0.000019344               0.000118850               0.999999998               0.000024675               0.000129485               0.999999998               0.000030607               0.000140809               0.999999998               0.000037143               0.000152748               0.999999998               0.000044276               0.000165354               0.999999998               0.000051935               0.000178596               0.999999998               0.000060025               0.000192573               0.999999998               0.000068503               0.000206873               0.999999998               0.000077284               0.000221222               0.999999998               0.000086288               0.000235937               0.999999998              -0.000004451               0.000116462               0.999999998              -0.000002254               0.000104525               0.999999998              -0.000000481               0.000103407               0.999999998               0.000001972               0.000107736               0.999999998               0.000005392               0.000115233               0.999999998               0.000009687               0.000124870               0.999999998               0.000014787               0.000136010               0.999999998               0.000020582               0.000148318               0.999999998               0.000027065               0.000161599               0.999999998               0.000034144               0.000175736               0.999999998               0.000041775               0.000190678               0.999999998               0.000049989               0.000206520               0.999999998               0.000058704               0.000223094               0.999999998               0.000067830               0.000240317               0.999999998               0.000077156               0.000257714               0.999999998               0.000086626               0.000275132               0.999999998               0.000096319               0.000292879               0.999999998              -0.000003906               0.000137405               0.999999998              -0.000004560               0.000123414               0.999999998              -0.000003310               0.000122670               0.999999998              -0.000000339               0.000128249               0.999999998               0.000004024               0.000137547               0.999999998               0.000009446               0.000149223               0.999999998               0.000015746               0.000162626               0.999999998               0.000022780               0.000177413               0.999999998               0.000030426               0.000193416               0.999999998               0.000038587               0.000210391               0.999999998               0.000047294               0.000228444               0.999999998               0.000056590               0.000247528               0.999999998               0.000066305               0.000267424               0.999999998               0.000076233               0.000287585               0.999999998               0.000086303               0.000307881               0.999999998               0.000096513               0.000328319               0.999999998               0.000107020               0.000349273               0.999999998              -0.000003424               0.000157008               0.999999998              -0.000006974               0.000141473               0.999999998              -0.000005878               0.000141289               0.999999998              -0.000002141               0.000148160               0.999999998               0.000003321               0.000159284               0.999999998               0.000009978               0.000173050               0.999999998               0.000017528               0.000188791               0.999999998               0.000025698               0.000206150               0.999999998               0.000034331               0.000224902               0.999999998               0.000043545               0.000244812               0.999999998               0.000053332               0.000265997               0.999999998               0.000063629               0.000288303               0.999999998               0.000074109               0.000311279               0.999999998               0.000084761               0.000334594               0.999999998               0.000095605               0.000358163               0.999999998               0.000106788               0.000382130               0.999999998               0.000118447               0.000406969               0.999999998              -0.000002914               0.000174886               0.999999998              -0.000009309               0.000158706               0.999999998              -0.000007966               0.000159089               0.999999998              -0.000003362               0.000167346               0.999999998               0.000003299               0.000180286               0.999999998               0.000011130               0.000196223               0.999999998               0.000019762               0.000214369               0.999999998               0.000028901               0.000234388               0.999999998               0.000038499               0.000255997               0.999999998               0.000048681               0.000279028               0.999999998               0.000059491               0.000303449               0.999999998               0.000070602               0.000329003               0.999999998               0.000081825               0.000355284               0.999999998               0.000093246               0.000382140               0.999999998               0.000105011               0.000409593               0.999999998               0.000117199               0.000438023               0.999999998               0.000129707               0.000467324               0.999999998              -0.000002134               0.000191590               0.999999998              -0.000010718               0.000176621               0.999999998              -0.000010470               0.000175230               0.999999998              -0.000006651               0.000181492               0.999999998              -0.000000804               0.000192376               0.999999998               0.000006258               0.000206357               0.999999998               0.000013996               0.000222523               0.999999998               0.000022169               0.000240529               0.999999998               0.000030610               0.000260096               0.999999998               0.000039450               0.000281056               0.999999998               0.000048732               0.000303328               0.999999998               0.000058569               0.000326767               0.999999998               0.000068625               0.000351262               0.999999998               0.000078727               0.000376434               0.999999998               0.000088839               0.000402445               0.999999998               0.000099101               0.000429287               0.999999998               0.000109696               0.000457254               0.999999998              -0.000001550               0.000206691               0.999999998              -0.000011303               0.000193741               0.999999998              -0.000012173               0.000191553               0.999999998              -0.000009281               0.000196171               0.999999998              -0.000004421               0.000205255               0.999999998               0.000001733               0.000217383               0.999999998               0.000008475               0.000231781               0.999999998               0.000015721               0.000247938               0.999999998               0.000023096               0.000265619               0.999999998               0.000030591               0.000284700               0.999999998               0.000038526               0.000305037               0.999999998               0.000046976               0.000326493               0.999999998               0.000055814               0.000349009               0.999999998               0.000064617               0.000372475               0.999999998               0.000073265               0.000396833               0.999999998               0.000081701               0.000422111               0.999999998               0.000090226               0.000448362               0.999999998              -0.000001088               0.000219861               0.999999998              -0.000011019               0.000209584               0.999999998              -0.000012804               0.000207375               0.999999998              -0.000010932               0.000210861               0.999999998              -0.000007090               0.000218461               0.999999998              -0.000002017               0.000229018               0.999999998               0.000003759               0.000241763               0.999999998               0.000009942               0.000256309               0.999999998               0.000016239               0.000272327               0.999999998               0.000022548               0.000289726               0.999999998               0.000029175               0.000308343               0.999999998               0.000036353               0.000328052               0.999999998               0.000043738               0.000348806               0.999999998               0.000050970               0.000370596               0.999999998               0.000057972               0.000393464               0.999999998               0.000064751               0.000417305               0.999999998               0.000071377               0.000442068               0.999999998              -0.000000732               0.000230881               0.999999998              -0.000009912               0.000223601               0.999999998              -0.000012242               0.000221916               0.999999998              -0.000011269               0.000224819               0.999999998              -0.000008456               0.000231306               0.999999998              -0.000004509               0.000240617               0.999999998               0.000000228               0.000252000               0.999999998               0.000005308               0.000265168               0.999999998               0.000010472               0.000279828               0.999999998               0.000015619               0.000295783               0.999999998               0.000020986               0.000312991               0.999999998               0.000026756               0.000331313               0.999999998               0.000032662               0.000350639               0.999999998               0.000038212               0.000371005               0.999999998               0.000043529               0.000392418               0.999999998               0.000048585               0.000414857               0.999999998               0.000053198               0.000438355               0.999999998              -0.000000452               0.000239593               0.999999998              -0.000008107               0.000235209               0.999999998              -0.000010483               0.000234400               0.999999998              -0.000010125               0.000237166               0.999999998              -0.000008313               0.000242984               0.999999998              -0.000005437               0.000251324               0.999999998              -0.000001903               0.000261752               0.999999998               0.000002033               0.000273890               0.999999998               0.000005986               0.000287512               0.999999998               0.000009979               0.000302446               0.999999998               0.000014000               0.000318583               0.999999998               0.000018264               0.000335949               0.999999998               0.000022597               0.000354313               0.999999998               0.000026754               0.000373607               0.999999998               0.000030432               0.000393848               0.999999998               0.000033633               0.000415153               0.999999998               0.000036187               0.000437564               0.999999998              -0.000000228               0.000245917               0.999999998              -0.000005729               0.000243863               0.999999998              -0.000007660               0.000244032               0.999999998              -0.000007644               0.000246960               0.999999998              -0.000006590               0.000252433               0.999999998              -0.000004790               0.000260217               0.999999998              -0.000002451               0.000269980               0.999999998               0.000000160               0.000281421               0.999999998               0.000002847               0.000294372               0.999999998               0.000005563               0.000308664               0.999999998               0.000008296               0.000324152               0.999999998               0.000011138               0.000340775               0.999999998               0.000014007               0.000358408               0.999999998               0.000016788               0.000377056               0.999999998               0.000019054               0.000396706               0.999999998               0.000020655               0.000417421               0.999999998               0.000021553               0.000439180               0.999999998              -0.000000088               0.000249783               0.999999998              -0.000002961               0.000249262               0.999999998              -0.000004043               0.000250126               0.999999998              -0.000004127               0.000253264               0.999999998              -0.000003646               0.000258659               0.999999998              -0.000002776               0.000266119               0.999999998              -0.000001613               0.000275502               0.999999998              -0.000000327               0.000286596               0.999999998               0.000000979               0.000299193               0.999999998               0.000002339               0.000313064               0.999999998               0.000003839               0.000328143               0.999999998               0.000005297               0.000344387               0.999999998               0.000006622               0.000361712               0.999999998               0.000007939               0.000380064               0.999999998               0.000009128               0.000399431               0.999999998               0.000009649               0.000419878               0.999999998               0.000009702               0.000441340               0.999999998              -0.000000000               0.000251027               0.999999998              -0.000000000               0.000251056               0.999999998              -0.000000000               0.000252218               0.999999998               0.000000000               0.000255453               0.999999998               0.000000000               0.000260832               0.999999998               0.000000000               0.000268236               0.999999998               0.000000000               0.000277515               0.999999998               0.000000000               0.000288405               0.999999998               0.000000000               0.000300835               0.999999998               0.000000000               0.000314627               0.999999998              -0.000000000               0.000329560               0.999999998              -0.000000000               0.000345679               0.999999998               0.000000000               0.000363006               0.999999998               0.000000000               0.000381347               0.999999998              -0.000000000               0.000400642               0.999999998               0.000000000               0.000420911               0.999999998               0.000000000               0.000442197               0.999999998 </DataArray>
<DataArray type="Float64"                                    Name="stress"                                                      NumberOfComponents="10" format="ascii">
              0.000396855               0.004556405               0.000000000              -0.000420729               0.001659029               0.001238300               0.000000000               0.000000000               0.000000000               0.000000000               0.000447600               0.003803513               0.000000000              -0.000307588               0.001370354               0.001062766               0.000000000               0.000000000               0.000000000               0.000000000               0.000628309               0.003192839              -0.000000000              -0.000163489               0.001118765               0.000955276               0.000000000               0.000000000               0.000000000               0.000000000               0.000666213               0.002857802               0.000000000              -0.000107395               0.000988389               0.000880994               0.000000000               0.000000000               0.000000000               0.000000000               0.000646102               0.002662955               0.000000000              -0.000090581               0.000917836               0.000827255               0.000000000               0.000000000               0.000000000               0.000000000               0.000599768               0.002548147               0.000000000              -0.000093605               0.000880576               0.000786971               0.000000000               0.000000000               0.000000000               0.000000000               0.000543434               0.002480792              -0.000000000              -0.000106311               0.000862359               0.000756048               0.000000000               0.000000000               0.000000000               0.000000000               0.000478483               0.002439506              -0.000000000              -0.000125507               0.000854996               0.000729489               0.000000000               0.000000000               0.000000000               0.000000000               0.000409324               0.002418969              -0.000000000              -0.000148874               0.000855940               0.000707065               0.000000000               0.000000000               0.000000000               0.000000000               0.000345623               0.002411174              -0.000000000              -0.000171788               0.000860979               0.000689192               0.000000000               0.000000000               0.000000000               0.000000000               0.000289131               0.002413392              -0.000000000              -0.000193249               0.000868873               0.000675623               0.000000000               0.000000000               0.000000000               0.000000000               0.000234074               0.002420094              -0.000000000              -0.000214734               0.000878268               0.000663534               0.000000000               0.000000000               0.000000000               0.000000000               0.000180959               0.002435080              -0.000000000              -0.000236525               0.000890527               0.000654002               0.000000000               0.000000000               0.000000000               0.000000000               0.000129464               0.002457308              -0.000000000              -0.000258614               0.000905299               0.000646685               0.000000000               0.000000000               0.000000000               0.000000000               0.000082074               0.002485835              -0.000000000              -0.000279951               0.000921920               0.000641970               0.000000000               0.000000000               0.000000000               0.000000000               0.000039287               0.002516848              -0.000000000              -0.000299873               0.000938899               0.000639026               0.000000000               0.000000000               0.000000000               0.000000000               0.000021796               0.002540348              -0.000000000              -0.000309369               0.000949897               0.000640528               0.000000000               0.000000000               0.000000000               0.000000000               0.000423108               0.004483469              -0.000353932              -0.000401767               0.001628397               0.001226630               0.000000000               0.000000000               0.000000000               0.000000000               0.000457621               0.003748392              -0.000236850              -0.000296940               0.001348432               0.001051491               0.000000000               0.000000000               0.000000000               0.000000000               0.000621773               0.003160207              -0.000112833              -0.000161861               0.001107345               0.000945485               0.000000000               0.000000000               0.000000000               0.000000000               0.000651807               0.002838117              -0.000052120              -0.000110337               0.000982809               0.000872472               0.000000000               0.000000000               0.000000000               0.000000000               0.000626889               0.002652091              -0.000021823              -0.000096428               0.000916164               0.000819736               0.000000000               0.000000000               0.000000000               0.000000000               0.000578180               0.002540692              -0.000006603              -0.000100769               0.000880478               0.000779710               0.000000000               0.000000000               0.000000000               0.000000000               0.000521471               0.002474650              -0.000000133              -0.000113779               0.000862802               0.000749022               0.000000000               0.000000000               0.000000000               0.000000000               0.000459969               0.002438255               0.000002806              -0.000132293               0.000856841               0.000724548               0.000000000               0.000000000               0.000000000               0.000000000               0.000396383               0.002418154               0.000004067              -0.000153625               0.000857252               0.000703627               0.000000000               0.000000000               0.000000000               0.000000000               0.000333640               0.002409818               0.000003819              -0.000176112               0.000861968               0.000685857               0.000000000               0.000000000               0.000000000               0.000000000               0.000275251               0.002410455               0.000002195              -0.000198087               0.000869506               0.000671419               0.000000000               0.000000000               0.000000000               0.000000000               0.000222035               0.002419326               0.000001939              -0.000219152               0.000879484               0.000660333               0.000000000               0.000000000               0.000000000               0.000000000               0.000170474               0.002435155               0.000004267              -0.000240466               0.000891866               0.000651399               0.000000000               0.000000000               0.000000000               0.000000000               0.000120906               0.002457794               0.000005931              -0.000261884               0.000906551               0.000644667               0.000000000               0.000000000               0.000000000               0.000000000               0.000075821               0.002483527               0.000006343              -0.000282007               0.000921837               0.000639829               0.000000000               0.000000000               0.000000000               0.000000000               0.000036488               0.002512074               0.000005493              -0.000300326               0.000937458               0.000637132               0.000000000               0.000000000               0.000000000               0.000000000               0.000021014               0.002534473               0.000004238              -0.000308928               0.000947792               0.000638864               0.000000000               0.000000000               0.000000000               0.000000000               0.000497790               0.004275451              -0.000674181              -0.000347760               0.001541056               0.001193296               0.000000000               0.000000000               0.000000000               0.000000000               0.000487311               0.003596220              -0.000449999              -0.000266785               0.001287656               0.001020871               0.000000000               0.000000000               0.000000000               0.000000000               0.000602973               0.003074102              -0.000215603              -0.000158148               0.001077406               0.000919259               0.000000000               0.000000000               0.000000000               0.000000000               0.000609628               0.002789685              -0.000104015              -0.000120100               0.000969919               0.000849819               0.000000000               0.000000000               0.000000000               0.000000000               0.000575730               0.002625989              -0.000049368              -0.000112350               0.000912771               0.000800421               0.000000000               0.000000000               0.000000000               0.000000000               0.000524806               0.002527417              -0.000022675              -0.000119125               0.000882172               0.000763048               0.000000000               0.000000000               0.000000000               0.000000000               0.000469824               0.002469787              -0.000009016              -0.000132539               0.000867434               0.000734895               0.000000000               0.000000000               0.000000000               0.000000000               0.000413106               0.002436934              -0.000003267              -0.000149702               0.000862204               0.000712502               0.000000000               0.000000000               0.000000000               0.000000000               0.000355333               0.002417718              -0.000002637              -0.000168965               0.000862219               0.000693255               0.000000000               0.000000000               0.000000000               0.000000000               0.000297099               0.002409162              -0.000003646              -0.000189733               0.000866290               0.000676558               0.000000000               0.000000000               0.000000000               0.000000000               0.000244014               0.002409781              -0.000004971              -0.000209717               0.000873158               0.000663441               0.000000000               0.000000000               0.000000000               0.000000000               0.000196444               0.002418679              -0.000003977              -0.000228668               0.000882441               0.000653773               0.000000000               0.000000000               0.000000000               0.000000000               0.000148431               0.002433815               0.000000898              -0.000248565               0.000894118               0.000645554               0.000000000               0.000000000               0.000000000               0.000000000               0.000103247               0.002454621               0.000003438              -0.000268109               0.000907569               0.000639459               0.000000000               0.000000000               0.000000000               0.000000000               0.000063749               0.002476833               0.000002704              -0.000285698               0.000920835               0.000635138               0.000000000               0.000000000               0.000000000               0.000000000               0.000029680               0.002499560               0.000002901              -0.000301314               0.000933617               0.000632302               0.000000000               0.000000000               0.000000000               0.000000000               0.000017142               0.002518858               0.000001877              -0.000308428               0.000942420               0.000633992               0.000000000               0.000000000               0.000000000               0.000000000               0.000606913               0.003961695              -0.000931639              -0.000267620               0.001409758               0.001142139               0.000000000               0.000000000               0.000000000               0.000000000               0.000528345               0.003374918              -0.000622674              -0.000223735               0.001199540               0.000975805               0.000000000               0.000000000               0.000000000               0.000000000               0.000571697               0.002955244              -0.000304227              -0.000155019               0.001036745               0.000881726               0.000000000               0.000000000               0.000000000               0.000000000               0.000548233               0.002725197              -0.000157395              -0.000135062               0.000953410               0.000818349               0.000000000               0.000000000               0.000000000               0.000000000               0.000503125               0.002589003              -0.000086497              -0.000134953               0.000907977               0.000773024               0.000000000               0.000000000               0.000000000               0.000000000               0.000451595               0.002506661              -0.000051493              -0.000143984               0.000883540               0.000739556               0.000000000               0.000000000               0.000000000               0.000000000               0.000401866               0.002458314              -0.000033910              -0.000156589               0.000871626               0.000715037               0.000000000               0.000000000               0.000000000               0.000000000               0.000350529               0.002427079              -0.000026208              -0.000171936               0.000866330               0.000694394               0.000000000               0.000000000               0.000000000               0.000000000               0.000299350               0.002409453              -0.000023386              -0.000188925               0.000866118               0.000677193               0.000000000               0.000000000               0.000000000               0.000000000               0.000249708               0.002401887              -0.000022088              -0.000206595               0.000869486               0.000662891               0.000000000               0.000000000               0.000000000               0.000000000               0.000201764               0.002402697              -0.000021535              -0.000224675               0.000875783               0.000651108               0.000000000               0.000000000               0.000000000               0.000000000               0.000158954               0.002411911              -0.000018457              -0.000241881               0.000884589               0.000642709               0.000000000               0.000000000               0.000000000               0.000000000               0.000119779               0.002426909              -0.000010327              -0.000258446               0.000895110               0.000636664               0.000000000               0.000000000               0.000000000               0.000000000               0.000083219               0.002445025              -0.000005520              -0.000274420               0.000906474               0.000632053               0.000000000               0.000000000               0.000000000               0.000000000               0.000051378               0.002462987              -0.000007461              -0.000288606               0.000917189               0.000628584               0.000000000               0.000000000               0.000000000               0.000000000               0.000023835               0.002477348              -0.000005933              -0.000300730               0.000926018               0.000625288               0.000000000               0.000000000               0.000000000               0.000000000               0.000013731               0.002489375              -0.000004027              -0.000306022               0.000931791               0.000625769               0.000000000               0.000000000               0.000000000               0.000000000               0.000724886               0.003574660              -0.001109570              -0.000175001               0.001249875               0.001074874               0.000000000               0.000000000               0.000000000               0.000000000               0.000566422               0.003106560              -0.000747363              -0.000175912               0.001094147               0.000918235               0.000000000               0.000000000               0.000000000               0.000000000               0.000525738               0.002812216              -0.000377517              -0.000154375               0.000988854               0.000834479               0.000000000               0.000000000               0.000000000               0.000000000               0.000472416               0.002643227              -0.000212688              -0.000153247               0.000932149               0.000778902               0.000000000               0.000000000               0.000000000               0.000000000               0.000420285               0.002538805              -0.000134594              -0.000159743               0.000899508               0.000739764               0.000000000               0.000000000               0.000000000               0.000000000               0.000372669               0.002474039              -0.000094546              -0.000169504               0.000881173               0.000711669               0.000000000               0.000000000               0.000000000               0.000000000               0.000329678               0.002432390              -0.000072817              -0.000180419               0.000870928               0.000690509               0.000000000               0.000000000               0.000000000               0.000000000               0.000287248               0.002406049              -0.000061403              -0.000193038               0.000866354               0.000673316               0.000000000               0.000000000               0.000000000               0.000000000               0.000246743               0.002391812              -0.000054329              -0.000206447               0.000866079               0.000659631               0.000000000               0.000000000               0.000000000               0.000000000               0.000206717               0.002387139              -0.000048605              -0.000220873               0.000869329               0.000648456               0.000000000               0.000000000               0.000000000               0.000000000               0.000165037               0.002390511              -0.000041884              -0.000236924               0.000875804               0.000638879               0.000000000               0.000000000               0.000000000               0.000000000               0.000127229               0.002403805              -0.000033928              -0.000252764               0.000885515               0.000632751               0.000000000               0.000000000               0.000000000               0.000000000               0.000095838               0.002420164              -0.000022992              -0.000266581               0.000895573               0.000628993               0.000000000               0.000000000               0.000000000               0.000000000               0.000068715               0.002434435              -0.000016186              -0.000278536               0.000904315               0.000625780               0.000000000               0.000000000               0.000000000               0.000000000               0.000043622               0.002442914              -0.000018263              -0.000289005               0.000910632               0.000621626               0.000000000               0.000000000               0.000000000               0.000000000               0.000020675               0.002447085              -0.000015322              -0.000298132               0.000915064               0.000616933               0.000000000               0.000000000               0.000000000               0.000000000               0.000011038               0.002450318              -0.000010891              -0.000302150               0.000917481               0.000615332               0.000000000               0.000000000               0.000000000               0.000000000               0.000824549               0.003139786              -0.001206054              -0.000083269               0.001074341               0.000991072               0.000000000               0.000000000               0.000000000               0.000000000               0.000589924               0.002810182              -0.000824404              -0.000130052               0.000980068               0.000850017               0.000000000               0.000000000               0.000000000               0.000000000               0.000468338               0.002655781              -0.000437618              -0.000156346               0.000937367               0.000781021               0.000000000               0.000000000               0.000000000               0.000000000               0.000391651               0.002550049              -0.000269963              -0.000171887               0.000907303               0.000735417               0.000000000               0.000000000               0.000000000               0.000000000               0.000339773               0.002480450              -0.000189121              -0.000182641               0.000887689               0.000705048               0.000000000               0.000000000               0.000000000               0.000000000               0.000300346               0.002433624              -0.000144994              -0.000191573               0.000875058               0.000683485               0.000000000               0.000000000               0.000000000               0.000000000               0.000267084               0.002401673              -0.000118605              -0.000200052               0.000867234               0.000667182               0.000000000               0.000000000               0.000000000               0.000000000               0.000235254               0.002382660              -0.000100687              -0.000209612               0.000864083               0.000654471               0.000000000               0.000000000               0.000000000               0.000000000               0.000204438               0.002375503              -0.000087011              -0.000220273               0.000865251               0.000644977               0.000000000               0.000000000               0.000000000               0.000000000               0.000173742               0.002376292              -0.000073784              -0.000231883               0.000869384               0.000637501               0.000000000               0.000000000               0.000000000               0.000000000               0.000139486               0.002385304              -0.000058595              -0.000245855               0.000877045               0.000631190               0.000000000               0.000000000               0.000000000               0.000000000               0.000106522               0.002400295              -0.000044048              -0.000260090               0.000886787               0.000626697               0.000000000               0.000000000               0.000000000               0.000000000               0.000079647               0.002415038              -0.000031801              -0.000272011               0.000895675               0.000623664               0.000000000               0.000000000               0.000000000               0.000000000               0.000058549               0.002419577              -0.000024488              -0.000280491               0.000900015               0.000619524               0.000000000               0.000000000               0.000000000               0.000000000               0.000042441               0.002419115              -0.000024130              -0.000286473               0.000901855               0.000615381               0.000000000               0.000000000               0.000000000               0.000000000               0.000022667               0.002418055              -0.000018600              -0.000293756               0.000903929               0.000610173               0.000000000               0.000000000               0.000000000               0.000000000               0.000012318               0.002419419              -0.000013446              -0.000297807               0.000905734               0.000607927               0.000000000               0.000000000               0.000000000               0.000000000               0.000889872               0.002685803              -0.001224168              -0.000002025               0.000895933               0.000893908               0.000000000               0.000000000               0.000000000               0.000000000               0.000597402               0.002511050              -0.000859482              -0.000089856               0.000866960               0.000777104               0.000000000               0.000000000               0.000000000               0.000000000               0.000410093               0.002500600              -0.000490263              -0.000158790               0.000886455               0.000727665               0.000000000               0.000000000               0.000000000               0.000000000               0.000321450               0.002455485              -0.000328250              -0.000186392               0.000880617               0.000694226               0.000000000               0.000000000               0.000000000               0.000000000               0.000274346               0.002418683              -0.000245246              -0.000199455               0.000872705               0.000673250               0.000000000               0.000000000               0.000000000               0.000000000               0.000244142               0.002389479              -0.000196647              -0.000207131               0.000865529               0.000658398               0.000000000               0.000000000               0.000000000               0.000000000               0.000220513               0.002370997              -0.000163167              -0.000213682               0.000861552               0.000647870               0.000000000               0.000000000               0.000000000               0.000000000               0.000199275               0.002363849              -0.000135740              -0.000220752               0.000861526               0.000640773               0.000000000               0.000000000               0.000000000               0.000000000               0.000175816               0.002364356              -0.000112237              -0.000229613               0.000864648               0.000635035               0.000000000               0.000000000               0.000000000               0.000000000               0.000149384               0.002370550              -0.000089735              -0.000240299               0.000870275               0.000629976               0.000000000               0.000000000               0.000000000               0.000000000               0.000118252               0.002382973              -0.000066331              -0.000253527               0.000878825               0.000625299               0.000000000               0.000000000               0.000000000               0.000000000               0.000089876               0.002396638              -0.000045887              -0.000265875               0.000887496               0.000621621               0.000000000               0.000000000               0.000000000               0.000000000               0.000069412               0.002405794              -0.000033149              -0.000274694               0.000893488               0.000618794               0.000000000               0.000000000               0.000000000               0.000000000               0.000053450               0.002407844              -0.000027618              -0.000280936               0.000896252               0.000615316               0.000000000               0.000000000               0.000000000               0.000000000               0.000040371               0.002411041              -0.000025252              -0.000286240               0.000899086               0.000612845               0.000000000               0.000000000               0.000000000               0.000000000               0.000023144               0.002419926              -0.000018136              -0.000293811               0.000904571               0.000610760               0.000000000               0.000000000               0.000000000               0.000000000               0.000016278               0.002431911              -0.000014258              -0.000297884               0.000909924               0.000612040               0.000000000               0.000000000               0.000000000               0.000000000               0.000916616               0.002241287              -0.001173923               0.000063568               0.000725898               0.000789466               0.000000000               0.000000000               0.000000000               0.000000000               0.000591837               0.002228387              -0.000862477              -0.000056610               0.000761658               0.000705048               0.000000000               0.000000000               0.000000000               0.000000000               0.000361862               0.002349799              -0.000537357              -0.000158026               0.000835934               0.000677907               0.000000000               0.000000000               0.000000000               0.000000000               0.000270683               0.002361544              -0.000383256              -0.000193687               0.000851735               0.000658049               0.000000000               0.000000000               0.000000000               0.000000000               0.000229500               0.002354726              -0.000296751              -0.000208278               0.000854327               0.000646049               0.000000000               0.000000000               0.000000000               0.000000000               0.000206287               0.002345929              -0.000241357              -0.000215883               0.000853930               0.000638047               0.000000000               0.000000000               0.000000000               0.000000000               0.000190285               0.002343362              -0.000197670              -0.000221563               0.000854967               0.000633404               0.000000000               0.000000000               0.000000000               0.000000000               0.000177387               0.002348951              -0.000159301              -0.000227098               0.000858675               0.000631577               0.000000000               0.000000000               0.000000000               0.000000000               0.000156218               0.002357241              -0.000126877              -0.000236073               0.000864430               0.000628357               0.000000000               0.000000000               0.000000000               0.000000000               0.000127527               0.002369886              -0.000097512              -0.000248412               0.000872758               0.000624346               0.000000000               0.000000000               0.000000000               0.000000000               0.000099763               0.002385714              -0.000068500              -0.000260802               0.000882164               0.000621362               0.000000000               0.000000000               0.000000000               0.000000000               0.000080957               0.002400205              -0.000044960              -0.000269666               0.000889949               0.000620283               0.000000000               0.000000000               0.000000000               0.000000000               0.000068563               0.002411323              -0.000030852              -0.000275703               0.000895667               0.000619964               0.000000000               0.000000000               0.000000000               0.000000000               0.000055922               0.002425688              -0.000025478              -0.000282239               0.000902634               0.000620395               0.000000000               0.000000000               0.000000000               0.000000000               0.000042053               0.002448939              -0.000022786              -0.000290347               0.000913087               0.000622740               0.000000000               0.000000000               0.000000000               0.000000000               0.000023820               0.002483132              -0.000015199              -0.000301458               0.000928189               0.000626730               0.000000000               0.000000000               0.000000000               0.000000000               0.000017268               0.002510234              -0.000011846              -0.000307303               0.000939171               0.000631868               0.000000000               0.000000000               0.000000000               0.000000000               0.000922106               0.001845162              -0.001077556               0.000115142               0.000576667               0.000691809               0.000000000               0.000000000               0.000000000               0.000000000               0.000592626               0.001972557              -0.000849062              -0.000024336               0.000665624               0.000641288               0.000000000               0.000000000               0.000000000               0.000000000               0.000340312               0.002209307              -0.000587960              -0.000148546               0.000785944               0.000637397               0.000000000               0.000000000               0.000000000               0.000000000               0.000251233               0.002278623              -0.000441505              -0.000190615               0.000823072               0.000632457               0.000000000               0.000000000               0.000000000               0.000000000               0.000210958               0.002301521              -0.000349559              -0.000208581               0.000836693               0.000628112               0.000000000               0.000000000               0.000000000               0.000000000               0.000192222               0.002312436              -0.000284504              -0.000216971               0.000843128               0.000626157               0.000000000               0.000000000               0.000000000               0.000000000               0.000179423               0.002323992              -0.000230194              -0.000223215               0.000849061               0.000625846               0.000000000               0.000000000               0.000000000               0.000000000               0.000168414               0.002340854              -0.000182638              -0.000229451               0.000856761               0.000627310               0.000000000               0.000000000               0.000000000               0.000000000               0.000148950               0.002358966              -0.000143216              -0.000239014               0.000865986               0.000626971               0.000000000               0.000000000               0.000000000               0.000000000               0.000121316               0.002381768              -0.000109949              -0.000252227               0.000877990               0.000625764               0.000000000               0.000000000               0.000000000               0.000000000               0.000096877               0.002405694              -0.000079048              -0.000264382               0.000890017               0.000625635               0.000000000               0.000000000               0.000000000               0.000000000               0.000085057               0.002426231              -0.000053250              -0.000271382               0.000899196               0.000627814               0.000000000               0.000000000               0.000000000               0.000000000               0.000078442               0.002445396              -0.000035938              -0.000276258               0.000907210               0.000630952               0.000000000               0.000000000               0.000000000               0.000000000               0.000067295               0.002470117              -0.000025136              -0.000283528               0.000917874               0.000634345               0.000000000               0.000000000               0.000000000               0.000000000               0.000053993               0.002515331              -0.000016771              -0.000294168               0.000936491               0.000642323               0.000000000               0.000000000               0.000000000               0.000000000               0.000040939               0.002576973              -0.000007695              -0.000306769               0.000961239               0.000654470               0.000000000               0.000000000               0.000000000               0.000000000               0.000033181               0.002612380              -0.000003460              -0.000314104               0.000975486               0.000661382               0.000000000               0.000000000               0.000000000               0.000000000               0.000899936               0.001457719              -0.000957477               0.000155259               0.000434148               0.000589407               0.000000000               0.000000000               0.000000000               0.000000000               0.000608028               0.001668955              -0.000827238               0.000019390               0.000549849               0.000569239               0.000000000               0.000000000               0.000000000               0.000000000               0.000358497               0.001992841              -0.000649648              -0.000114669               0.000702497               0.000587828               0.000000000               0.000000000               0.000000000               0.000000000               0.000269883               0.002128041              -0.000513866              -0.000164799               0.000764273               0.000599474               0.000000000               0.000000000               0.000000000               0.000000000               0.000223193               0.002190100              -0.000416743              -0.000190065               0.000793381               0.000603316               0.000000000               0.000000000               0.000000000               0.000000000               0.000199609               0.002225024              -0.000342475              -0.000203274               0.000809425               0.000606151               0.000000000               0.000000000               0.000000000               0.000000000               0.000184361               0.002253972              -0.000280450              -0.000212611               0.000822187               0.000609576               0.000000000               0.000000000               0.000000000               0.000000000               0.000174639               0.002284890              -0.000226327              -0.000220121               0.000834996               0.000614875               0.000000000               0.000000000               0.000000000               0.000000000               0.000159347               0.002316010              -0.000179519              -0.000229745               0.000848577               0.000618832               0.000000000               0.000000000               0.000000000               0.000000000               0.000136277               0.002350712              -0.000141761              -0.000242735               0.000864474               0.000621740               0.000000000               0.000000000               0.000000000               0.000000000               0.000113498               0.002386276              -0.000112316              -0.000255722               0.000880658               0.000624936               0.000000000               0.000000000               0.000000000               0.000000000               0.000101252               0.002422971              -0.000087332              -0.000264901               0.000895949               0.000631048               0.000000000               0.000000000               0.000000000               0.000000000               0.000096949               0.002456023              -0.000063891              -0.000270646               0.000908882               0.000638235               0.000000000               0.000000000               0.000000000               0.000000000               0.000091839               0.002494314              -0.000042347              -0.000277349               0.000923879               0.000646531               0.000000000               0.000000000               0.000000000               0.000000000               0.000083409               0.002550851              -0.000023648              -0.000287577               0.000946134               0.000658557               0.000000000               0.000000000               0.000000000               0.000000000               0.000071100               0.002624312              -0.000008927              -0.000301376               0.000975220               0.000673845               0.000000000               0.000000000               0.000000000               0.000000000               0.000057389               0.002661056               0.000000164              -0.000311110               0.000990713               0.000679603               0.000000000               0.000000000               0.000000000               0.000000000               0.000835626               0.001089779              -0.000815788               0.000177135               0.000304210               0.000481346               0.000000000               0.000000000               0.000000000               0.000000000               0.000628287               0.001361522              -0.000783201               0.000065416               0.000432030               0.000497446               0.000000000               0.000000000               0.000000000               0.000000000               0.000410913               0.001745237              -0.000696161              -0.000064063               0.000603094               0.000539031               0.000000000               0.000000000               0.000000000               0.000000000               0.000318806               0.001939134              -0.000581534              -0.000122840               0.000687318               0.000564478               0.000000000               0.000000000               0.000000000               0.000000000               0.000265002               0.002045119              -0.000485650              -0.000156264               0.000733788               0.000577524               0.000000000               0.000000000               0.000000000               0.000000000               0.000231965               0.002111029              -0.000406369              -0.000176891               0.000762633               0.000585741               0.000000000               0.000000000               0.000000000               0.000000000               0.000212655               0.002161977              -0.000339938              -0.000190501               0.000784152               0.000593651               0.000000000               0.000000000               0.000000000               0.000000000               0.000200283               0.002208060              -0.000281715              -0.000200901               0.000802980               0.000602079               0.000000000               0.000000000               0.000000000               0.000000000               0.000189156               0.002255681              -0.000227692              -0.000211026               0.000822228               0.000611202               0.000000000               0.000000000               0.000000000               0.000000000               0.000171670               0.002304135              -0.000185726              -0.000223640               0.000842584               0.000618944               0.000000000               0.000000000               0.000000000               0.000000000               0.000152559               0.002349841              -0.000157450              -0.000236520               0.000862112               0.000625593               0.000000000               0.000000000               0.000000000               0.000000000               0.000138324               0.002396427              -0.000133442              -0.000247681               0.000881362               0.000633680               0.000000000               0.000000000               0.000000000               0.000000000               0.000128527               0.002443730              -0.000104077              -0.000257268               0.000900325               0.000643057               0.000000000               0.000000000               0.000000000               0.000000000               0.000120077               0.002496927              -0.000071331              -0.000267086               0.000921330               0.000654243               0.000000000               0.000000000               0.000000000               0.000000000               0.000111519               0.002559979              -0.000040191              -0.000278177               0.000946044               0.000667867               0.000000000               0.000000000               0.000000000               0.000000000               0.000100400               0.002632580              -0.000015111              -0.000291422               0.000974659               0.000683237               0.000000000               0.000000000               0.000000000               0.000000000               0.000083608               0.002662599              -0.000000534              -0.000301471               0.000988015               0.000686543               0.000000000               0.000000000               0.000000000               0.000000000               0.000732601               0.000761479              -0.000656151               0.000179539               0.000193977               0.000373516               0.000000000               0.000000000               0.000000000               0.000000000               0.000632901               0.001063356              -0.000703973               0.000104417               0.000319643               0.000424059               0.000000000               0.000000000               0.000000000               0.000000000               0.000477250               0.001465700              -0.000696963              -0.000004245               0.000489976               0.000485732               0.000000000               0.000000000               0.000000000               0.000000000               0.000391538               0.001702901              -0.000614760              -0.000066036               0.000589640               0.000523604               0.000000000               0.000000000               0.000000000               0.000000000               0.000334820               0.001853616              -0.000529092              -0.000106145               0.000653247               0.000547103               0.000000000               0.000000000               0.000000000               0.000000000               0.000292310               0.001954069              -0.000453469              -0.000134642               0.000696231               0.000561588               0.000000000               0.000000000               0.000000000               0.000000000               0.000266729               0.002031735              -0.000387116              -0.000153943               0.000728553               0.000574609               0.000000000               0.000000000               0.000000000               0.000000000               0.000247768               0.002099882              -0.000326309              -0.000169572               0.000756478               0.000586906               0.000000000               0.000000000               0.000000000               0.000000000               0.000233872               0.002165594              -0.000269837              -0.000182997               0.000782856               0.000599860               0.000000000               0.000000000               0.000000000               0.000000000               0.000219837               0.002230437              -0.000225544              -0.000196365               0.000808927               0.000612561               0.000000000               0.000000000               0.000000000               0.000000000               0.000202177               0.002290546              -0.000197662              -0.000210501               0.000833675               0.000623174               0.000000000               0.000000000               0.000000000               0.000000000               0.000185487               0.002349764              -0.000173148              -0.000224162               0.000857968               0.000633805               0.000000000               0.000000000               0.000000000               0.000000000               0.000169526               0.002412112              -0.000138254              -0.000237941               0.000883343               0.000645402               0.000000000               0.000000000               0.000000000               0.000000000               0.000154162               0.002482356              -0.000098054              -0.000252483               0.000911605               0.000659122               0.000000000               0.000000000               0.000000000               0.000000000               0.000141790               0.002558205              -0.000061022              -0.000266604               0.000941595               0.000674991               0.000000000               0.000000000               0.000000000               0.000000000               0.000130147               0.002635148              -0.000028601              -0.000280588               0.000971903               0.000691315               0.000000000               0.000000000               0.000000000               0.000000000               0.000112947               0.002666447              -0.000009810              -0.000290950               0.000985790               0.000694840               0.000000000               0.000000000               0.000000000               0.000000000               0.000603888               0.000496319              -0.000492439               0.000164416               0.000110632               0.000275048               0.000000000               0.000000000               0.000000000               0.000000000               0.000618292               0.000790221              -0.000593297               0.000133080               0.000219044               0.000352124               0.000000000               0.000000000               0.000000000               0.000000000               0.000546830               0.001177141              -0.000646449               0.000057917               0.000373070               0.000430988               0.000000000               0.000000000               0.000000000               0.000000000               0.000483241               0.001441136              -0.000599936               0.000001073               0.000480016               0.000481089               0.000000000               0.000000000               0.000000000               0.000000000               0.000425881               0.001628943              -0.000531471              -0.000043913               0.000557613               0.000513700               0.000000000               0.000000000               0.000000000               0.000000000               0.000376515               0.001764411              -0.000466159              -0.000079359               0.000614584               0.000535225               0.000000000               0.000000000               0.000000000               0.000000000               0.000339048               0.001871995              -0.000406311              -0.000106856               0.000659611               0.000552754               0.000000000               0.000000000               0.000000000               0.000000000               0.000313056               0.001967744              -0.000348212              -0.000128572               0.000698765               0.000570194               0.000000000               0.000000000               0.000000000               0.000000000               0.000292470               0.002053854              -0.000294343              -0.000147055               0.000733629               0.000586574               0.000000000               0.000000000               0.000000000               0.000000000               0.000276480               0.002137746              -0.000251502              -0.000163538               0.000767088               0.000603550               0.000000000               0.000000000               0.000000000               0.000000000               0.000257531               0.002219024              -0.000222913              -0.000180804               0.000799935               0.000619132               0.000000000               0.000000000               0.000000000               0.000000000               0.000235122               0.002294310              -0.000198143              -0.000198618               0.000830968               0.000632351               0.000000000               0.000000000               0.000000000               0.000000000               0.000215823               0.002369650              -0.000162714              -0.000215272               0.000861633               0.000646361               0.000000000               0.000000000               0.000000000               0.000000000               0.000201935               0.002451385              -0.000121509              -0.000230697               0.000894019               0.000663322               0.000000000               0.000000000               0.000000000               0.000000000               0.000188027               0.002536046              -0.000082069              -0.000246495               0.000927505               0.000681010               0.000000000               0.000000000               0.000000000               0.000000000               0.000172934               0.002625060              -0.000041788              -0.000263282               0.000962772               0.000699490               0.000000000               0.000000000               0.000000000               0.000000000               0.000153507               0.002663902              -0.000017453              -0.000275422               0.000979766               0.000704344               0.000000000               0.000000000               0.000000000               0.000000000               0.000470031               0.000301864              -0.000339204               0.000138527               0.000054444               0.000192972               0.000000000               0.000000000               0.000000000               0.000000000               0.000591006               0.000560118              -0.000458597               0.000151611               0.000136167               0.000287778               0.000000000               0.000000000               0.000000000               0.000000000               0.000610520               0.000909417              -0.000544177               0.000115266               0.000264713               0.000379980               0.000000000               0.000000000               0.000000000               0.000000000               0.000578279               0.001183626              -0.000526950               0.000068900               0.000371571               0.000440471               0.000000000               0.000000000               0.000000000               0.000000000               0.000527140               0.001396063              -0.000479624               0.000023169               0.000457627               0.000480796               0.000000000               0.000000000               0.000000000               0.000000000               0.000473243               0.001564393              -0.000429225              -0.000018083               0.000527487               0.000509403               0.000000000               0.000000000               0.000000000               0.000000000               0.000424085               0.001702462              -0.000380553              -0.000053776               0.000585407               0.000531631               0.000000000               0.000000000               0.000000000               0.000000000               0.000384793               0.001822380              -0.000331343              -0.000083500               0.000635287               0.000551787               0.000000000               0.000000000               0.000000000               0.000000000               0.000355602               0.001932020              -0.000285594              -0.000108152               0.000680051               0.000571899               0.000000000               0.000000000               0.000000000               0.000000000               0.000333867               0.002035594              -0.000248421              -0.000129249               0.000721608               0.000592358               0.000000000               0.000000000               0.000000000               0.000000000               0.000313779               0.002137974              -0.000220805              -0.000149579               0.000762511               0.000612931               0.000000000               0.000000000               0.000000000               0.000000000               0.000290916               0.002231740              -0.000197367              -0.000169873               0.000800530               0.000630657               0.000000000               0.000000000               0.000000000               0.000000000               0.000270244               0.002316755              -0.000168485              -0.000188252               0.000834995               0.000646743               0.000000000               0.000000000               0.000000000               0.000000000               0.000259665               0.002405860              -0.000132154              -0.000203358               0.000869731               0.000666374               0.000000000               0.000000000               0.000000000               0.000000000               0.000250942               0.002502998              -0.000091578              -0.000218771               0.000907248               0.000688477               0.000000000               0.000000000               0.000000000               0.000000000               0.000240698               0.002608354              -0.000048431              -0.000235782               0.000948037               0.000712255               0.000000000               0.000000000               0.000000000               0.000000000               0.000225485               0.002656132              -0.000022962              -0.000247459               0.000967855               0.000720396               0.000000000               0.000000000               0.000000000               0.000000000               0.000347723               0.000170048              -0.000207840               0.000109139               0.000020302               0.000129441               0.000000000               0.000000000               0.000000000               0.000000000               0.000560108               0.000387911              -0.000310979               0.000161550               0.000075452               0.000237002               0.000000000               0.000000000               0.000000000               0.000000000               0.000661252               0.000693010              -0.000393782               0.000161341               0.000177221               0.000338562               0.000000000               0.000000000               0.000000000               0.000000000               0.000658179               0.000962110              -0.000394171               0.000126552               0.000278516               0.000405068               0.000000000               0.000000000               0.000000000               0.000000000               0.000619285               0.001189465              -0.000366619               0.000083548               0.000368635               0.000452183               0.000000000               0.000000000               0.000000000               0.000000000               0.000565768               0.001382147              -0.000333265               0.000039394               0.000447580               0.000486974               0.000000000               0.000000000               0.000000000               0.000000000               0.000510151               0.001544743              -0.000298658              -0.000001786               0.000515504               0.000513718               0.000000000               0.000000000               0.000000000               0.000000000               0.000459248               0.001687200              -0.000263220              -0.000038682               0.000575289               0.000536606               0.000000000               0.000000000               0.000000000               0.000000000               0.000419157               0.001817017              -0.000230562              -0.000069943               0.000628981               0.000559038               0.000000000               0.000000000               0.000000000               0.000000000               0.000388906               0.001935992              -0.000203205              -0.000096159               0.000677377               0.000581218               0.000000000               0.000000000               0.000000000               0.000000000               0.000367802               0.002050829              -0.000181810              -0.000118428               0.000723079               0.000604651               0.000000000               0.000000000               0.000000000               0.000000000               0.000345683               0.002156661              -0.000162347              -0.000139951               0.000765530               0.000625579               0.000000000               0.000000000               0.000000000               0.000000000               0.000324610               0.002256356              -0.000141923              -0.000160315               0.000805549               0.000645234               0.000000000               0.000000000               0.000000000               0.000000000               0.000314835               0.002360315              -0.000115230              -0.000176976               0.000845756               0.000668780               0.000000000               0.000000000               0.000000000               0.000000000               0.000318572               0.002474073              -0.000079667              -0.000189794               0.000887948               0.000698153               0.000000000               0.000000000               0.000000000               0.000000000               0.000326456               0.002593210              -0.000040978              -0.000201730               0.000931638               0.000729908               0.000000000               0.000000000               0.000000000               0.000000000               0.000326520               0.002649245              -0.000020348              -0.000208710               0.000952643               0.000743933               0.000000000               0.000000000               0.000000000               0.000000000               0.000258414               0.000093763              -0.000096174               0.000085184               0.000002859               0.000088043               0.000000000               0.000000000               0.000000000               0.000000000               0.000533887               0.000280298              -0.000156290               0.000165169               0.000038376               0.000203544               0.000000000               0.000000000               0.000000000               0.000000000               0.000693561               0.000550598              -0.000206647               0.000191259               0.000119778               0.000311036               0.000000000               0.000000000               0.000000000               0.000000000               0.000713900               0.000813148              -0.000211420               0.000166067               0.000215691               0.000381758               0.000000000               0.000000000               0.000000000               0.000000000               0.000682782               0.001044958              -0.000199806               0.000125422               0.000306508               0.000431931               0.000000000               0.000000000               0.000000000               0.000000000               0.000631593               0.001250019              -0.000183633               0.000080594               0.000389804               0.000470398               0.000000000               0.000000000               0.000000000               0.000000000               0.000573923               0.001430653              -0.000165424               0.000036389               0.000464750               0.000501139               0.000000000               0.000000000               0.000000000               0.000000000               0.000519789               0.001590363              -0.000145638              -0.000003875               0.000531407               0.000527533               0.000000000               0.000000000               0.000000000               0.000000000               0.000473597               0.001731596              -0.000128231              -0.000038851               0.000590143               0.000551293               0.000000000               0.000000000               0.000000000               0.000000000               0.000435487               0.001858362              -0.000115672              -0.000068987               0.000642444               0.000573456               0.000000000               0.000000000               0.000000000               0.000000000               0.000406282               0.001981051              -0.000104071              -0.000095276               0.000692102               0.000596827               0.000000000               0.000000000               0.000000000               0.000000000               0.000382999               0.002100490              -0.000090965              -0.000118936               0.000739802               0.000620865               0.000000000               0.000000000               0.000000000               0.000000000               0.000365117               0.002214552              -0.000080508              -0.000139900               0.000784810               0.000644910               0.000000000               0.000000000               0.000000000               0.000000000               0.000356727               0.002327147              -0.000069586              -0.000157121               0.000828081               0.000670961               0.000000000               0.000000000               0.000000000               0.000000000               0.000367458               0.002448597              -0.000047953              -0.000168277               0.000872283               0.000704006               0.000000000               0.000000000               0.000000000               0.000000000               0.000398263               0.002577777              -0.000021563              -0.000172873               0.000916875               0.000744002               0.000000000               0.000000000               0.000000000               0.000000000               0.000419610               0.002641985              -0.000009518              -0.000172894               0.000938284               0.000765390               0.000000000               0.000000000               0.000000000               0.000000000               0.000225984               0.000069536              -0.000000000               0.000076051              -0.000002172               0.000073879               0.000000000               0.000000000               0.000000000               0.000000000               0.000524009               0.000244857              -0.000000000               0.000165895               0.000026320               0.000192215               0.000000000               0.000000000               0.000000000               0.000000000               0.000705199               0.000502007               0.000000000               0.000201697               0.000100102               0.000301799               0.000000000               0.000000000               0.000000000               0.000000000               0.000734985               0.000760808               0.000000000               0.000180516               0.000193428               0.000373945               0.000000000               0.000000000               0.000000000               0.000000000               0.000706441               0.000993895              -0.000000000               0.000140677               0.000284403               0.000425080               0.000000000               0.000000000               0.000000000               0.000000000               0.000655415               0.001202939              -0.000000000               0.000095412               0.000369172               0.000464584               0.000000000               0.000000000               0.000000000               0.000000000               0.000595882               0.001386303              -0.000000000               0.000050167               0.000445374               0.000495541               0.000000000               0.000000000               0.000000000               0.000000000               0.000541229               0.001550630              -0.000000000               0.000009132               0.000513828               0.000522960               0.000000000               0.000000000               0.000000000               0.000000000               0.000496675               0.001700488               0.000000000              -0.000026308               0.000575593               0.000549285               0.000000000               0.000000000               0.000000000               0.000000000               0.000455762               0.001830823              -0.000000000              -0.000057942               0.000629582               0.000571640               0.000000000               0.000000000               0.000000000               0.000000000               0.000418485               0.001953793              -0.000000000              -0.000087292               0.000680355               0.000593063               0.000000000               0.000000000               0.000000000               0.000000000               0.000394619               0.002081463               0.000000000              -0.000112201               0.000731214               0.000619014               0.000000000               0.000000000               0.000000000               0.000000000               0.000382315               0.002203779              -0.000000000              -0.000132104               0.000778620               0.000646516               0.000000000               0.000000000               0.000000000               0.000000000               0.000375580               0.002317015              -0.000000000              -0.000148784               0.000821925               0.000673141               0.000000000               0.000000000               0.000000000               0.000000000               0.000384707               0.002435023              -0.000000000              -0.000160112               0.000865037               0.000704925               0.000000000               0.000000000               0.000000000               0.000000000               0.000425710               0.002565981              -0.000000000              -0.000161106               0.000909020               0.000747914               0.000000000               0.000000000               0.000000000               0.000000000               0.000458065               0.002634554              -0.000000000              -0.000157544               0.000930691               0.000773146               0.000000000               0.000000000               0.000000000               0.000000000               0.000000000               0.000000000               0.000000000               0.000000000               0.000000000               0.000000000               0.000000000               0.000000000               0.000000000               0.000000000               0.000000000               0.000000000               0.000000000               0.000000000               0.000000000               0.000000000               0.000000000               0.000000000               0.000000000               0.000000000               0.000000000               0.000000000               0.000000000               0.000000000               0.000000000               0.000000000               0.000000000               0.000000000               0.000000000               0.000000000               0.000000000               0.000000000               0.000000000               0.000000000               0.000000000               0.000000000               0.000000000               0.000000000               0.000000000               0.000000000               0.000000000               0.000000000               0.000000000               0.000000000               0.000000000               0.000000000               0.000000000               0.000000000               0.000000000               0.000000000               0.000000000               0.000000000               0.000000000               0.000000000               0.000000000               0.000000000               0.000000000               0.000000000               0.000000000               0.000000000               0.000000000               0.000000000               0.000000000               0.000000000               0.000000000               0.000000000               0.000000000               0.000000000               0.000000000               0.000000000               0.000000000               0.000000000               0.000000000               0.000000000               0.000000000               0.000000000               0.000000000               0.000000000               0.000000000               0.000000000               0.000000000               0.000000000               0.000000000               0.000000000               0.000000000               0.000000000               0.000000000               0.000000000               0.000000000               0.000000000               0.000000000               0.000000000               0.000000000               0.000000000               0.000000000               0.000000000               0.000000000               0.000000000               0.000000000               0.000000000               0.000000000               0.000000000               0.000000000               0.000000000               0.000000000               0.000000000               0.000000000               0.000000000               0.000000000               0.000000000               0.000000000               0.000000000               0.000000000               0.000000000               0.000000000               0.000000000               0.000000000               0.000000000               0.000000000               0.000000000               0.000000000               0.000000000               0.000000000               0.000000000               0.000000000               0.000000000               0.000000000               0.000000000               0.000000000               0.000000000               0.000000000               0.000000000               0.000000000               0.000000000               0.000000000               0.000000000               0.000000000               0.000000000               0.000000000               0.000000000               0.000000000               0.000000000               0.000000000               0.000000000               0.000000000               0.000000000               0.000000000               0.000000000               0.000000000               0.000000000               0.000000000               0.000000000               0.000000000               0.000000000               0.000000000               0.000000000               0.000000000               0.000000000               0.000000000               0.000000000               0.000000000               0.000000000               0.000000000               0.000000000               0.000000000               0.000000000               0.000000000               0.000000000               0.000000000               0.000000000               0.000423108               0.004483469               0.000353932              -0.000401767               0.001628397               0.001226630               0.000000000               0.000000000               0.000000000               0.000000000               0.000457621               0.003748392               0.000236850              -0.000296940               0.001348432               0.001051491               0.000000000               0.000000000               0.000000000               0.000000000               0.000621773               0.003160207               0.000112833              -0.000161861               0.001107345               0.000945485               0.000000000               0.000000000               0.000000000               0.000000000               0.000651807               0.002838117               0.000052120              -0.000110337               0.000982809               0.000872472               0.000000000               0.000000000               0.000000000               0.000000000               0.000626889               0.002652091               0.000021823              -0.000096428               0.000916164               0.000819736               0.000000000               0.000000000               0.000000000               0.000000000               0.000578180               0.002540692               0.000006603              -0.000100769               0.000880478               0.000779710               0.000000000               0.000000000               0.000000000               0.000000000               0.000521471               0.002474650               0.000000133              -0.000113779               0.000862802               0.000749022               0.000000000               0.000000000               0.000000000               0.000000000               0.000459969               0.002438255              -0.000002806              -0.000132293               0.000856841               0.000724548               0.000000000               0.000000000               0.000000000               0.000000000               0.000396383               0.002418154              -0.000004067              -0.000153625               0.000857252               0.000703627               0.000000000               0.000000000               0.000000000               0.000000000               0.000333640               0.002409818              -0.000003819              -0.000176112               0.000861968               0.000685857               0.000000000               0.000000000               0.000000000               0.000000000               0.000275251               0.002410455              -0.000002195              -0.000198087               0.000869506               0.000671419               0.000000000               0.000000000               0.000000000               0.000000000               0.000222035               0.002419326              -0.000001939              -0.000219152               0.000879484               0.000660333               0.000000000               0.000000000               0.000000000               0.000000000               0.000170474               0.002435155              -0.000004267              -0.000240466               0.000891866               0.000651399               0.000000000               0.000000000               0.000000000               0.000000000               0.000120906               0.002457794              -0.000005931              -0.000261884               0.000906551               0.000644667               0.000000000               0.000000000               0.000000000               0.000000000               0.000075821               0.002483527              -0.000006343              -0.000282007               0.000921837               0.000639829               0.000000000               0.000000000               0.000000000               0.000000000               0.000036488               0.002512074              -0.000005493              -0.000300326               0.000937458               0.000637132               0.000000000               0.000000000               0.000000000               0.000000000               0.000021014               0.002534473              -0.000004238              -0.000308928               0.000947792               0.000638864               0.000000000               0.000000000               0.000000000               0.000000000               0.000497790               0.004275451               0.000674181              -0.000347760               0.001541056               0.001193296               0.000000000               0.000000000               0.000000000               0.000000000               0.000487311               0.003596220               0.000449999              -0.000266785               0.001287656               0.001020871               0.000000000               0.000000000               0.000000000               0.000000000               0.000602973               0.003074102               0.000215603              -0.000158148               0.001077406               0.000919259               0.000000000               0.000000000               0.000000000               0.000000000               0.000609628               0.002789685               0.000104015              -0.000120100               0.000969919               0.000849819               0.000000000               0.000000000               0.000000000               0.000000000               0.000575730               0.002625989               0.000049368              -0.000112350               0.000912771               0.000800421               0.000000000               0.000000000               0.000000000               0.000000000               0.000524806               0.002527417               0.000022675              -0.000119125               0.000882172               0.000763048               0.000000000               0.000000000               0.000000000               0.000000000               0.000469824               0.002469787               0.000009016              -0.000132539               0.000867434               0.000734895               0.000000000               0.000000000               0.000000000               0.000000000               0.000413106               0.002436934               0.000003267              -0.000149702               0.000862204               0.000712502               0.000000000               0.000000000               0.000000000               0.000000000               0.000355333               0.002417718               0.000002637              -0.000168965               0.000862219               0.000693255               0.000000000               0.000000000               0.000000000               0.000000000               0.000297099               0.002409162               0.000003646              -0.000189733               0.000866290               0.000676558               0.000000000               0.000000000               0.000000000               0.000000000               0.000244014               0.002409781               0.000004971              -0.000209717               0.000873158               0.000663441               0.000000000               0.000000000               0.000000000               0.000000000               0.000196444               0.002418679               0.000003977              -0.000228668               0.000882441               0.000653773               0.000000000               0.000000000               0.000000000               0.000000000               0.000148431               0.002433815              -0.000000898              -0.000248565               0.000894118               0.000645554               0.000000000               0.000000000               0.000000000               0.000000000               0.000103247               0.002454621              -0.000003438              -0.000268109               0.000907569               0.000639459               0.000000000               0.000000000               0.000000000               0.000000000               0.000063749               0.002476833              -0.000002704              -0.000285698               0.000920835               0.000635138               0.000000000               0.000000000               0.000000000               0.000000000               0.000029680               0.002499560              -0.000002901              -0.000301314               0.000933617               0.000632302               0.000000000               0.000000000               0.000000000               0.000000000               0.000017142               0.002518858              -0.000001877              -0.000308428               0.000942420               0.000633992               0.000000000               0.000000000               0.000000000               0.000000000               0.000606913               0.003961695               0.000931639              -0.000267620               0.001409758               0.001142139               0.000000000               0.000000000               0.000000000               0.000000000               0.000528345               0.003374918               0.000622674              -0.000223735               0.001199540               0.000975805               0.000000000               0.000000000               0.000000000               0.000000000               0.000571697               0.002955244               0.000304227              -0.000155019               0.001036745               0.000881726               0.000000000               0.000000000               0.000000000               0.000000000               0.000548233               0.002725197               0.000157395              -0.000135062               0.000953410               0.000818349               0.000000000               0.000000000               0.000000000               0.000000000               0.000503125               0.002589003               0.000086497              -0.000134953               0.000907977               0.000773024               0.000000000               0.000000000               0.000000000               0.000000000               0.000451595               0.002506661               0.000051493              -0.000143984               0.000883540               0.000739556               0.000000000               0.000000000               0.000000000               0.000000000               0.000401866               0.002458314               0.000033910              -0.000156589               0.000871626               0.000715037               0.000000000               0.000000000               0.000000000               0.000000000               0.000350529               0.002427079               0.000026208              -0.000171936               0.000866330               0.000694394               0.000000000               0.000000000               0.000000000               0.000000000               0.000299350               0.002409453               0.000023386              -0.000188925               0.000866118               0.000677193               0.000000000               0.000000000               0.000000000               0.000000000               0.000249708               0.002401887               0.000022088              -0.000206595               0.000869486               0.000662891               0.000000000               0.000000000               0.000000000               0.000000000               0.000201764               0.002402697               0.000021535              -0.000224675               0.000875783               0.000651108               0.000000000               0.000000000               0.000000000               0.000000000               0.000158954               0.002411911               0.000018457              -0.000241881               0.000884589               0.000642709               0.000000000               0.000000000               0.000000000               0.000000000               0.000119779               0.002426909               0.000010327              -0.000258446               0.000895110               0.000636664               0.000000000               0.000000000               0.000000000               0.000000000               0.000083219               0.002445025               0.000005520              -0.000274420               0.000906474               0.000632053               0.000000000               0.000000000               0.000000000               0.000000000               0.000051378               0.002462987               0.000007461              -0.000288606               0.000917189               0.000628584               0.000000000               0.000000000               0.000000000               0.000000000               0.000023835               0.002477348               0.000005933              -0.000300730               0.000926018               0.000625288               0.000000000               0.000000000               0.000000000               0.000000000               0.000013731               0.002489375               0.000004027              -0.000306022               0.000931791               0.000625769               0.000000000               0.000000000               0.000000000               0.000000000               0.000724886               0.003574660               0.001109570              -0.000175001               0.001249875               0.001074874               0.000000000               0.000000000               0.000000000               0.000000000               0.000566422               0.003106560               0.000747363              -0.000175912               0.001094147               0.000918235               0.000000000               0.000000000               0.000000000               0.000000000               0.000525738               0.002812216               0.000377517              -0.000154375               0.000988854               0.000834479               0.000000000               0.000000000               0.000000000               0.000000000               0.000472416               0.002643227               0.000212688              -0.000153247               0.000932149               0.000778902               0.000000000               0.000000000               0.000000000               0.000000000               0.000420285               0.002538805               0.000134594              -0.000159743               0.000899508               0.000739764               0.000000000               0.000000000               0.000000000               0.000000000               0.000372669               0.002474039               0.000094546              -0.000169504               0.000881173               0.000711669               0.000000000               0.000000000               0.000000000               0.000000000               0.000329678               0.002432390               0.000072817              -0.000180419               0.000870928               0.000690509               0.000000000               0.000000000               0.000000000               0.000000000               0.000287248               0.002406049               0.000061403              -0.000193038               0.000866354               0.000673316               0.000000000               0.000000000               0.000000000               0.000000000               0.000246743               0.002391812               0.000054329              -0.000206447               0.000866079               0.000659631               0.000000000               0.000000000               0.000000000               0.000000000               0.000206717               0.002387139               0.000048605              -0.000220873               0.000869329               0.000648456               0.000000000               0.000000000               0.000000000               0.000000000               0.000165037               0.002390511               0.000041884              -0.000236924               0.000875804               0.000638879               0.000000000               0.000000000               0.000000000               0.000000000               0.000127229               0.002403805               0.000033928              -0.000252764               0.000885515               0.000632751               0.000000000               0.000000000               0.000000000               0.000000000               0.000095838               0.002420164               0.000022992              -0.000266581               0.000895573               0.000628993               0.000000000               0.000000000               0.000000000               0.000000000               0.000068715               0.002434435               0.000016186              -0.000278536               0.000904315               0.000625780               0.000000000               0.000000000               0.000000000               0.000000000               0.000043622               0.002442914               0.000018263              -0.000289005               0.000910632               0.000621626               0.000000000               0.000000000               0.000000000               0.000000000               0.000020675               0.002447085               0.000015322              -0.000298132               0.000915064               0.000616933               0.000000000               0.000000000               0.000000000               0.000000000               0.000011038               0.002450318               0.000010891              -0.000302150               0.000917481               0.000615332               0.000000000               0.000000000               0.000000000               0.000000000               0.000824549               0.003139786               0.001206054              -0.000083269               0.001074341               0.000991072               0.000000000               0.000000000               0.000000000               0.000000000               0.000589924               0.002810182               0.000824404              -0.000130052               0.000980068               0.000850017               0.000000000               0.000000000               0.000000000               0.000000000               0.000468338               0.002655781               0.000437618              -0.000156346               0.000937367               0.000781021               0.000000000               0.000000000               0.000000000               0.000000000               0.000391651               0.002550049               0.000269963              -0.000171887               0.000907303               0.000735417               0.000000000               0.000000000               0.000000000               0.000000000               0.000339773               0.002480450               0.000189121              -0.000182641               0.000887689               0.000705048               0.000000000               0.000000000               0.000000000               0.000000000               0.000300346               0.002433624               0.000144994              -0.000191573               0.000875058               0.000683485               0.000000000               0.000000000               0.000000000               0.000000000               0.000267084               0.002401673               0.000118605              -0.000200052               0.000867234               0.000667182               0.000000000               0.000000000               0.000000000               0.000000000               0.000235254               0.002382660               0.000100687              -0.000209612               0.000864083               0.000654471               0.000000000               0.000000000               0.000000000               0.000000000               0.000204438               0.002375503               0.000087011              -0.000220273               0.000865251               0.000644977               0.000000000               0.000000000               0.000000000               0.000000000               0.000173742               0.002376292               0.000073784              -0.000231883               0.000869384               0.000637501               0.000000000               0.000000000               0.000000000               0.000000000               0.000139486               0.002385304               0.000058595              -0.000245855               0.000877045               0.000631190               0.000000000               0.000000000               0.000000000               0.000000000               0.000106522               0.002400295               0.000044048              -0.000260090               0.000886787               0.000626697               0.000000000               0.000000000               0.000000000               0.000000000               0.000079647               0.002415038               0.000031801              -0.000272011               0.000895675               0.000623664               0.000000000               0.000000000               0.000000000               0.000000000               0.000058549               0.002419577               0.000024488              -0.000280491               0.000900015               0.000619524               0.000000000               0.000000000               0.000000000               0.000000000               0.000042441               0.002419115               0.000024130              -0.000286473               0.000901855               0.000615381               0.000000000               0.000000000               0.000000000               0.000000000               0.000022667               0.002418055               0.000018600              -0.000293756               0.000903929               0.000610173               0.000000000               0.000000000               0.000000000               0.000000000               0.000012318               0.002419419               0.000013446              -0.000297807               0.000905734               0.000607927               0.000000000               0.000000000               0.000000000               0.000000000               0.000889872               0.002685803               0.001224168              -0.000002025               0.000895933               0.000893908               0.000000000               0.000000000               0.000000000               0.000000000               0.000597402               0.002511050               0.000859482              -0.000089856               0.000866960               0.000777104               0.000000000               0.000000000               0.000000000               0.000000000               0.000410093               0.002500600               0.000490263              -0.000158790               0.000886455               0.000727665               0.000000000               0.000000000               0.000000000               0.000000000               0.000321450               0.002455485               0.000328250              -0.000186392               0.000880617               0.000694226               0.000000000               0.000000000               0.000000000               0.000000000               0.000274346               0.002418683               0.000245246              -0.000199455               0.000872705               0.000673250               0.000000000               0.000000000               0.000000000               0.000000000               0.000244142               0.002389479               0.000196647              -0.000207131               0.000865529               0.000658398               0.000000000               0.000000000               0.000000000               0.000000000               0.000220513               0.002370997               0.000163167              -0.000213682               0.000861552               0.000647870               0.000000000               0.000000000               0.000000000               0.000000000               0.000199275               0.002363849               0.000135740              -0.000220752               0.000861526               0.000640773               0.000000000               0.000000000               0.000000000               0.000000000               0.000175816               0.002364356               0.000112237              -0.000229613               0.000864648               0.000635035               0.000000000               0.000000000               0.000000000               0.000000000               0.000149384               0.002370550               0.000089735              -0.000240299               0.000870275               0.000629976               0.000000000               0.000000000               0.000000000               0.000000000               0.000118252               0.002382973               0.000066331              -0.000253527               0.000878825               0.000625299               0.000000000               0.000000000               0.000000000               0.000000000               0.000089876               0.002396638               0.000045887              -0.000265875               0.000887496               0.000621621               0.000000000               0.000000000               0.000000000               0.000000000               0.000069412               0.002405794               0.000033149              -0.000274694               0.000893488               0.000618794               0.000000000               0.000000000               0.000000000               0.000000000               0.000053450               0.002407844               0.000027618              -0.000280936               0.000896252               0.000615316               0.000000000               0.000000000               0.000000000               0.000000000               0.000040371               0.002411041               0.000025252              -0.000286240               0.000899086               0.000612845               0.000000000               0.000000000               0.000000000               0.000000000               0.000023144               0.002419926               0.000018136              -0.000293811               0.000904571               0.000610760               0.000000000               0.000000000               0.000000000               0.000000000               0.000016278               0.002431911               0.000014258              -0.000297884               0.000909924               0.000612040               0.000000000               0.000000000               0.000000000               0.000000000               0.000916616               0.002241287               0.001173923               0.000063568               0.000725898               0.000789466               0.000000000               0.000000000               0.000000000               0.000000000               0.000591837               0.002228387               0.000862477              -0.000056610               0.000761658               0.000705048               0.000000000               0.000000000               0.000000000               0.000000000               0.000361862               0.002349799               0.000537357              -0.000158026               0.000835934               0.000677907               0.000000000               0.000000000               0.000000000               0.000000000               0.000270683               0.002361544               0.000383256              -0.000193687               0.000851735               0.000658049               0.000000000               0.000000000               0.000000000               0.000000000               0.000229500               0.002354726               0.000296751              -0.000208278               0.000854327               0.000646049               0.000000000               0.000000000               0.000000000               0.000000000               0.000206287               0.002345929               0.000241357              -0.000215883               0.000853930               0.000638047               0.000000000               0.000000000               0.000000000               0.000000000               0.000190285               0.002343362               0.000197670              -0.000221563               0.000854967               0.000633404               0.000000000               0.000000000               0.000000000               0.000000000               0.000177387               0.002348951               0.000159301              -0.000227098               0.000858675               0.000631577               0.000000000               0.000000000               0.000000000               0.000000000               0.000156218               0.002357241               0.000126877              -0.000236073               0.000864430               0.000628357               0.000000000               0.000000000               0.000000000               0.000000000               0.000127527               0.002369886               0.000097512              -0.000248412               0.000872758               0.000624346               0.000000000               0.000000000               0.000000000               0.000000000               0.000099763               0.002385714               0.000068500              -0.000260802               0.000882164               0.000621362               0.000000000               0.000000000               0.000000000               0.000000000               0.000080957               0.002400205               0.000044960              -0.000269666               0.000889949               0.000620283               0.000000000               0.000000000               0.000000000               0.000000000               0.000068563               0.002411323               0.000030852              -0.000275703               0.000895667               0.000619964               0.000000000               0.000000000               0.000000000               0.000000000               0.000055922               0.002425688               0.000025478              -0.000282239               0.000902634               0.000620395               0.000000000               0.000000000               0.000000000               0.000000000               0.000042053               0.002448939               0.000022786              -0.000290347               0.000913087               0.000622740               0.000000000               0.000000000               0.000000000               0.000000000               0.000023820               0.002483132               0.000015199              -0.000301458               0.000928189               0.000626730               0.000000000               0.000000000               0.000000000               0.000000000               0.000017268               0.002510234               0.000011846              -0.000307303               0.000939171               0.000631868               0.000000000               0.000000000               0.000000000               0.000000000               0.000922106               0.001845162               0.001077556               0.000115142               0.000576667               0.000691809               0.000000000               0.000000000               0.000000000               0.000000000               0.000592626               0.001972557               0.000849062              -0.000024336               0.000665624               0.000641288               0.000000000               0.000000000               0.000000000               0.000000000               0.000340312               0.002209307               0.000587960              -0.000148546               0.000785944               0.000637397               0.000000000               0.000000000               0.000000000               0.000000000               0.000251233               0.002278623               0.000441505              -0.000190615               0.000823072               0.000632457               0.000000000               0.000000000               0.000000000               0.000000000               0.000210958               0.002301521               0.000349559              -0.000208581               0.000836693               0.000628112               0.000000000               0.000000000               0.000000000               0.000000000               0.000192222               0.002312436               0.000284504              -0.000216971               0.000843128               0.000626157               0.000000000               0.000000000               0.000000000               0.000000000               0.000179423               0.002323992               0.000230194              -0.000223215               0.000849061               0.000625846               0.000000000               0.000000000               0.000000000               0.000000000               0.000168414               0.002340854               0.000182638              -0.000229451               0.000856761               0.000627310               0.000000000               0.000000000               0.000000000               0.000000000               0.000148950               0.002358966               0.000143216              -0.000239014               0.000865986               0.000626971               0.000000000               0.000000000               0.000000000               0.000000000               0.000121316               0.002381768               0.000109949              -0.000252227               0.000877990               0.000625764               0.000000000               0.000000000               0.000000000               0.000000000               0.000096877               0.002405694               0.000079048              -0.000264382               0.000890017               0.000625635               0.000000000               0.000000000               0.000000000               0.000000000               0.000085057               0.002426231               0.000053250              -0.000271382               0.000899196               0.000627814               0.000000000               0.000000000               0.000000000               0.000000000               0.000078442               0.002445396               0.000035938              -0.000276258               0.000907210               0.000630952               0.000000000               0.000000000               0.000000000               0.000000000               0.000067295               0.002470117               0.000025136              -0.000283528               0.000917874               0.000634345               0.000000000               0.000000000               0.000000000               0.000000000               0.000053993               0.002515331               0.000016771              -0.000294168               0.000936491               0.000642323               0.000000000               0.000000000               0.000000000               0.000000000               0.000040939               0.002576973               0.000007695              -0.000306769               0.000961239               0.000654470               0.000000000               0.000000000               0.000000000               0.000000000               0.000033181               0.002612380               0.000003460              -0.000314104               0.000975486               0.000661382               0.000000000               0.000000000               0.000000000               0.000000000               0.000899936               0.001457719               0.000957477               0.000155259               0.000434148               0.000589407               0.000000000               0.000000000               0.000000000               0.000000000               0.000608028               0.001668955               0.000827238               0.000019390               0.000549849               0.000569239               0.000000000               0.000000000               0.000000000               0.000000000               0.000358497               0.001992841               0.000649648              -0.000114669               0.000702497               0.000587828               0.000000000               0.000000000               0.000000000               0.000000000               0.000269883               0.002128041               0.000513866              -0.000164799               0.000764273               0.000599474               0.000000000               0.000000000               0.000000000               0.000000000               0.000223193               0.002190100               0.000416743              -0.000190065               0.000793381               0.000603316               0.000000000               0.000000000               0.000000000               0.000000000               0.000199609               0.002225024               0.000342475              -0.000203274               0.000809425               0.000606151               0.000000000               0.000000000               0.000000000               0.000000000               0.000184361               0.002253972               0.000280450              -0.000212611               0.000822187               0.000609576               0.000000000               0.000000000               0.000000000               0.000000000               0.000174639               0.002284890               0.000226327              -0.000220121               0.000834996               0.000614875               0.000000000               0.000000000               0.000000000               0.000000000               0.000159347               0.002316010               0.000179519              -0.000229745               0.000848577               0.000618832               0.000000000               0.000000000               0.000000000               0.000000000               0.000136277               0.002350712               0.000141761              -0.000242735               0.000864474               0.000621740               0.000000000               0.000000000               0.000000000               0.000000000               0.000113498               0.002386276               0.000112316              -0.000255722               0.000880658               0.000624936               0.000000000               0.000000000               0.000000000               0.000000000               0.000101252               0.002422971               0.000087332              -0.000264901               0.000895949               0.000631048               0.000000000               0.000000000               0.000000000               0.000000000               0.000096949               0.002456023               0.000063891              -0.000270646               0.000908882               0.000638235               0.000000000               0.000000000               0.000000000               0.000000000               0.000091839               0.002494314               0.000042347              -0.000277349               0.000923879               0.000646531               0.000000000               0.000000000               0.000000000               0.000000000               0.000083409               0.002550851               0.000023648              -0.000287577               0.000946134               0.000658557               0.000000000               0.000000000               0.000000000               0.000000000               0.000071100               0.002624312               0.000008927              -0.000301376               0.000975220               0.000673845               0.000000000               0.000000000               0.000000000               0.000000000               0.000057389               0.002661056              -0.000000164              -0.000311110               0.000990713               0.000679603               0.000000000               0.000000000               0.000000000               0.000000000               0.000835626               0.001089779               0.000815788               0.000177135               0.000304210               0.000481346               0.000000000               0.000000000               0.000000000               0.000000000               0.000628287               0.001361522               0.000783201               0.000065416               0.000432030               0.000497446               0.000000000               0.000000000               0.000000000               0.000000000               0.000410913               0.001745237               0.000696161              -0.000064063               0.000603094               0.000539031               0.000000000               0.000000000               0.000000000               0.000000000               0.000318806               0.001939134               0.000581534              -0.000122840               0.000687318               0.000564478               0.000000000               0.000000000               0.000000000               0.000000000               0.000265002               0.002045119               0.000485650              -0.000156264               0.000733788               0.000577524               0.000000000               0.000000000               0.000000000               0.000000000               0.000231965               0.002111029               0.000406369              -0.000176891               0.000762633               0.000585741               0.000000000               0.000000000               0.000000000               0.000000000               0.000212655               0.002161977               0.000339938              -0.000190501               0.000784152               0.000593651               0.000000000               0.000000000               0.000000000               0.000000000               0.000200283               0.002208060               0.000281715              -0.000200901               0.000802980               0.000602079               0.000000000               0.000000000               0.000000000               0.000000000               0.000189156               0.002255681               0.000227692              -0.000211026               0.000822228               0.000611202               0.000000000               0.000000000               0.000000000               0.000000000               0.000171670               0.002304135               0.000185726              -0.000223640               0.000842584               0.000618944               0.000000000               0.000000000               0.000000000               0.000000000               0.000152559               0.002349841               0.000157450              -0.000236520               0.000862112               0.000625593               0.000000000               0.000000000               0.000000000               0.000000000               0.000138324               0.002396427               0.000133442              -0.000247681               0.000881362               0.000633680               0.000000000               0.000000000               0.000000000               0.000000000               0.000128527               0.002443730               0.000104077              -0.000257268               0.000900325               0.000643057               0.000000000               0.000000000               0.000000000               0.000000000               0.000120077               0.002496927               0.000071331              -0.000267086               0.000921330               0.000654243               0.000000000               0.000000000               0.000000000               0.000000000               0.000111519               0.002559979               0.000040191              -0.000278177               0.000946044               0.000667867               0.000000000               0.000000000               0.000000000               0.000000000               0.000100400               0.002632580               0.000015111              -0.000291422               0.000974659               0.000683237               0.000000000               0.000000000               0.000000000               0.000000000               0.000083608               0.002662599               0.000000534              -0.000301471               0.000988015               0.000686543               0.000000000               0.000000000               0.000000000               0.000000000               0.000732601               0.000761479               0.000656151               0.000179539               0.000193977               0.000373516               0.000000000               0.000000000               0.000000000               0.000000000               0.000632901               0.001063356               0.000703973               0.000104417               0.000319643               0.000424059               0.000000000               0.000000000               0.000000000               0.000000000               0.000477250               0.001465700               0.000696963              -0.000004245               0.000489976               0.000485732               0.000000000               0.000000000               0.000000000               0.000000000               0.000391538               0.001702901               0.000614760              -0.000066036               0.000589640               0.000523604               0.000000000               0.000000000               0.000000000               0.000000000               0.000334820               0.001853616               0.000529092              -0.000106145               0.000653247               0.000547103               0.000000000               0.000000000               0.000000000               0.000000000               0.000292310               0.001954069               0.000453469              -0.000134642               0.000696231               0.000561588               0.000000000               0.000000000               0.000000000               0.000000000               0.000266729               0.002031735               0.000387116              -0.000153943               0.000728553               0.000574609               0.000000000               0.000000000               0.000000000               0.000000000               0.000247768               0.002099882               0.000326309              -0.000169572               0.000756478               0.000586906               0.000000000               0.000000000               0.000000000               0.000000000               0.000233872               0.002165594               0.000269837              -0.000182997               0.000782856               0.000599860               0.000000000               0.000000000               0.000000000               0.000000000               0.000219837               0.002230437               0.000225544              -0.000196365               0.000808927               0.000612561               0.000000000               0.000000000               0.000000000               0.000000000               0.000202177               0.002290546               0.000197662              -0.000210501               0.000833675               0.000623174               0.000000000               0.000000000               0.000000000               0.000000000               0.000185487               0.002349764               0.000173148              -0.000224162               0.000857968               0.000633805               0.000000000               0.000000000               0.000000000               0.000000000               0.000169526               0.002412112               0.000138254              -0.000237941               0.000883343               0.000645402               0.000000000               0.000000000               0.000000000               0.000000000               0.000154162               0.002482356               0.000098054              -0.000252483               0.000911605               0.000659122               0.000000000               0.000000000               0.000000000               0.000000000               0.000141790               0.002558205               0.000061022              -0.000266604               0.000941595               0.000674991               0.000000000               0.000000000               0.000000000               0.000000000               0.000130147               0.002635148               0.000028601              -0.000280588               0.000971903               0.000691315               0.000000000               0.000000000               0.000000000               0.000000000               0.000112947               0.002666447               0.000009810              -0.000290950               0.000985790               0.000694840               0.000000000               0.000000000               0.000000000               0.000000000               0.000603888               0.000496319               0.000492439               0.000164416               0.000110632               0.000275048               0.000000000               0.000000000               0.000000000               0.000000000               0.000618292               0.000790221               0.000593297               0.000133080               0.000219044               0.000352124               0.000000000               0.000000000               0.000000000               0.000000000               0.000546830               0.001177141               0.000646449               0.000057917               0.000373070               0.000430988               0.000000000               0.000000000               0.000000000               0.000000000               0.000483241               0.001441136               0.000599936               0.000001073               0.000480016               0.000481089               0.000000000               0.000000000               0.000000000               0.000000000               0.000425881               0.001628943               0.000531471              -0.000043913               0.000557613               0.000513700               0.000000000               0.000000000               0.000000000               0.000000000               0.000376515               0.001764411               0.000466159              -0.000079359               0.000614584               0.000535225               0.000000000               0.000000000               0.000000000               0.000000000               0.000339048               0.001871995               0.000406311              -0.000106856               0.000659611               0.000552754               0.000000000               0.000000000               0.000000000               0.000000000               0.000313056               0.001967744               0.000348212              -0.000128572               0.000698765               0.000570194               0.000000000               0.000000000               0.000000000               0.000000000               0.000292470               0.002053854               0.000294343              -0.000147055               0.000733629               0.000586574               0.000000000               0.000000000               0.000000000               0.000000000               0.000276480               0.002137746               0.000251502              -0.000163538               0.000767088               0.000603550               0.000000000               0.000000000               0.000000000               0.000000000               0.000257531               0.002219024               0.000222913              -0.000180804               0.000799935               0.000619132               0.000000000               0.000000000               0.000000000               0.000000000               0.000235122               0.002294310               0.000198143              -0.000198618               0.000830968               0.000632351               0.000000000               0.000000000               0.000000000               0.000000000               0.000215823               0.002369650               0.000162714              -0.000215272               0.000861633               0.000646361               0.000000000               0.000000000               0.000000000               0.000000000               0.000201935               0.002451385               0.000121509              -0.000230697               0.000894019               0.000663322               0.000000000               0.000000000               0.000000000               0.000000000               0.000188027               0.002536046               0.000082069              -0.000246495               0.000927505               0.000681010               0.000000000               0.000000000               0.000000000               0.000000000               0.000172934               0.002625060               0.000041788              -0.000263282               0.000962772               0.000699490               0.000000000               0.000000000               0.000000000               0.000000000               0.000153507               0.002663902               0.000017453              -0.000275422               0.000979766               0.000704344               0.000000000               0.000000000               0.000000000               0.000000000               0.000470031               0.000301864               0.000339204               0.000138527               0.000054444               0.000192972               0.000000000               0.000000000               0.000000000               0.000000000               0.000591006               0.000560118               0.000458597               0.000151611               0.000136167               0.000287778               0.000000000               0.000000000               0.000000000               0.000000000               0.000610520               0.000909417               0.000544177               0.000115266               0.000264713               0.000379980               0.000000000               0.000000000               0.000000000               0.000000000               0.000578279               0.001183626               0.000526950               0.000068900               0.000371571               0.000440471               0.000000000               0.000000000               0.000000000               0.000000000               0.000527140               0.001396063               0.000479624               0.000023169               0.000457627               0.000480796               0.000000000               0.000000000               0.000000000               0.000000000               0.000473243               0.001564393               0.000429225              -0.000018083               0.000527487               0.000509403               0.000000000               0.000000000               0.000000000               0.000000000               0.000424085               0.001702462               0.000380553              -0.000053776               0.000585407               0.000531631               0.000000000               0.000000000               0.000000000               0.000000000               0.000384793               0.001822380               0.000331343              -0.000083500               0.000635287               0.000551787               0.000000000               0.000000000               0.000000000               0.000000000               0.000355602               0.001932020               0.000285594              -0.000108152               0.000680051               0.000571899               0.000000000               0.000000000               0.000000000               0.000000000               0.000333867               0.002035594               0.000248421              -0.000129249               0.000721608               0.000592358               0.000000000               0.000000000               0.000000000               0.000000000               0.000313779               0.002137974               0.000220805              -0.000149579               0.000762511               0.000612931               0.000000000               0.000000000               0.000000000               0.000000000               0.000290916               0.002231740               0.000197367              -0.000169873               0.000800530               0.000630657               0.000000000               0.000000000               0.000000000               0.000000000               0.000270244               0.002316755               0.000168485              -0.000188252               0.000834995               0.000646743               0.000000000               0.000000000               0.000000000               0.000000000               0.000259665               0.002405860               0.000132154              -0.000203358               0.000869731               0.000666374               0.000000000               0.000000000               0.000000000               0.000000000               0.000250942               0.002502998               0.000091578              -0.000218771               0.000907248               0.000688477               0.000000000               0.000000000               0.000000000               0.000000000               0.000240698               0.002608354               0.000048431              -0.000235782               0.000948037               0.000712255               0.000000000               0.000000000               0.000000000               0.000000000               0.000225485               0.002656132               0.000022962              -0.000247459               0.000967855               0.000720396               0.000000000               0.000000000               0.000000000               0.000000000               0.000347723               0.000170048               0.000207840               0.000109139               0.000020302               0.000129441               0.000000000               0.000000000               0.000000000               0.000000000               0.000560108               0.000387911               0.000310979               0.000161550               0.000075452               0.000237002               0.000000000               0.000000000               0.000000000               0.000000000               0.000661252               0.000693010               0.000393782               0.000161341               0.000177221               0.000338562               0.000000000               0.000000000               0.000000000               0.000000000               0.000658179               0.000962110               0.000394171               0.000126552               0.000278516               0.000405068               0.000000000               0.000000000               0.000000000               0.000000000               0.000619285               0.001189465               0.000366619               0.000083548               0.000368635               0.000452183               0.000000000               0.000000000               0.000000000               0.000000000               0.000565768               0.001382147               0.000333265               0.000039394               0.000447580               0.000486974               0.000000000               0.000000000               0.000000000               0.000000000               0.000510151               0.001544743               0.000298658              -0.000001786               0.000515504               0.000513718               0.000000000               0.000000000               0.000000000               0.000000000               0.000459248               0.001687200               0.000263220              -0.000038682               0.000575289               0.000536606               0.000000000               0.000000000               0.000000000               0.000000000               0.000419157               0.001817017               0.000230562              -0.000069943               0.000628981               0.000559038               0.000000000               0.000000000               0.000000000               0.000000000               0.000388906               0.001935992               0.000203205              -0.000096159               0.000677377               0.000581218               0.000000000               0.000000000               0.000000000               0.000000000               0.000367802               0.002050829               0.000181810              -0.000118428               0.000723079               0.000604651               0.000000000               0.000000000               0.000000000               0.000000000               0.000345683               0.002156661               0.000162347              -0.000139951               0.000765530               0.000625579               0.000000000               0.000000000               0.000000000               0.000000000               0.000324610               0.002256356               0.000141923              -0.000160315               0.000805549               0.000645234               0.000000000               0.000000000               0.000000000               0.000000000               0.000314835               0.002360315               0.000115230              -0.000176976               0.000845756               0.000668780               0.000000000               0.000000000               0.000000000               0.000000000               0.000318572               0.002474073               0.000079667              -0.000189794               0.000887948               0.000698153               0.000000000               0.000000000               0.000000000               0.000000000               0.000326456               0.002593210               0.000040978              -0.000201730               0.000931638               0.000729908               0.000000000               0.000000000               0.000000000               0.000000000               0.000326520               0.002649245               0.000020348              -0.000208710               0.000952643               0.000743933               0.000000000               0.000000000               0.000000000               0.000000000               0.000258414               0.000093763               0.000096174               0.000085184               0.000002859               0.000088043               0.000000000               0.000000000               0.000000000               0.000000000               0.000533887               0.000280298               0.000156290               0.000165169               0.000038376               0.000203544               0.000000000               0.000000000               0.000000000               0.000000000               0.000693561               0.000550598               0.000206647               0.000191259               0.000119778               0.000311036               0.000000000               0.000000000               0.000000000               0.000000000               0.000713900               0.000813148               0.000211420               0.000166067               0.000215691               0.000381758               0.000000000               0.000000000               0.000000000               0.000000000               0.000682782               0.001044958               0.000199806               0.000125422               0.000306508               0.000431931               0.000000000               0.000000000               0.000000000               0.000000000               0.000631593               0.001250019               0.000183633               0.000080594               0.000389804               0.000470398               0.000000000               0.000000000               0.000000000               0.000000000               0.000573923               0.001430653               0.000165424               0.000036389               0.000464750               0.000501139               0.000000000               0.000000000               0.000000000               0.000000000               0.000519789               0.001590363               0.000145638              -0.000003875               0.000531407               0.000527533               0.000000000               0.000000000               0.000000000               0.000000000               0.000473597               0.001731596               0.000128231              -0.000038851               0.000590143               0.000551293               0.000000000               0.000000000               0.000000000               0.000000000               0.000435487               0.001858362               0.000115672              -0.000068987               0.000642444               0.000573456               0.000000000               0.000000000               0.000000000               0.000000000               0.000406282               0.001981051               0.000104071              -0.000095276               0.000692102               0.000596827               0.000000000               0.000000000               0.000000000               0.000000000               0.000382999               0.002100490               0.000090965              -0.000118936               0.000739802               0.000620865               0.000000000               0.000000000               0.000000000               0.000000000               0.000365117               0.002214552               0.000080508              -0.000139900               0.000784810               0.000644910               0.000000000               0.000000000               0.000000000               0.000000000               0.000356727               0.002327147               0.000069586              -0.000157121               0.000828081               0.000670961               0.000000000               0.000000000               0.000000000               0.000000000               0.000367458               0.002448597               0.000047953              -0.000168277               0.000872283               0.000704006               0.000000000               0.000000000               0.000000000               0.000000000               0.000398263               0.002577777               0.000021563              -0.000172873               0.000916875               0.000744002               0.000000000               0.000000000               0.000000000               0.000000000               0.000419610               0.002641985               0.000009518              -0.000172894               0.000938284               0.000765390               0.000000000               0.000000000               0.000000000               0.000000000               0.000225984               0.000069536               0.000000000               0.000076051              -0.000002172               0.000073879               0.000000000               0.000000000               0.000000000               0.000000000               0.000524009               0.000244857              -0.000000000               0.000165895               0.000026320               0.000192215               0.000000000               0.000000000               0.000000000               0.000000000               0.000705199               0.000502007              -0.000000000               0.000201697               0.000100102               0.000301799               0.000000000               0.000000000               0.000000000               0.000000000               0.000734985               0.000760808              -0.000000000               0.000180516               0.000193428               0.000373945               0.000000000               0.000000000               0.000000000               0.000000000               0.000706441               0.000993895               0.000000000               0.000140677               0.000284403               0.000425080               0.000000000               0.000000000               0.000000000               0.000000000               0.000655415               0.001202939               0.000000000               0.000095412               0.000369172               0.000464584               0.000000000               0.000000000               0.000000000               0.000000000               0.000595882               0.001386303              -0.000000000               0.000050167               0.000445374               0.000495541               0.000000000               0.000000000               0.000000000               0.000000000               0.000541229               0.001550630              -0.000000000               0.000009132               0.000513828               0.000522960               0.000000000               0.000000000               0.000000000               0.000000000               0.000496675               0.001700488               0.000000000              -0.000026308               0.000575593               0.000549285               0.000000000               0.000000000               0.000000000               0.000000000               0.000455762               0.001830823              -0.000000000              -0.000057942               0.000629582               0.000571640               0.000000000               0.000000000               0.000000000               0.000000000               0.000418485               0.001953793              -0.000000000              -0.000087292               0.000680355               0.000593063               0.000000000               0.000000000               0.000000000               0.000000000               0.000394619               0.002081463               0.000000000              -0.000112201               0.000731214               0.000619014               0.000000000               0.000000000               0.000000000               0.000000000               0.000382315               0.002203779               0.000000000              -0.000132104               0.000778620               0.000646516               0.000000000               0.000000000               0.000000000               0.000000000               0.000375580               0.002317015               0.000000000              -0.000148784               0.000821925               0.000673141               0.000000000               0.000000000               0.000000000               0.000000000               0.000384707               0.002435023               0.000000000              -0.000160112               0.000865037               0.000704925               0.000000000               0.000000000               0.000000000               0.000000000               0.000425710               0.002565981              -0.000000000              -0.000161106               0.000909020               0.000747914               0.000000000               0.000000000               0.000000000               0.000000000               0.000458065               0.002634554              -0.000000000              -0.000157544               0.000930691               0.000773146               0.000000000               0.000000000               0.000000000               0.000000000               0.000396855               0.004556405               0.000000000              -0.000420729               0.001659029               0.001238300               0.000000000               0.000000000               0.000000000               0.000000000               0.000447600               0.003803513               0.000000000              -0.000307588               0.001370354               0.001062766               0.000000000               0.000000000               0.000000000               0.000000000               0.000628309               0.003192839              -0.000000000              -0.000163489               0.001118765               0.000955276               0.000000000               0.000000000               0.000000000               0.000000000               0.000666213               0.002857802              -0.000000000              -0.000107395               0.000988389               0.000880994               0.000000000               0.000000000               0.000000000               0.000000000               0.000646102               0.002662955              -0.000000000              -0.000090581               0.000917836               0.000827255               0.000000000               0.000000000               0.000000000               0.000000000               0.000599768               0.002548147              -0.000000000              -0.000093605               0.000880576               0.000786971               0.000000000               0.000000000               0.000000000               0.000000000               0.000543434               0.002480792              -0.000000000              -0.000106311               0.000862359               0.000756048               0.000000000               0.000000000               0.000000000               0.000000000               0.000478483               0.002439506              -0.000000000              -0.000125507               0.000854996               0.000729489               0.000000000               0.000000000               0.000000000               0.000000000               0.000409324               0.002418969              -0.000000000              -0.000148874               0.000855940               0.000707065               0.000000000               0.000000000               0.000000000               0.000000000               0.000345623               0.002411174               0.000000000              -0.000171788               0.000860979               0.000689192               0.000000000               0.000000000               0.000000000               0.000000000               0.000289131               0.002413392               0.000000000              -0.000193249               0.000868873               0.000675623               0.000000000               0.000000000               0.000000000               0.000000000               0.000234074               0.002420094               0.000000000              -0.000214734               0.000878268               0.000663534               0.000000000               0.000000000               0.000000000               0.000000000               0.000180959               0.002435080               0.000000000              -0.000236525               0.000890527               0.000654002               0.000000000               0.000000000               0.000000000               0.000000000               0.000129464               0.002457308               0.000000000              -0.000258614               0.000905299               0.000646685               0.000000000               0.000000000               0.000000000               0.000000000               0.000082074               0.002485835               0.000000000              -0.000279951               0.000921920               0.000641970               0.000000000               0.000000000               0.000000000               0.000000000               0.000039287               0.002516848               0.000000000              -0.000299873               0.000938899               0.000639026               0.000000000               0.000000000               0.000000000               0.000000000               0.000021796               0.002540348               0.000000000              -0.000309369               0.000949897               0.000640528               0.000000000               0.000000000               0.000000000               0.000000000               0.000423108               0.004483469              -0.000353932              -0.000401767               0.001628397               0.001226630               0.000000000               0.000000000               0.000000000               0.000000000               0.000457621               0.003748392              -0.000236850              -0.000296940               0.001348432               0.001051491               0.000000000               0.000000000               0.000000000               0.000000000               0.000621773               0.003160207              -0.000112833              -0.000161861               0.001107345               0.000945485               0.000000000               0.000000000               0.000000000               0.000000000               0.000651807               0.002838117              -0.000052120              -0.000110337               0.000982809               0.000872472               0.000000000               0.000000000               0.000000000               0.000000000               0.000626889               0.002652091              -0.000021823              -0.000096428               0.000916164               0.000819736               0.000000000               0.000000000               0.000000000               0.000000000               0.000578180               0.002540692              -0.000006603              -0.000100769               0.000880478               0.000779710               0.000000000               0.000000000               0.000000000               0.000000000               0.000521471               0.002474650              -0.000000133              -0.000113779               0.000862802               0.000749022               0.000000000               0.000000000               0.000000000               0.000000000               0.000459969               0.002438255               0.000002806              -0.000132293               0.000856841               0.000724548               0.000000000               0.000000000               0.000000000               0.000000000               0.000396383               0.002418154               0.000004067              -0.000153625               0.000857252               0.000703627               0.000000000               0.000000000               0.000000000               0.000000000               0.000333640               0.002409818               0.000003819              -0.000176112               0.000861968               0.000685857               0.000000000               0.000000000               0.000000000               0.000000000               0.000275251               0.002410455               0.000002195              -0.000198087               0.000869506               0.000671419               0.000000000               0.000000000               0.000000000               0.000000000               0.000222035               0.002419326               0.000001939              -0.000219152               0.000879484               0.000660333               0.000000000               0.000000000               0.000000000               0.000000000               0.000170474               0.002435155               0.000004267              -0.000240466               0.000891866               0.000651399               0.000000000               0.000000000               0.000000000               0.000000000               0.000120906               0.002457794               0.000005931              -0.000261884               0.000906551               0.000644667               0.000000000               0.000000000               0.000000000               0.000000000               0.000075821               0.002483527               0.000006343              -0.000282007               0.000921837               0.000639829               0.000000000               0.000000000               0.000000000               0.000000000               0.000036488               0.002512074               0.000005493              -0.000300326               0.000937458               0.000637132               0.000000000               0.000000000               0.000000000               0.000000000               0.000021014               0.002534473               0.000004238              -0.000308928               0.000947792               0.000638864               0.000000000               0.000000000               0.000000000               0.000000000               0.000497790               0.004275451              -0.000674181              -0.000347760               0.001541056               0.001193296               0.000000000               0.000000000               0.000000000               0.000000000               0.000487311               0.003596220              -0.000449999              -0.000266785               0.001287656               0.001020871               0.000000000               0.000000000               0.000000000               0.000000000               0.000602973               0.003074102              -0.000215603              -0.000158148               0.001077406               0.000919259               0.000000000               0.000000000               0.000000000               0.000000000               0.000609628               0.002789685              -0.000104015              -0.000120100               0.000969919               0.000849819               0.000000000               0.000000000               0.000000000               0.000000000               0.000575730               0.002625989              -0.000049368              -0.000112350               0.000912771               0.000800421               0.000000000               0.000000000               0.000000000               0.000000000               0.000524806               0.002527417              -0.000022675              -0.000119125               0.000882172               0.000763048               0.000000000               0.000000000               0.000000000               0.000000000               0.000469824               0.002469787              -0.000009016              -0.000132539               0.000867434               0.000734895               0.000000000               0.000000000               0.000000000               0.000000000               0.000413106               0.002436934              -0.000003267              -0.000149702               0.000862204               0.000712502               0.000000000               0.000000000               0.000000000               0.000000000               0.000355333               0.002417718              -0.000002637              -0.000168965               0.000862219               0.000693255               0.000000000               0.000000000               0.000000000               0.000000000               0.000297099               0.002409162              -0.000003646              -0.000189733               0.000866290               0.000676558               0.000000000               0.000000000               0.000000000               0.000000000               0.000244014               0.002409781              -0.000004971              -0.000209717               0.000873158               0.000663441               0.000000000               0.000000000               0.000000000               0.000000000               0.000196444               0.002418679              -0.000003977              -0.000228668               0.000882441               0.000653773               0.000000000               0.000000000               0.000000000               0.000000000               0.000148431               0.002433815               0.000000898              -0.000248565               0.000894118               0.000645554               0.000000000               0.000000000               0.000000000               0.000000000               0.000103247               0.002454621               0.000003438              -0.000268109               0.000907569               0.000639459               0.000000000               0.000000000               0.000000000               0.000000000               0.000063749               0.002476833               0.000002704              -0.000285698               0.000920835               0.000635138               0.000000000               0.000000000               0.000000000               0.000000000               0.000029680               0.002499560               0.000002901              -0.000301314               0.000933617               0.000632302               0.000000000               0.000000000               0.000000000               0.000000000               0.000017142               0.002518858               0.000001877              -0.000308428               0.000942420               0.000633992               0.000000000               0.000000000               0.000000000               0.000000000               0.000606913               0.003961695              -0.000931639              -0.000267620               0.001409758               0.001142139               0.000000000               0.000000000               0.000000000               0.000000000               0.000528345               0.003374918              -0.000622674              -0.000223735               0.001199540               0.000975805               0.000000000               0.000000000               0.000000000               0.000000000               0.000571697               0.002955244              -0.000304227              -0.000155019               0.001036745               0.000881726               0.000000000               0.000000000               0.000000000               0.000000000               0.000548233               0.002725197              -0.000157395              -0.000135062               0.000953410               0.000818349               0.000000000               0.000000000               0.000000000               0.000000000               0.000503125               0.002589003              -0.000086497              -0.000134953               0.000907977               0.000773024               0.000000000               0.000000000               0.000000000               0.000000000               0.000451595               0.002506661              -0.000051493              -0.000143984               0.000883540               0.000739556               0.000000000               0.000000000               0.000000000               0.000000000               0.000401866               0.002458314              -0.000033910              -0.000156589               0.000871626               0.000715037               0.000000000               0.000000000               0.000000000               0.000000000               0.000350529               0.002427079              -0.000026208              -0.000171936               0.000866330               0.000694394               0.000000000               0.000000000               0.000000000               0.000000000               0.000299350               0.002409453              -0.000023386              -0.000188925               0.000866118               0.000677193               0.000000000               0.000000000               0.000000000               0.000000000               0.000249708               0.002401887              -0.000022088              -0.000206595               0.000869486               0.000662891               0.000000000               0.000000000               0.000000000               0.000000000               0.000201764               0.002402697              -0.000021535              -0.000224675               0.000875783               0.000651108               0.000000000               0.000000000               0.000000000               0.000000000               0.000158954               0.002411911              -0.000018457              -0.000241881               0.000884589               0.000642709               0.000000000               0.000000000               0.000000000               0.000000000               0.000119779               0.002426909              -0.000010327              -0.000258446               0.000895110               0.000636664               0.000000000               0.000000000               0.000000000               0.000000000               0.000083219               0.002445025              -0.000005520              -0.000274420               0.000906474               0.000632053               0.000000000               0.000000000               0.000000000               0.000000000               0.000051378               0.002462987              -0.000007461              -0.000288606               0.000917189               0.000628584               0.000000000               0.000000000               0.000000000               0.000000000               0.000023835               0.002477348              -0.000005933              -0.000300730               0.000926018               0.000625288               0.000000000               0.000000000               0.000000000               0.000000000               0.000013731               0.002489375              -0.000004027              -0.000306022               0.000931791               0.000625769               0.000000000               0.000000000               0.000000000               0.000000000               0.000724886               0.003574660              -0.001109570              -0.000175001               0.001249875               0.001074874               0.000000000               0.000000000               0.000000000               0.000000000               0.000566422               0.003106560              -0.000747363              -0.000175912               0.001094147               0.000918235               0.000000000               0.000000000               0.000000000               0.000000000               0.000525738               0.002812216              -0.000377517              -0.000154375               0.000988854               0.000834479               0.000000000               0.000000000               0.000000000               0.000000000               0.000472416               0.002643227              -0.000212688              -0.000153247               0.000932149               0.000778902               0.000000000               0.000000000               0.000000000               0.000000000               0.000420285               0.002538805              -0.000134594              -0.000159743               0.000899508               0.000739764               0.000000000               0.000000000               0.000000000               0.000000000               0.000372669               0.002474039              -0.000094546              -0.000169504               0.000881173               0.000711669               0.000000000               0.000000000               0.000000000               0.000000000               0.000329678               0.002432390              -0.000072817              -0.000180419               0.000870928               0.000690509               0.000000000               0.000000000               0.000000000               0.000000000               0.000287248               0.002406049              -0.000061403              -0.000193038               0.000866354               0.000673316               0.000000000               0.000000000               0.000000000               0.000000000               0.000246743               0.002391812              -0.000054329              -0.000206447               0.000866079               0.000659631               0.000000000               0.000000000               0.000000000               0.000000000               0.000206717               0.002387139              -0.000048605              -0.000220873               0.000869329               0.000648456               0.000000000               0.000000000               0.000000000               0.000000000               0.000165037               0.002390511              -0.000041884              -0.000236924               0.000875804               0.000638879               0.000000000               0.000000000               0.000000000               0.000000000               0.000127229               0.002403805              -0.000033928              -0.000252764               0.000885515               0.000632751               0.000000000               0.000000000               0.000000000               0.000000000               0.000095838               0.002420164              -0.000022992              -0.000266581               0.000895573               0.000628993               0.000000000               0.000000000               0.000000000               0.000000000               0.000068715               0.002434435              -0.000016186              -0.000278536               0.000904315               0.000625780               0.000000000               0.000000000               0.000000000               0.000000000               0.000043622               0.002442914              -0.000018263              -0.000289005               0.000910632               0.000621626               0.000000000               0.000000000               0.000000000               0.000000000               0.000020675               0.002447085              -0.000015322              -0.000298132               0.000915064               0.000616933               0.000000000               0.000000000               0.000000000               0.000000000               0.000011038               0.002450318              -0.000010891              -0.000302150               0.000917481               0.000615332               0.000000000               0.000000000               0.000000000               0.000000000               0.000824549               0.003139786              -0.001206054              -0.000083269               0.001074341               0.000991072               0.000000000               0.000000000               0.000000000               0.000000000               0.000589924               0.002810182              -0.000824404              -0.000130052               0.000980068               0.000850017               0.000000000               0.000000000               0.000000000               0.000000000               0.000468338               0.002655781              -0.000437618              -0.000156346               0.000937367               0.000781021               0.000000000               0.000000000               0.000000000               0.000000000               0.000391651               0.002550049              -0.000269963              -0.000171887               0.000907303               0.000735417               0.000000000               0.000000000               0.000000000               0.000000000               0.000339773               0.002480450              -0.000189121              -0.000182641               0.000887689               0.000705048               0.000000000               0.000000000               0.000000000               0.000000000               0.000300346               0.002433624              -0.000144994              -0.000191573               0.000875058               0.000683485               0.000000000               0.000000000               0.000000000               0.000000000               0.000267084               0.002401673              -0.000118605              -0.000200052               0.000867234               0.000667182               0.000000000               0.000000000               0.000000000               0.000000000               0.000235254               0.002382660              -0.000100687              -0.000209612               0.000864083               0.000654471               0.000000000               0.000000000               0.000000000               0.000000000               0.000204438               0.002375503              -0.000087011              -0.000220273               0.000865251               0.000644977               0.000000000               0.000000000               0.000000000               0.000000000               0.000173742               0.002376292              -0.000073784              -0.000231883               0.000869384               0.000637501               0.000000000               0.000000000               0.000000000               0.000000000               0.000139486               0.002385304              -0.000058595              -0.000245855               0.000877045               0.000631190               0.000000000               0.000000000               0.000000000               0.000000000               0.000106522               0.002400295              -0.000044048              -0.000260090               0.000886787               0.000626697               0.000000000               0.000000000               0.000000000               0.000000000               0.000079647               0.002415038              -0.000031801              -0.000272011               0.000895675               0.000623664               0.000000000               0.000000000               0.000000000               0.000000000               0.000058549               0.002419577              -0.000024488              -0.000280491               0.000900015               0.000619524               0.000000000               0.000000000               0.000000000               0.000000000               0.000042441               0.002419115              -0.000024130              -0.000286473               0.000901855               0.000615381               0.000000000               0.000000000               0.000000000               0.000000000               0.000022667               0.002418055              -0.000018600              -0.000293756               0.000903929               0.000610173               0.000000000               0.000000000               0.000000000               0.000000000               0.000012318               0.002419419              -0.000013446              -0.000297807               0.000905734               0.000607927               0.000000000               0.000000000               0.000000000               0.000000000               0.000889872               0.002685803              -0.001224168              -0.000002025               0.000895933               0.000893908               0.000000000               0.000000000               0.000000000               0.000000000               0.000597402               0.002511050              -0.000859482              -0.000089856               0.000866960               0.000777104               0.000000000               0.000000000               0.000000000               0.000000000               0.000410093               0.002500600              -0.000490263              -0.000158790               0.000886455               0.000727665               0.000000000               0.000000000               0.000000000               0.000000000               0.000321450               0.002455485              -0.000328250              -0.000186392               0.000880617               0.000694226               0.000000000               0.000000000               0.000000000               0.000000000               0.000274346               0.002418683              -0.000245246              -0.000199455               0.000872705               0.000673250               0.000000000               0.000000000               0.000000000               0.000000000               0.000244142               0.002389479              -0.000196647              -0.000207131               0.000865529               0.000658398               0.000000000               0.000000000               0.000000000               0.000000000               0.000220513               0.002370997              -0.000163167              -0.000213682               0.000861552               0.000647870               0.000000000               0.000000000               0.000000000               0.000000000               0.000199275               0.002363849              -0.000135740              -0.000220752               0.000861526               0.000640773               0.000000000               0.000000000               0.000000000               0.000000000               0.000175816               0.002364356              -0.000112237              -0.000229613               0.000864648               0.000635035               0.000000000               0.000000000               0.000000000               0.000000000               0.000149384               0.002370550              -0.000089735              -0.000240299               0.000870275               0.000629976               0.000000000               0.000000000               0.000000000               0.000000000               0.000118252               0.002382973              -0.000066331              -0.000253527               0.000878825               0.000625299               0.000000000               0.000000000               0.000000000               0.000000000               0.000089876               0.002396638              -0.000045887              -0.000265875               0.000887496               0.000621621               0.000000000               0.000000000               0.000000000               0.000000000               0.000069412               0.002405794              -0.000033149              -0.000274694               0.000893488               0.000618794               0.000000000               0.000000000               0.000000000               0.000000000               0.000053450               0.002407844              -0.000027618              -0.000280936               0.000896252               0.000615316               0.000000000               0.000000000               0.000000000               0.000000000               0.000040371               0.002411041              -0.000025252              -0.000286240               0.000899086               0.000612845               0.000000000               0.000000000               0.000000000               0.000000000               0.000023144               0.002419926              -0.000018136              -0.000293811               0.000904571               0.000610760               0.000000000               0.000000000               0.000000000               0.000000000               0.000016278               0.002431911              -0.000014258              -0.000297884               0.000909924               0.000612040               0.000000000               0.000000000               0.000000000               0.000000000               0.000916616               0.002241287              -0.001173923               0.000063568               0.000725898               0.000789466               0.000000000               0.000000000               0.000000000               0.000000000               0.000591837               0.002228387              -0.000862477              -0.000056610               0.000761658               0.000705048               0.000000000               0.000000000               0.000000000               0.000000000               0.000361862               0.002349799              -0.000537357              -0.000158026               0.000835934               0.000677907               0.000000000               0.000000000               0.000000000               0.000000000               0.000270683               0.002361544              -0.000383256              -0.000193687               0.000851735               0.000658049               0.000000000               0.000000000               0.000000000               0.000000000               0.000229500               0.002354726              -0.000296751              -0.000208278               0.000854327               0.000646049               0.000000000               0.000000000               0.000000000               0.000000000               0.000206287               0.002345929              -0.000241357              -0.000215883               0.000853930               0.000638047               0.000000000               0.000000000               0.000000000               0.000000000               0.000190285               0.002343362              -0.000197670              -0.000221563               0.000854967               0.000633404               0.000000000               0.000000000               0.000000000               0.000000000               0.000177387               0.002348951              -0.000159301              -0.000227098               0.000858675               0.000631577               0.000000000               0.000000000               0.000000000               0.000000000               0.000156218               0.002357241              -0.000126877              -0.000236073               0.000864430               0.000628357               0.000000000               0.000000000               0.000000000               0.000000000               0.000127527               0.002369886              -0.000097512              -0.000248412               0.000872758               0.000624346               0.000000000               0.000000000               0.000000000               0.000000000               0.000099763               0.002385714              -0.000068500              -0.000260802               0.000882164               0.000621362               0.000000000               0.000000000               0.000000000               0.000000000               0.000080957               0.002400205              -0.000044960              -0.000269666               0.000889949               0.000620283               0.000000000               0.000000000               0.000000000               0.000000000               0.000068563               0.002411323              -0.000030852              -0.000275703               0.000895667               0.000619964               0.000000000               0.000000000               0.000000000               0.000000000               0.000055922               0.002425688              -0.000025478              -0.000282239               0.000902634               0.000620395               0.000000000               0.000000000               0.000000000               0.000000000               0.000042053               0.002448939              -0.000022786              -0.000290347               0.000913087               0.000622740               0.000000000               0.000000000               0.000000000               0.000000000               0.000023820               0.002483132              -0.000015199              -0.000301458               0.000928189               0.000626730               0.000000000               0.000000000               0.000000000               0.000000000               0.000017268               0.002510234              -0.000011846              -0.000307303               0.000939171               0.000631868               0.000000000               0.000000000               0.000000000               0.000000000               0.000922106               0.001845162              -0.001077556               0.000115142               0.000576667               0.000691809               0.000000000               0.000000000               0.000000000               0.000000000               0.000592626               0.001972557              -0.000849062              -0.000024336               0.000665624               0.000641288               0.000000000               0.000000000               0.000000000               0.000000000               0.000340312               0.002209307              -0.000587960              -0.000148546               0.000785944               0.000637397               0.000000000               0.000000000               0.000000000               0.000000000               0.000251233               0.002278623              -0.000441505              -0.000190615               0.000823072               0.000632457               0.000000000               0.000000000               0.000000000               0.000000000               0.000210958               0.002301521              -0.000349559              -0.000208581               0.000836693               0.000628112               0.000000000               0.000000000               0.000000000               0.000000000               0.000192222               0.002312436              -0.000284504              -0.000216971               0.000843128               0.000626157               0.000000000               0.000000000               0.000000000               0.000000000               0.000179423               0.002323992              -0.000230194              -0.000223215               0.000849061               0.000625846               0.000000000               0.000000000               0.000000000               0.000000000               0.000168414               0.002340854              -0.000182638              -0.000229451               0.000856761               0.000627310               0.000000000               0.000000000               0.000000000               0.000000000               0.000148950               0.002358966              -0.000143216              -0.000239014               0.000865986               0.000626971               0.000000000               0.000000000               0.000000000               0.000000000               0.000121316               0.002381768              -0.000109949              -0.000252227               0.000877990               0.000625764               0.000000000               0.000000000               0.000000000               0.000000000               0.000096877               0.002405694              -0.000079048              -0.000264382               0.000890017               0.000625635               0.000000000               0.000000000               0.000000000               0.000000000               0.000085057               0.002426231              -0.000053250              -0.000271382               0.000899196               0.000627814               0.000000000               0.000000000               0.000000000               0.000000000               0.000078442               0.002445396              -0.000035938              -0.000276258               0.000907210               0.000630952               0.000000000               0.000000000               0.000000000               0.000000000               0.000067295               0.002470117              -0.000025136              -0.000283528               0.000917874               0.000634345               0.000000000               0.000000000               0.000000000               0.000000000               0.000053993               0.002515331              -0.000016771              -0.000294168               0.000936491               0.000642323               0.000000000               0.000000000               0.000000000               0.000000000               0.000040939               0.002576973              -0.000007695              -0.000306769               0.000961239               0.000654470               0.000000000               0.000000000               0.000000000               0.000000000               0.000033181               0.002612380              -0.000003460              -0.000314104               0.000975486               0.000661382               0.000000000               0.000000000               0.000000000               0.000000000               0.000899936               0.001457719              -0.000957477               0.000155259               0.000434148               0.000589407               0.000000000               0.000000000               0.000000000               0.000000000               0.000608028               0.001668955              -0.000827238               0.000019390               0.000549849               0.000569239               0.000000000               0.000000000               0.000000000               0.000000000               0.000358497               0.001992841              -0.000649648              -0.000114669               0.000702497               0.000587828               0.000000000               0.000000000               0.000000000               0.000000000               0.000269883               0.002128041              -0.000513866              -0.000164799               0.000764273               0.000599474               0.000000000               0.000000000               0.000000000               0.000000000               0.000223193               0.002190100              -0.000416743              -0.000190065               0.000793381               0.000603316               0.000000000               0.000000000               0.000000000               0.000000000               0.000199609               0.002225024              -0.000342475              -0.000203274               0.000809425               0.000606151               0.000000000               0.000000000               0.000000000               0.000000000               0.000184361               0.002253972              -0.000280450              -0.000212611               0.000822187               0.000609576               0.000000000               0.000000000               0.000000000               0.000000000               0.000174639               0.002284890              -0.000226327              -0.000220121               0.000834996               0.000614875               0.000000000               0.000000000               0.000000000               0.000000000               0.000159347               0.002316010              -0.000179519              -0.000229745               0.000848577               0.000618832               0.000000000               0.000000000               0.000000000               0.000000000               0.000136277               0.002350712              -0.000141761              -0.000242735               0.000864474               0.000621740               0.000000000               0.000000000               0.000000000               0.000000000               0.000113498               0.002386276              -0.000112316              -0.000255722               0.000880658               0.000624936               0.000000000               0.000000000               0.000000000               0.000000000               0.000101252               0.002422971              -0.000087332              -0.000264901               0.000895949               0.000631048               0.000000000               0.000000000               0.000000000               0.000000000               0.000096949               0.002456023              -0.000063891              -0.000270646               0.000908882               0.000638235               0.000000000               0.000000000               0.000000000               0.000000000               0.000091839               0.002494314              -0.000042347              -0.000277349               0.000923879               0.000646531               0.000000000               0.000000000               0.000000000               0.000000000               0.000083409               0.002550851              -0.000023648              -0.000287577               0.000946134               0.000658557               0.000000000               0.000000000               0.000000000               0.000000000               0.000071100               0.002624312              -0.000008927              -0.000301376               0.000975220               0.000673845               0.000000000               0.000000000               0.000000000               0.000000000               0.000057389               0.002661056               0.000000164              -0.000311110               0.000990713               0.000679603               0.000000000               0.000000000               0.000000000               0.000000000               0.000835626               0.001089779              -0.000815788               0.000177135               0.000304210               0.000481346               0.000000000               0.000000000               0.000000000               0.000000000               0.000628287               0.001361522              -0.000783201               0.000065416               0.000432030               0.000497446               0.000000000               0.000000000               0.000000000               0.000000000               0.000410913               0.001745237              -0.000696161              -0.000064063               0.000603094               0.000539031               0.000000000               0.000000000               0.000000000               0.000000000               0.000318806               0.001939134              -0.000581534              -0.000122840               0.000687318               0.000564478               0.000000000               0.000000000               0.000000000               0.000000000               0.000265002               0.002045119              -0.000485650              -0.000156264               0.000733788               0.000577524               0.000000000               0.000000000               0.000000000               0.000000000               0.000231965               0.002111029              -0.000406369              -0.000176891               0.000762633               0.000585741               0.000000000               0.000000000               0.000000000               0.000000000               0.000212655               0.002161977              -0.000339938              -0.000190501               0.000784152               0.000593651               0.000000000               0.000000000               0.000000000               0.000000000               0.000200283               0.002208060              -0.000281715              -0.000200901               0.000802980               0.000602079               0.000000000               0.000000000               0.000000000               0.000000000               0.000189156               0.002255681              -0.000227692              -0.000211026               0.000822228               0.000611202               0.000000000               0.000000000               0.000000000               0.000000000               0.000171670               0.002304135              -0.000185726              -0.000223640               0.000842584               0.000618944               0.000000000               0.000000000               0.000000000               0.000000000               0.000152559               0.002349841              -0.000157450              -0.000236520               0.000862112               0.000625593               0.000000000               0.000000000               0.000000000               0.000000000               0.000138324               0.002396427              -0.000133442              -0.000247681               0.000881362               0.000633680               0.000000000               0.000000000               0.000000000               0.000000000               0.000128527               0.002443730              -0.000104077              -0.000257268               0.000900325               0.000643057               0.000000000               0.000000000               0.000000000               0.000000000               0.000120077               0.002496927              -0.000071331              -0.000267086               0.000921330               0.000654243               0.000000000               0.000000000               0.000000000               0.000000000               0.000111519               0.002559979              -0.000040191              -0.000278177               0.000946044               0.000667867               0.000000000               0.000000000               0.000000000               0.000000000               0.000100400               0.002632580              -0.000015111              -0.000291422               0.000974659               0.000683237               0.000000000               0.000000000               0.000000000               0.000000000               0.000083608               0.002662599              -0.000000534              -0.000301471               0.000988015               0.000686543               0.000000000               0.000000000               0.000000000               0.000000000               0.000732601               0.000761479              -0.000656151               0.000179539               0.000193977               0.000373516               0.000000000               0.000000000               0.000000000               0.000000000               0.000632901               0.001063356              -0.000703973               0.000104417               0.000319643               0.000424059               0.000000000               0.000000000               0.000000000               0.000000000               0.000477250               0.001465700              -0.000696963              -0.000004245               0.000489976               0.000485732               0.000000000               0.000000000               0.000000000               0.000000000               0.000391538               0.001702901              -0.000614760              -0.000066036               0.000589640               0.000523604               0.000000000               0.000000000               0.000000000               0.000000000               0.000334820               0.001853616              -0.000529092              -0.000106145               0.000653247               0.000547103               0.000000000               0.000000000               0.000000000               0.000000000               0.000292310               0.001954069              -0.000453469              -0.000134642               0.000696231               0.000561588               0.000000000               0.000000000               0.000000000               0.000000000               0.000266729               0.002031735              -0.000387116              -0.000153943               0.000728553               0.000574609               0.000000000               0.000000000               0.000000000               0.000000000               0.000247768               0.002099882              -0.000326309              -0.000169572               0.000756478               0.000586906               0.000000000               0.000000000               0.000000000               0.000000000               0.000233872               0.002165594              -0.000269837              -0.000182997               0.000782856               0.000599860               0.000000000               0.000000000               0.000000000               0.000000000               0.000219837               0.002230437              -0.000225544              -0.000196365               0.000808927               0.000612561               0.000000000               0.000000000               0.000000000               0.000000000               0.000202177               0.002290546              -0.000197662              -0.000210501               0.000833675               0.000623174               0.000000000               0.000000000               0.000000000               0.000000000               0.000185487               0.002349764              -0.000173148              -0.000224162               0.000857968               0.000633805               0.000000000               0.000000000               0.000000000               0.000000000               0.000169526               0.002412112              -0.000138254              -0.000237941               0.000883343               0.000645402               0.000000000               0.000000000               0.000000000               0.000000000               0.000154162               0.002482356              -0.000098054              -0.000252483               0.000911605               0.000659122               0.000000000               0.000000000               0.000000000               0.000000000               0.000141790               0.002558205              -0.000061022              -0.000266604               0.000941595               0.000674991               0.000000000               0.000000000               0.000000000               0.000000000               0.000130147               0.002635148              -0.000028601              -0.000280588               0.000971903               0.000691315               0.000000000               0.000000000               0.000000000               0.000000000               0.000112947               0.002666447              -0.000009810              -0.000290950               0.000985790               0.000694840               0.000000000               0.000000000               0.000000000               0.000000000               0.000603888               0.000496319              -0.000492439               0.000164416               0.000110632               0.000275048               0.000000000               0.000000000               0.000000000               0.000000000               0.000618292               0.000790221              -0.000593297               0.000133080               0.000219044               0.000352124               0.000000000               0.000000000               0.000000000               0.000000000               0.000546830               0.001177141              -0.000646449               0.000057917               0.000373070               0.000430988               0.000000000               0.000000000               0.000000000               0.000000000               0.000483241               0.001441136              -0.000599936               0.000001073               0.000480016               0.000481089               0.000000000               0.000000000               0.000000000               0.000000000               0.000425881               0.001628943              -0.000531471              -0.000043913               0.000557613               0.000513700               0.000000000               0.000000000               0.000000000               0.000000000               0.000376515               0.001764411              -0.000466159              -0.000079359               0.000614584               0.000535225               0.000000000               0.000000000               0.000000000               0.000000000               0.000339048               0.001871995              -0.000406311              -0.000106856               0.000659611               0.000552754               0.000000000               0.000000000               0.000000000               0.000000000               0.000313056               0.001967744              -0.000348212              -0.000128572               0.000698765               0.000570194               0.000000000               0.000000000               0.000000000               0.000000000               0.000292470               0.002053854              -0.000294343              -0.000147055               0.000733629               0.000586574               0.000000000               0.000000000               0.000000000               0.000000000               0.000276480               0.002137746              -0.000251502              -0.000163538               0.000767088               0.000603550               0.000000000               0.000000000               0.000000000               0.000000000               0.000257531               0.002219024              -0.000222913              -0.000180804               0.000799935               0.000619132               0.000000000               0.000000000               0.000000000               0.000000000               0.000235122               0.002294310              -0.000198143              -0.000198618               0.000830968               0.000632351               0.000000000               0.000000000               0.000000000               0.000000000               0.000215823               0.002369650              -0.000162714              -0.000215272               0.000861633               0.000646361               0.000000000               0.000000000               0.000000000               0.000000000               0.000201935               0.002451385              -0.000121509              -0.000230697               0.000894019               0.000663322               0.000000000               0.000000000               0.000000000               0.000000000               0.000188027               0.002536046              -0.000082069              -0.000246495               0.000927505               0.000681010               0.000000000               0.000000000               0.000000000               0.000000000               0.000172934               0.002625060              -0.000041788              -0.000263282               0.000962772               0.000699490               0.000000000               0.000000000               0.000000000               0.000000000               0.000153507               0.002663902              -0.000017453              -0.000275422               0.000979766               0.000704344               0.000000000               0.000000000               0.000000000               0.000000000               0.000470031               0.000301864              -0.000339204               0.000138527               0.000054444               0.000192972               0.000000000               0.000000000               0.000000000               0.000000000               0.000591006               0.000560118              -0.000458597               0.000151611               0.000136167               0.000287778               0.000000000               0.000000000               0.000000000               0.000000000               0.000610520               0.000909417              -0.000544177               0.000115266               0.000264713               0.000379980               0.000000000               0.000000000               0.000000000               0.000000000               0.000578279               0.001183626              -0.000526950               0.000068900               0.000371571               0.000440471               0.000000000               0.000000000               0.000000000               0.000000000               0.000527140               0.001396063              -0.000479624               0.000023169               0.000457627               0.000480796               0.000000000               0.000000000               0.000000000               0.000000000               0.000473243               0.001564393              -0.000429225              -0.000018083               0.000527487               0.000509403               0.000000000               0.000000000               0.000000000               0.000000000               0.000424085               0.001702462              -0.000380553              -0.000053776               0.000585407               0.000531631               0.000000000               0.000000000               0.000000000               0.000000000               0.000384793               0.001822380              -0.000331343              -0.000083500               0.000635287               0.000551787               0.000000000               0.000000000               0.000000000               0.000000000               0.000355602               0.001932020              -0.000285594              -0.000108152               0.000680051               0.000571899               0.000000000               0.000000000               0.000000000               0.000000000               0.000333867               0.002035594              -0.000248421              -0.000129249               0.000721608               0.000592358               0.000000000               0.000000000               0.000000000               0.000000000               0.000313779               0.002137974              -0.000220805              -0.000149579               0.000762511               0.000612931               0.000000000               0.000000000               0.000000000               0.000000000               0.000290916               0.002231740              -0.000197367              -0.000169873               0.000800530               0.000630657               0.000000000               0.000000000               0.000000000               0.000000000               0.000270244               0.002316755              -0.000168485              -0.000188252               0.000834995               0.000646743               0.000000000               0.000000000               0.000000000               0.000000000               0.000259665               0.002405860              -0.000132154              -0.000203358               0.000869731               0.000666374               0.000000000               0.000000000               0.000000000               0.000000000               0.000250942               0.002502998              -0.000091578              -0.000218771               0.000907248               0.000688477               0.000000000               0.000000000               0.000000000               0.000000000               0.000240698               0.002608354              -0.000048431              -0.000235782               0.000948037               0.000712255               0.000000000               0.000000000               0.000000000               0.000000000               0.000225485               0.002656132              -0.000022962              -0.000247459               0.000967855               0.000720396               0.000000000               0.000000000               0.000000000               0.000000000               0.000347723               0.000170048              -0.000207840               0.000109139               0.000020302               0.000129441               0.000000000               0.000000000               0.000000000               0.000000000               0.000560108               0.000387911              -0.000310979               0.000161550               0.000075452               0.000237002               0.000000000               0.000000000               0.000000000               0.000000000               0.000661252               0.000693010              -0.000393782               0.000161341               0.000177221               0.000338562               0.000000000               0.000000000               0.000000000               0.000000000               0.000658179               0.000962110              -0.000394171               0.000126552               0.000278516               0.000405068               0.000000000               0.000000000               0.000000000               0.000000000               0.000619285               0.001189465              -0.000366619               0.000083548               0.000368635               0.000452183               0.000000000               0.000000000               0.000000000               0.000000000               0.000565768               0.001382147              -0.000333265               0.000039394               0.000447580               0.000486974               0.000000000               0.000000000               0.000000000               0.000000000               0.000510151               0.001544743              -0.000298658              -0.000001786               0.000515504               0.000513718               0.000000000               0.000000000               0.000000000               0.000000000               0.000459248               0.001687200              -0.000263220              -0.000038682               0.000575289               0.000536606               0.000000000               0.000000000               0.000000000               0.000000000               0.000419157               0.001817017              -0.000230562              -0.000069943               0.000628981               0.000559038               0.000000000               0.000000000               0.000000000               0.000000000               0.000388906               0.001935992              -0.000203205              -0.000096159               0.000677377               0.000581218               0.000000000               0.000000000               0.000000000               0.000000000               0.000367802               0.002050829              -0.000181810              -0.000118428               0.000723079               0.000604651               0.000000000               0.000000000               0.000000000               0.000000000               0.000345683               0.002156661              -0.000162347              -0.000139951               0.000765530               0.000625579               0.000000000               0.000000000               0.000000000               0.000000000               0.000324610               0.002256356              -0.000141923              -0.000160315               0.000805549               0.000645234               0.000000000               0.000000000               0.000000000               0.000000000               0.000314835               0.002360315              -0.000115230              -0.000176976               0.000845756               0.000668780               0.000000000               0.000000000               0.000000000               0.000000000               0.000318572               0.002474073              -0.000079667              -0.000189794               0.000887948               0.000698153               0.000000000               0.000000000               0.000000000               0.000000000               0.000326456               0.002593210              -0.000040978              -0.000201730               0.000931638               0.000729908               0.000000000               0.000000000               0.000000000               0.000000000               0.000326520               0.002649245              -0.000020348              -0.000208710               0.000952643               0.000743933               0.000000000               0.000000000               0.000000000               0.000000000               0.000258414               0.000093763              -0.000096174               0.000085184               0.000002859               0.000088043               0.000000000               0.000000000               0.000000000               0.000000000               0.000533887               0.000280298              -0.000156290               0.000165169               0.000038376               0.000203544               0.000000000               0.000000000               0.000000000               0.000000000               0.000693561               0.000550598              -0.000206647               0.000191259               0.000119778               0.000311036               0.000000000               0.000000000               0.000000000               0.000000000               0.000713900               0.000813148              -0.000211420               0.000166067               0.000215691               0.000381758               0.000000000               0.000000000               0.000000000               0.000000000               0.000682782               0.001044958              -0.000199806               0.000125422               0.000306508               0.000431931               0.000000000               0.000000000               0.000000000               0.000000000               0.000631593               0.001250019              -0.000183633               0.000080594               0.000389804               0.000470398               0.000000000               0.000000000               0.000000000               0.000000000               0.000573923               0.001430653              -0.000165424               0.000036389               0.000464750               0.000501139               0.000000000               0.000000000               0.000000000               0.000000000               0.000519789               0.001590363              -0.000145638              -0.000003875               0.000531407               0.000527533               0.000000000               0.000000000               0.000000000               0.000000000               0.000473597               0.001731596              -0.000128231              -0.000038851               0.000590143               0.000551293               0.000000000               0.000000000               0.000000000               0.000000000               0.000435487               0.001858362              -0.000115672              -0.000068987               0.000642444               0.000573456               0.000000000               0.000000000               0.000000000               0.000000000               0.000406282               0.001981051              -0.000104071              -0.000095276               0.000692102               0.000596827               0.000000000               0.000000000               0.000000000               0.000000000               0.000382999               0.002100490              -0.000090965              -0.000118936               0.000739802               0.000620865               0.000000000               0.000000000               0.000000000               0.000000000               0.000365117               0.002214552              -0.000080508              -0.000139900               0.000784810               0.000644910               0.000000000               0.000000000               0.000000000               0.000000000               0.000356727               0.002327147              -0.000069586              -0.000157121               0.000828081               0.000670961               0.000000000               0.000000000               0.000000000               0.000000000               0.000367458               0.002448597              -0.000047953              -0.000168277               0.000872283               0.000704006               0.000000000               0.000000000               0.000000000               0.000000000               0.000398263               0.002577777              -0.000021563              -0.000172873               0.000916875               0.000744002               0.000000000               0.000000000               0.000000000               0.000000000               0.000419610               0.002641985              -0.000009518              -0.000172894               0.000938284               0.000765390               0.000000000               0.000000000               0.000000000               0.000000000               0.000000000               0.000000000               0.000000000               0.000000000               0.000000000               0.000000000               0.000000000               0.000000000               0.000000000               0.000000000               0.000000000               0.000000000               0.000000000               0.000000000               0.000000000               0.000000000               0.000000000               0.000000000               0.000000000               0.000000000               0.000000000               0.000000000               0.000000000               0.000000000               0.000000000               0.000000000               0.000000000               0.000000000               0.000000000               0.000000000               0.000000000               0.000000000               0.000000000               0.000000000               0.000000000               0.000000000               0.000000000               0.000000000               0.000000000               0.000000000               0.000000000               0.000000000               0.000000000               0.000000000               0.000000000               0.000000000               0.000000000               0.000000000               0.000000000               0.000000000               0.000000000               0.000000000               0.000000000               0.000000000               0.000000000               0.000000000               0.000000000               0.000000000               0.000000000               0.000000000               0.000000000               0.000000000               0.000000000               0.000000000               0.000000000               0.000000000               0.000000000               0.000000000               0.000000000               0.000000000               0.000000000               0.000000000               0.000000000               0.000000000               0.000000000               0.000000000               0.000000000               0.000000000               0.000000000               0.000000000               0.000000000               0.000000000               0.000000000               0.000000000               0.000000000               0.000000000               0.000000000               0.000000000               0.000000000               0.000000000               0.000000000               0.000000000               0.000000000               0.000000000               0.000000000               0.000000000               0.000000000               0.000000000               0.000000000               0.000000000               0.000000000               0.000000000               0.000000000               0.000000000               0.000000000               0.000000000               0.000000000               0.000000000               0.000000000               0.000000000               0.000000000               0.000000000               0.000000000               0.000000000               0.000000000               0.000000000               0.000000000               0.000000000               0.000000000               0.000000000               0.000000000               0.000000000               0.000000000               0.000000000               0.000000000               0.000000000               0.000000000               0.000000000               0.000000000               0.000000000               0.000000000               0.000000000               0.000000000               0.000000000               0.000000000               0.000000000               0.000000000               0.000000000               0.000000000               0.000000000               0.000000000               0.000000000               0.000000000               0.000000000               0.000000000               0.000000000               0.000000000               0.000000000               0.000000000               0.000000000               0.000000000               0.000000000               0.000000000               0.000000000               0.000000000               0.000000000               0.000000000               0.000000000               0.000000000               0.000000000               0.000000000               0.000000000               0.000000000               0.000000000               0.000000000               0.000000000               0.000000000               0.000000000               0.000000000               0.000000000               0.000000000               0.000000000               0.000000000               0.000000000               0.000000000               0.000000000               0.000000000               0.000000000               0.000000000               0.000000000               0.000000000               0.000000000               0.000000000               0.000000000               0.000000000               0.000000000               0.000000000               0.000000000               0.000000000               0.000000000               0.000000000               0.000000000               0.000000000               0.000000000               0.000000000               0.000000000               0.000000000               0.000000000               0.000000000               0.000000000               0.000000000               0.000000000               0.000000000               0.000000000               0.000000000               0.000000000               0.000000000               0.000000000               0.000000000               0.000000000               0.000000000               0.000000000               0.000000000               0.000000000               0.000000000               0.000000000               0.000000000               0.000000000               0.000000000               0.000000000               0.000000000               0.000000000               0.000000000               0.000000000               0.000000000               0.000000000               0.000000000               0.000000000               0.000000000               0.000000000               0.000000000               0.000000000               0.000000000               0.000000000               0.000000000               0.000000000               0.000000000               0.000000000               0.000000000               0.000000000               0.000000000               0.000000000               0.000000000               0.000000000               0.000000000               0.000000000               0.000000000               0.000000000               0.000000000               0.000000000               0.000000000               0.000000000               0.000000000               0.000000000               0.000000000               0.000000000               0.000000000               0.000000000               0.000000000               0.000000000               0.000000000               0.000000000               0.000000000               0.000000000               0.000000000               0.000000000               0.000000000               0.000000000               0.000000000               0.000000000               0.000000000               0.000000000               0.000000000               0.000000000               0.000000000               0.000000000               0.000000000               0.000000000               0.000000000               0.000000000               0.000000000               0.000000000               0.000000000               0.000000000               0.000000000               0.000000000               0.000000000               0.000000000               0.000000000               0.000000000               0.000000000               0.000000000               0.000000000               0.000000000               0.000000000               0.000000000               0.000000000               0.000000000               0.000000000               0.000000000               0.000000000               0.000000000               0.000000000               0.000000000               0.000000000               0.000000000               0.000000000               0.000000000               0.000000000               0.000000000               0.000000000               0.000000000               0.000000000               0.000000000               0.000000000               0.000000000               0.000000000               0.000000000               0.000000000               0.000000000               0.000000000               0.000000000               0.000000000               0.000000000               0.000000000               0.000000000               0.000000000               0.000000000               0.000000000               0.000000000               0.000000000               0.000000000               0.000000000               0.000000000               0.000000000               0.000000000               0.000000000               0.000000000               0.000000000               0.000000000               0.000423108               0.004483469               0.000353932              -0.000401767               0.001628397               0.001226630               0.000000000               0.000000000               0.000000000               0.000000000               0.000457621               0.003748392               0.000236850              -0.000296940               0.001348432               0.001051491               0.000000000               0.000000000               0.000000000               0.000000000               0.000621773               0.003160207               0.000112833              -0.000161861               0.001107345               0.000945485               0.000000000               0.000000000               0.000000000               0.000000000               0.000651807               0.002838117               0.000052120              -0.000110337               0.000982809               0.000872472               0.000000000               0.000000000               0.000000000               0.000000000               0.000626889               0.002652091               0.000021823              -0.000096428               0.000916164               0.000819736               0.000000000               0.000000000               0.000000000               0.000000000               0.000578180               0.002540692               0.000006603              -0.000100769               0.000880478               0.000779710               0.000000000               0.000000000               0.000000000               0.000000000               0.000521471               0.002474650               0.000000133              -0.000113779               0.000862802               0.000749022               0.000000000               0.000000000               0.000000000               0.000000000               0.000459969               0.002438255              -0.000002806              -0.000132293               0.000856841               0.000724548               0.000000000               0.000000000               0.000000000               0.000000000               0.000396383               0.002418154              -0.000004067              -0.000153625               0.000857252               0.000703627               0.000000000               0.000000000               0.000000000               0.000000000               0.000333640               0.002409818              -0.000003819              -0.000176112               0.000861968               0.000685857               0.000000000               0.000000000               0.000000000               0.000000000               0.000275251               0.002410455              -0.000002195              -0.000198087               0.000869506               0.000671419               0.000000000               0.000000000               0.000000000               0.000000000               0.000222035               0.002419326              -0.000001939              -0.000219152               0.000879484               0.000660333               0.000000000               0.000000000               0.000000000               0.000000000               0.000170474               0.002435155              -0.000004267              -0.000240466               0.000891866               0.000651399               0.000000000               0.000000000               0.000000000               0.000000000               0.000120906               0.002457794              -0.000005931              -0.000261884               0.000906551               0.000644667               0.000000000               0.000000000               0.000000000               0.000000000               0.000075821               0.002483527              -0.000006343              -0.000282007               0.000921837               0.000639829               0.000000000               0.000000000               0.000000000               0.000000000               0.000036488               0.002512074              -0.000005493              -0.000300326               0.000937458               0.000637132               0.000000000               0.000000000               0.000000000               0.000000000               0.000021014               0.002534473              -0.000004238              -0.000308928               0.000947792               0.000638864               0.000000000               0.000000000               0.000000000               0.000000000               0.000497790               0.004275451               0.000674181              -0.000347760               0.001541056               0.001193296               0.000000000               0.000000000               0.000000000               0.000000000               0.000487311               0.003596220               0.000449999              -0.000266785               0.001287656               0.001020871               0.000000000               0.000000000               0.000000000               0.000000000               0.000602973               0.003074102               0.000215603              -0.000158148               0.001077406               0.000919259               0.000000000               0.000000000               0.000000000               0.000000000               0.000609628               0.002789685               0.000104015              -0.000120100               0.000969919               0.000849819               0.000000000               0.000000000               0.000000000               0.000000000               0.000575730               0.002625989               0.000049368              -0.000112350               0.000912771               0.000800421               0.000000000               0.000000000               0.000000000               0.000000000               0.000524806               0.002527417               0.000022675              -0.000119125               0.000882172               0.000763048               0.000000000               0.000000000               0.000000000               0.000000000               0.000469824               0.002469787               0.000009016              -0.000132539               0.000867434               0.000734895               0.000000000               0.000000000               0.000000000               0.000000000               0.000413106               0.002436934               0.000003267              -0.000149702               0.000862204               0.000712502               0.000000000               0.000000000               0.000000000               0.000000000               0.000355333               0.002417718               0.000002637              -0.000168965               0.000862219               0.000693255               0.000000000               0.000000000               0.000000000               0.000000000               0.000297099               0.002409162               0.000003646              -0.000189733               0.000866290               0.000676558               0.000000000               0.000000000               0.000000000               0.000000000               0.000244014               0.002409781               0.000004971              -0.000209717               0.000873158               0.000663441               0.000000000               0.000000000               0.000000000               0.000000000               0.000196444               0.002418679               0.000003977              -0.000228668               0.000882441               0.000653773               0.000000000               0.000000000               0.000000000               0.000000000               0.000148431               0.002433815              -0.000000898              -0.000248565               0.000894118               0.000645554               0.000000000               0.000000000               0.000000000               0.000000000               0.000103247               0.002454621              -0.000003438              -0.000268109               0.000907569               0.000639459               0.000000000               0.000000000               0.000000000               0.000000000               0.000063749               0.002476833              -0.000002704              -0.000285698               0.000920835               0.000635138               0.000000000               0.000000000               0.000000000               0.000000000               0.000029680               0.002499560              -0.000002901              -0.000301314               0.000933617               0.000632302               0.000000000               0.000000000               0.000000000               0.000000000               0.000017142               0.002518858              -0.000001877              -0.000308428               0.000942420               0.000633992               0.000000000               0.000000000               0.000000000               0.000000000               0.000606913               0.003961695               0.000931639              -0.000267620               0.001409758               0.001142139               0.000000000               0.000000000               0.000000000               0.000000000               0.000528345               0.003374918               0.000622674              -0.000223735               0.001199540               0.000975805               0.000000000               0.000000000               0.000000000               0.000000000               0.000571697               0.002955244               0.000304227              -0.000155019               0.001036745               0.000881726               0.000000000               0.000000000               0.000000000               0.000000000               0.000548233               0.002725197               0.000157395              -0.000135062               0.000953410               0.000818349               0.000000000               0.000000000               0.000000000               0.000000000               0.000503125               0.002589003               0.000086497              -0.000134953               0.000907977               0.000773024               0.000000000               0.000000000               0.000000000               0.000000000               0.000451595               0.002506661               0.000051493              -0.000143984               0.000883540               0.000739556               0.000000000               0.000000000               0.000000000               0.000000000               0.000401866               0.002458314               0.000033910              -0.000156589               0.000871626               0.000715037               0.000000000               0.000000000               0.000000000               0.000000000               0.000350529               0.002427079               0.000026208              -0.000171936               0.000866330               0.000694394               0.000000000               0.000000000               0.000000000               0.000000000               0.000299350               0.002409453               0.000023386              -0.000188925               0.000866118               0.000677193               0.000000000               0.000000000               0.000000000               0.000000000               0.000249708               0.002401887               0.000022088              -0.000206595               0.000869486               0.000662891               0.000000000               0.000000000               0.000000000               0.000000000               0.000201764               0.002402697               0.000021535              -0.000224675               0.000875783               0.000651108               0.000000000               0.000000000               0.000000000               0.000000000               0.000158954               0.002411911               0.000018457              -0.000241881               0.000884589               0.000642709               0.000000000               0.000000000               0.000000000               0.000000000               0.000119779               0.002426909               0.000010327              -0.000258446               0.000895110               0.000636664               0.000000000               0.000000000               0.000000000               0.000000000               0.000083219               0.002445025               0.000005520              -0.000274420               0.000906474               0.000632053               0.000000000               0.000000000               0.000000000               0.000000000               0.000051378               0.002462987               0.000007461              -0.000288606               0.000917189               0.000628584               0.000000000               0.000000000               0.000000000               0.000000000               0.000023835               0.002477348               0.000005933              -0.000300730               0.000926018               0.000625288               0.000000000               0.000000000               0.000000000               0.000000000               0.000013731               0.002489375               0.000004027              -0.000306022               0.000931791               0.000625769               0.000000000               0.000000000               0.000000000               0.000000000               0.000724886               0.003574660               0.001109570              -0.000175001               0.001249875               0.001074874               0.000000000               0.000000000               0.000000000               0.000000000               0.000566422               0.003106560               0.000747363              -0.000175912               0.001094147               0.000918235               0.000000000               0.000000000               0.000000000               0.000000000               0.000525738               0.002812216               0.000377517              -0.000154375               0.000988854               0.000834479               0.000000000               0.000000000               0.000000000               0.000000000               0.000472416               0.002643227               0.000212688              -0.000153247               0.000932149               0.000778902               0.000000000               0.000000000               0.000000000               0.000000000               0.000420285               0.002538805               0.000134594              -0.000159743               0.000899508               0.000739764               0.000000000               0.000000000               0.000000000               0.000000000               0.000372669               0.002474039               0.000094546              -0.000169504               0.000881173               0.000711669               0.000000000               0.000000000               0.000000000               0.000000000               0.000329678               0.002432390               0.000072817              -0.000180419               0.000870928               0.000690509               0.000000000               0.000000000               0.000000000               0.000000000               0.000287248               0.002406049               0.000061403              -0.000193038               0.000866354               0.000673316               0.000000000               0.000000000               0.000000000               0.000000000               0.000246743               0.002391812               0.000054329              -0.000206447               0.000866079               0.000659631               0.000000000               0.000000000               0.000000000               0.000000000               0.000206717               0.002387139               0.000048605              -0.000220873               0.000869329               0.000648456               0.000000000               0.000000000               0.000000000               0.000000000               0.000165037               0.002390511               0.000041884              -0.000236924               0.000875804               0.000638879               0.000000000               0.000000000               0.000000000               0.000000000               0.000127229               0.002403805               0.000033928              -0.000252764               0.000885515               0.000632751               0.000000000               0.000000000               0.000000000               0.000000000               0.000095838               0.002420164               0.000022992              -0.000266581               0.000895573               0.000628993               0.000000000               0.000000000               0.000000000               0.000000000               0.000068715               0.002434435               0.000016186              -0.000278536               0.000904315               0.000625780               0.000000000               0.000000000               0.000000000               0.000000000               0.000043622               0.002442914               0.000018263              -0.000289005               0.000910632               0.000621626               0.000000000               0.000000000               0.000000000               0.000000000               0.000020675               0.002447085               0.000015322              -0.000298132               0.000915064               0.000616933               0.000000000               0.000000000               0.000000000               0.000000000               0.000011038               0.002450318               0.000010891              -0.000302150               0.000917481               0.000615332               0.000000000               0.000000000               0.000000000               0.000000000               0.000824549               0.003139786               0.001206054              -0.000083269               0.001074341               0.000991072               0.000000000               0.000000000               0.000000000               0.000000000               0.000589924               0.002810182               0.000824404              -0.000130052               0.000980068               0.000850017               0.000000000               0.000000000               0.000000000               0.000000000               0.000468338               0.002655781               0.000437618              -0.000156346               0.000937367               0.000781021               0.000000000               0.000000000               0.000000000               0.000000000               0.000391651               0.002550049               0.000269963              -0.000171887               0.000907303               0.000735417               0.000000000               0.000000000               0.000000000               0.000000000               0.000339773               0.002480450               0.000189121              -0.000182641               0.000887689               0.000705048               0.000000000               0.000000000               0.000000000               0.000000000               0.000300346               0.002433624               0.000144994              -0.000191573               0.000875058               0.000683485               0.000000000               0.000000000               0.000000000               0.000000000               0.000267084               0.002401673               0.000118605              -0.000200052               0.000867234               0.000667182               0.000000000               0.000000000               0.000000000               0.000000000               0.000235254               0.002382660               0.000100687              -0.000209612               0.000864083               0.000654471               0.000000000               0.000000000               0.000000000               0.000000000               0.000204438               0.002375503               0.000087011              -0.000220273               0.000865251               0.000644977               0.000000000               0.000000000               0.000000000               0.000000000               0.000173742               0.002376292               0.000073784              -0.000231883               0.000869384               0.000637501               0.000000000               0.000000000               0.000000000               0.000000000               0.000139486               0.002385304               0.000058595              -0.000245855               0.000877045               0.000631190               0.000000000               0.000000000               0.000000000               0.000000000               0.000106522               0.002400295               0.000044048              -0.000260090               0.000886787               0.000626697               0.000000000               0.000000000               0.000000000               0.000000000               0.000079647               0.002415038               0.000031801              -0.000272011               0.000895675               0.000623664               0.000000000               0.000000000               0.000000000               0.000000000               0.000058549               0.002419577               0.000024488              -0.000280491               0.000900015               0.000619524               0.000000000               0.000000000               0.000000000               0.000000000               0.000042441               0.002419115               0.000024130              -0.000286473               0.000901855               0.000615381               0.000000000               0.000000000               0.000000000               0.000000000               0.000022667               0.002418055               0.000018600              -0.000293756               0.000903929               0.000610173               0.000000000               0.000000000               0.000000000               0.000000000               0.000012318               0.002419419               0.000013446              -0.000297807               0.000905734               0.000607927               0.000000000               0.000000000               0.000000000               0.000000000               0.000889872               0.002685803               0.001224168              -0.000002025               0.000895933               0.000893908               0.000000000               0.000000000               0.000000000               0.000000000               0.000597402               0.002511050               0.000859482              -0.000089856               0.000866960               0.000777104               0.000000000               0.000000000               0.000000000               0.000000000               0.000410093               0.002500600               0.000490263              -0.000158790               0.000886455               0.000727665               0.000000000               0.000000000               0.000000000               0.000000000               0.000321450               0.002455485               0.000328250              -0.000186392               0.000880617               0.000694226               0.000000000               0.000000000               0.000000000               0.000000000               0.000274346               0.002418683               0.000245246              -0.000199455               0.000872705               0.000673250               0.000000000               0.000000000               0.000000000               0.000000000               0.000244142               0.002389479               0.000196647              -0.000207131               0.000865529               0.000658398               0.000000000               0.000000000               0.000000000               0.000000000               0.000220513               0.002370997               0.000163167              -0.000213682               0.000861552               0.000647870               0.000000000               0.000000000               0.000000000               0.000000000               0.000199275               0.002363849               0.000135740              -0.000220752               0.000861526               0.000640773               0.000000000               0.000000000               0.000000000               0.000000000               0.000175816               0.002364356               0.000112237              -0.000229613               0.000864648               0.000635035               0.000000000               0.000000000               0.000000000               0.000000000               0.000149384               0.002370550               0.000089735              -0.000240299               0.000870275               0.000629976               0.000000000               0.000000000               0.000000000               0.000000000               0.000118252               0.002382973               0.000066331              -0.000253527               0.000878825               0.000625299               0.000000000               0.000000000               0.000000000               0.000000000               0.000089876               0.002396638               0.000045887              -0.000265875               0.000887496               0.000621621               0.000000000               0.000000000               0.000000000               0.000000000               0.000069412               0.002405794               0.000033149              -0.000274694               0.000893488               0.000618794               0.000000000               0.000000000               0.000000000               0.000000000               0.000053450               0.002407844               0.000027618              -0.000280936               0.000896252               0.000615316               0.000000000               0.000000000               0.000000000               0.000000000               0.000040371               0.002411041               0.000025252              -0.000286240               0.000899086               0.000612845               0.000000000               0.000000000               0.000000000               0.000000000               0.000023144               0.002419926               0.000018136              -0.000293811               0.000904571               0.000610760               0.000000000               0.000000000               0.000000000               0.000000000               0.000016278               0.002431911               0.000014258              -0.000297884               0.000909924               0.000612040               0.000000000               0.000000000               0.000000000               0.000000000               0.000916616               0.002241287               0.001173923               0.000063568               0.000725898               0.000789466               0.000000000               0.000000000               0.000000000               0.000000000               0.000591837               0.002228387               0.000862477              -0.000056610               0.000761658               0.000705048               0.000000000               0.000000000               0.000000000               0.000000000               0.000361862               0.002349799               0.000537357              -0.000158026               0.000835934               0.000677907               0.000000000               0.000000000               0.000000000               0.000000000               0.000270683               0.002361544               0.000383256              -0.000193687               0.000851735               0.000658049               0.000000000               0.000000000               0.000000000               0.000000000               0.000229500               0.002354726               0.000296751              -0.000208278               0.000854327               0.000646049               0.000000000               0.000000000               0.000000000               0.000000000               0.000206287               0.002345929               0.000241357              -0.000215883               0.000853930               0.000638047               0.000000000               0.000000000               0.000000000               0.000000000               0.000190285               0.002343362               0.000197670              -0.000221563               0.000854967               0.000633404               0.000000000               0.000000000               0.000000000               0.000000000               0.000177387               0.002348951               0.000159301              -0.000227098               0.000858675               0.000631577               0.000000000               0.000000000               0.000000000               0.000000000               0.000156218               0.002357241               0.000126877              -0.000236073               0.000864430               0.000628357               0.000000000               0.000000000               0.000000000               0.000000000               0.000127527               0.002369886               0.000097512              -0.000248412               0.000872758               0.000624346               0.000000000               0.000000000               0.000000000               0.000000000               0.000099763               0.002385714               0.000068500              -0.000260802               0.000882164               0.000621362               0.000000000               0.000000000               0.000000000               0.000000000               0.000080957               0.002400205               0.000044960              -0.000269666               0.000889949               0.000620283               0.000000000               0.000000000               0.000000000               0.000000000               0.000068563               0.002411323               0.000030852              -0.000275703               0.000895667               0.000619964               0.000000000               0.000000000               0.000000000               0.000000000               0.000055922               0.002425688               0.000025478              -0.000282239               0.000902634               0.000620395               0.000000000               0.000000000               0.000000000               0.000000000               0.000042053               0.002448939               0.000022786              -0.000290347               0.000913087               0.000622740               0.000000000               0.000000000               0.000000000               0.000000000               0.000023820               0.002483132               0.000015199              -0.000301458               0.000928189               0.000626730               0.000000000               0.000000000               0.000000000               0.000000000               0.000017268               0.002510234               0.000011846              -0.000307303               0.000939171               0.000631868               0.000000000               0.000000000               0.000000000               0.000000000               0.000922106               0.001845162               0.001077556               0.000115142               0.000576667               0.000691809               0.000000000               0.000000000               0.000000000               0.000000000               0.000592626               0.001972557               0.000849062              -0.000024336               0.000665624               0.000641288               0.000000000               0.000000000               0.000000000               0.000000000               0.000340312               0.002209307               0.000587960              -0.000148546               0.000785944               0.000637397               0.000000000               0.000000000               0.000000000               0.000000000               0.000251233               0.002278623               0.000441505              -0.000190615               0.000823072               0.000632457               0.000000000               0.000000000               0.000000000               0.000000000               0.000210958               0.002301521               0.000349559              -0.000208581               0.000836693               0.000628112               0.000000000               0.000000000               0.000000000               0.000000000               0.000192222               0.002312436               0.000284504              -0.000216971               0.000843128               0.000626157               0.000000000               0.000000000               0.000000000               0.000000000               0.000179423               0.002323992               0.000230194              -0.000223215               0.000849061               0.000625846               0.000000000               0.000000000               0.000000000               0.000000000               0.000168414               0.002340854               0.000182638              -0.000229451               0.000856761               0.000627310               0.000000000               0.000000000               0.000000000               0.000000000               0.000148950               0.002358966               0.000143216              -0.000239014               0.000865986               0.000626971               0.000000000               0.000000000               0.000000000               0.000000000               0.000121316               0.002381768               0.000109949              -0.000252227               0.000877990               0.000625764               0.000000000               0.000000000               0.000000000               0.000000000               0.000096877               0.002405694               0.000079048              -0.000264382               0.000890017               0.000625635               0.000000000               0.000000000               0.000000000               0.000000000               0.000085057               0.002426231               0.000053250              -0.000271382               0.000899196               0.000627814               0.000000000               0.000000000               0.000000000               0.000000000               0.000078442               0.002445396               0.000035938              -0.000276258               0.000907210               0.000630952               0.000000000               0.000000000               0.000000000               0.000000000               0.000067295               0.002470117               0.000025136              -0.000283528               0.000917874               0.000634345               0.000000000               0.000000000               0.000000000               0.000000000               0.000053993               0.002515331               0.000016771              -0.000294168               0.000936491               0.000642323               0.000000000               0.000000000               0.000000000               0.000000000               0.000040939               0.002576973               0.000007695              -0.000306769               0.000961239               0.000654470               0.000000000               0.000000000               0.000000000               0.000000000               0.000033181               0.002612380               0.000003460              -0.000314104               0.000975486               0.000661382               0.000000000               0.000000000               0.000000000               0.000000000               0.000899936               0.001457719               0.000957477               0.000155259               0.000434148               0.000589407               0.000000000               0.000000000               0.000000000               0.000000000               0.000608028               0.001668955               0.000827238               0.000019390               0.000549849               0.000569239               0.000000000               0.000000000               0.000000000               0.000000000               0.000358497               0.001992841               0.000649648              -0.000114669               0.000702497               0.000587828               0.000000000               0.000000000               0.000000000               0.000000000               0.000269883               0.002128041               0.000513866              -0.000164799               0.000764273               0.000599474               0.000000000               0.000000000               0.000000000               0.000000000               0.000223193               0.002190100               0.000416743              -0.000190065               0.000793381               0.000603316               0.000000000               0.000000000               0.000000000               0.000000000               0.000199609               0.002225024               0.000342475              -0.000203274               0.000809425               0.000606151               0.000000000               0.000000000               0.000000000               0.000000000               0.000184361               0.002253972               0.000280450              -0.000212611               0.000822187               0.000609576               0.000000000               0.000000000               0.000000000               0.000000000               0.000174639               0.002284890               0.000226327              -0.000220121               0.000834996               0.000614875               0.000000000               0.000000000               0.000000000               0.000000000               0.000159347               0.002316010               0.000179519              -0.000229745               0.000848577               0.000618832               0.000000000               0.000000000               0.000000000               0.000000000               0.000136277               0.002350712               0.000141761              -0.000242735               0.000864474               0.000621740               0.000000000               0.000000000               0.000000000               0.000000000               0.000113498               0.002386276               0.000112316              -0.000255722               0.000880658               0.000624936               0.000000000               0.000000000               0.000000000               0.000000000               0.000101252               0.002422971               0.000087332              -0.000264901               0.000895949               0.000631048               0.000000000               0.000000000               0.000000000               0.000000000               0.000096949               0.002456023               0.000063891              -0.000270646               0.000908882               0.000638235               0.000000000               0.000000000               0.000000000               0.000000000               0.000091839               0.002494314               0.000042347              -0.000277349               0.000923879               0.000646531               0.000000000               0.000000000               0.000000000               0.000000000               0.000083409               0.002550851               0.000023648              -0.000287577               0.000946134               0.000658557               0.000000000               0.000000000               0.000000000               0.000000000               0.000071100               0.002624312               0.000008927              -0.000301376               0.000975220               0.000673845               0.000000000               0.000000000               0.000000000               0.000000000               0.000057389               0.002661056              -0.000000164              -0.000311110               0.000990713               0.000679603               0.000000000               0.000000000               0.000000000               0.000000000               0.000835626               0.001089779               0.000815788               0.000177135               0.000304210               0.000481346               0.000000000               0.000000000               0.000000000               0.000000000               0.000628287               0.001361522               0.000783201               0.000065416               0.000432030               0.000497446               0.000000000               0.000000000               0.000000000               0.000000000               0.000410913               0.001745237               0.000696161              -0.000064063               0.000603094               0.000539031               0.000000000               0.000000000               0.000000000               0.000000000               0.000318806               0.001939134               0.000581534              -0.000122840               0.000687318               0.000564478               0.000000000               0.000000000               0.000000000               0.000000000               0.000265002               0.002045119               0.000485650              -0.000156264               0.000733788               0.000577524               0.000000000               0.000000000               0.000000000               0.000000000               0.000231965               0.002111029               0.000406369              -0.000176891               0.000762633               0.000585741               0.000000000               0.000000000               0.000000000               0.000000000               0.000212655               0.002161977               0.000339938              -0.000190501               0.000784152               0.000593651               0.000000000               0.000000000               0.000000000               0.000000000               0.000200283               0.002208060               0.000281715              -0.000200901               0.000802980               0.000602079               0.000000000               0.000000000               0.000000000               0.000000000               0.000189156               0.002255681               0.000227692              -0.000211026               0.000822228               0.000611202               0.000000000               0.000000000               0.000000000               0.000000000               0.000171670               0.002304135               0.000185726              -0.000223640               0.000842584               0.000618944               0.000000000               0.000000000               0.000000000               0.000000000               0.000152559               0.002349841               0.000157450              -0.000236520               0.000862112               0.000625593               0.000000000               0.000000000               0.000000000               0.000000000               0.000138324               0.002396427               0.000133442              -0.000247681               0.000881362               0.000633680               0.000000000               0.000000000               0.000000000               0.000000000               0.000128527               0.002443730               0.000104077              -0.000257268               0.000900325               0.000643057               0.000000000               0.000000000               0.000000000               0.000000000               0.000120077               0.002496927               0.000071331              -0.000267086               0.000921330               0.000654243               0.000000000               0.000000000               0.000000000               0.000000000               0.000111519               0.002559979               0.000040191              -0.000278177               0.000946044               0.000667867               0.000000000               0.000000000               0.000000000               0.000000000               0.000100400               0.002632580               0.000015111              -0.000291422               0.000974659               0.000683237               0.000000000               0.000000000               0.000000000               0.000000000               0.000083608               0.002662599               0.000000534              -0.000301471               0.000988015               0.000686543               0.000000000               0.000000000               0.000000000               0.000000000               0.000732601               0.000761479               0.000656151               0.000179539               0.000193977               0.000373516               0.000000000               0.000000000               0.000000000               0.000000000               0.000632901               0.001063356               0.000703973               0.000104417               0.000319643               0.000424059               0.000000000               0.000000000               0.000000000               0.000000000               0.000477250               0.001465700               0.000696963              -0.000004245               0.000489976               0.000485732               0.000000000               0.000000000               0.000000000               0.000000000               0.000391538               0.001702901               0.000614760              -0.000066036               0.000589640               0.000523604               0.000000000               0.000000000               0.000000000               0.000000000               0.000334820               0.001853616               0.000529092              -0.000106145               0.000653247               0.000547103               0.000000000               0.000000000               0.000000000               0.000000000               0.000292310               0.001954069               0.000453469              -0.000134642               0.000696231               0.000561588               0.000000000               0.000000000               0.000000000               0.000000000               0.000266729               0.002031735               0.000387116              -0.000153943               0.000728553               0.000574609               0.000000000               0.000000000               0.000000000               0.000000000               0.000247768               0.002099882               0.000326309              -0.000169572               0.000756478               0.000586906               0.000000000               0.000000000               0.000000000               0.000000000               0.000233872               0.002165594               0.000269837              -0.000182997               0.000782856               0.000599860               0.000000000               0.000000000               0.000000000               0.000000000               0.000219837               0.002230437               0.000225544              -0.000196365               0.000808927               0.000612561               0.000000000               0.000000000               0.000000000               0.000000000               0.000202177               0.002290546               0.000197662              -0.000210501               0.000833675               0.000623174               0.000000000               0.000000000               0.000000000               0.000000000               0.000185487               0.002349764               0.000173148              -0.000224162               0.000857968               0.000633805               0.000000000               0.000000000               0.000000000               0.000000000               0.000169526               0.002412112               0.000138254              -0.000237941               0.000883343               0.000645402               0.000000000               0.000000000               0.000000000               0.000000000               0.000154162               0.002482356               0.000098054              -0.000252483               0.000911605               0.000659122               0.000000000               0.000000000               0.000000000               0.000000000               0.000141790               0.002558205               0.000061022              -0.000266604               0.000941595               0.000674991               0.000000000               0.000000000               0.000000000               0.000000000               0.000130147               0.002635148               0.000028601              -0.000280588               0.000971903               0.000691315               0.000000000               0.000000000               0.000000000               0.000000000               0.000112947               0.002666447               0.000009810              -0.000290950               0.000985790               0.000694840               0.000000000               0.000000000               0.000000000               0.000000000               0.000603888               0.000496319               0.000492439               0.000164416               0.000110632               0.000275048               0.000000000               0.000000000               0.000000000               0.000000000               0.000618292               0.000790221               0.000593297               0.000133080               0.000219044               0.000352124               0.000000000               0.000000000               0.000000000               0.000000000               0.000546830               0.001177141               0.000646449               0.000057917               0.000373070               0.000430988               0.000000000               0.000000000               0.000000000               0.000000000               0.000483241               0.001441136               0.000599936               0.000001073               0.000480016               0.000481089               0.000000000               0.000000000               0.000000000               0.000000000               0.000425881               0.001628943               0.000531471              -0.000043913               0.000557613               0.000513700               0.000000000               0.000000000               0.000000000               0.000000000               0.000376515               0.001764411               0.000466159              -0.000079359               0.000614584               0.000535225               0.000000000               0.000000000               0.000000000               0.000000000               0.000339048               0.001871995               0.000406311              -0.000106856               0.000659611               0.000552754               0.000000000               0.000000000               0.000000000               0.000000000               0.000313056               0.001967744               0.000348212              -0.000128572               0.000698765               0.000570194               0.000000000               0.000000000               0.000000000               0.000000000               0.000292470               0.002053854               0.000294343              -0.000147055               0.000733629               0.000586574               0.000000000               0.000000000               0.000000000               0.000000000               0.000276480               0.002137746               0.000251502              -0.000163538               0.000767088               0.000603550               0.000000000               0.000000000               0.000000000               0.000000000               0.000257531               0.002219024               0.000222913              -0.000180804               0.000799935               0.000619132               0.000000000               0.000000000               0.000000000               0.000000000               0.000235122               0.002294310               0.000198143              -0.000198618               0.000830968               0.000632351               0.000000000               0.000000000               0.000000000               0.000000000               0.000215823               0.002369650               0.000162714              -0.000215272               0.000861633               0.000646361               0.000000000               0.000000000               0.000000000               0.000000000               0.000201935               0.002451385               0.000121509              -0.000230697               0.000894019               0.000663322               0.000000000               0.000000000               0.000000000               0.000000000               0.000188027               0.002536046               0.000082069              -0.000246495               0.000927505               0.000681010               0.000000000               0.000000000               0.000000000               0.000000000               0.000172934               0.002625060               0.000041788              -0.000263282               0.000962772               0.000699490               0.000000000               0.000000000               0.000000000               0.000000000               0.000153507               0.002663902               0.000017453              -0.000275422               0.000979766               0.000704344               0.000000000               0.000000000               0.000000000               0.000000000               0.000470031               0.000301864               0.000339204               0.000138527               0.000054444               0.000192972               0.000000000               0.000000000               0.000000000               0.000000000               0.000591006               0.000560118               0.000458597               0.000151611               0.000136167               0.000287778               0.000000000               0.000000000               0.000000000               0.000000000               0.000610520               0.000909417               0.000544177               0.000115266               0.000264713               0.000379980               0.000000000               0.000000000               0.000000000               0.000000000               0.000578279               0.001183626               0.000526950               0.000068900               0.000371571               0.000440471               0.000000000               0.000000000               0.000000000               0.000000000               0.000527140               0.001396063               0.000479624               0.000023169               0.000457627               0.000480796               0.000000000               0.000000000               0.000000000               0.000000000               0.000473243               0.001564393               0.000429225              -0.000018083               0.000527487               0.000509403               0.000000000               0.000000000               0.000000000               0.000000000               0.000424085               0.001702462               0.000380553              -0.000053776               0.000585407               0.000531631               0.000000000               0.000000000               0.000000000               0.000000000               0.000384793               0.001822380               0.000331343              -0.000083500               0.000635287               0.000551787               0.000000000               0.000000000               0.000000000               0.000000000               0.000355602               0.001932020               0.000285594              -0.000108152               0.000680051               0.000571899               0.000000000               0.000000000               0.000000000               0.000000000               0.000333867               0.002035594               0.000248421              -0.000129249               0.000721608               0.000592358               0.000000000               0.000000000               0.000000000               0.000000000               0.000313779               0.002137974               0.000220805              -0.000149579               0.000762511               0.000612931               0.000000000               0.000000000               0.000000000               0.000000000               0.000290916               0.002231740               0.000197367              -0.000169873               0.000800530               0.000630657               0.000000000               0.000000000               0.000000000               0.000000000               0.000270244               0.002316755               0.000168485              -0.000188252               0.000834995               0.000646743               0.000000000               0.000000000               0.000000000               0.000000000               0.000259665               0.002405860               0.000132154              -0.000203358               0.000869731               0.000666374               0.000000000               0.000000000               0.000000000               0.000000000               0.000250942               0.002502998               0.000091578              -0.000218771               0.000907248               0.000688477               0.000000000               0.000000000               0.000000000               0.000000000               0.000240698               0.002608354               0.000048431              -0.000235782               0.000948037               0.000712255               0.000000000               0.000000000               0.000000000               0.000000000               0.000225485               0.002656132               0.000022962              -0.000247459               0.000967855               0.000720396               0.000000000               0.000000000               0.000000000               0.000000000               0.000347723               0.000170048               0.000207840               0.000109139               0.000020302               0.000129441               0.000000000               0.000000000               0.000000000               0.000000000               0.000560108               0.000387911               0.000310979               0.000161550               0.000075452               0.000237002               0.000000000               0.000000000               0.000000000               0.000000000               0.000661252               0.000693010               0.000393782               0.000161341               0.000177221               0.000338562               0.000000000               0.000000000               0.000000000               0.000000000               0.000658179               0.000962110               0.000394171               0.000126552               0.000278516               0.000405068               0.000000000               0.000000000               0.000000000               0.000000000               0.000619285               0.001189465               0.000366619               0.000083548               0.000368635               0.000452183               0.000000000               0.000000000               0.000000000               0.000000000               0.000565768               0.001382147               0.000333265               0.000039394               0.000447580               0.000486974               0.000000000               0.000000000               0.000000000               0.000000000               0.000510151               0.001544743               0.000298658              -0.000001786               0.000515504               0.000513718               0.000000000               0.000000000               0.000000000               0.000000000               0.000459248               0.001687200               0.000263220              -0.000038682               0.000575289               0.000536606               0.000000000               0.000000000               0.000000000               0.000000000               0.000419157               0.001817017               0.000230562              -0.000069943               0.000628981               0.000559038               0.000000000               0.000000000               0.000000000               0.000000000               0.000388906               0.001935992               0.000203205              -0.000096159               0.000677377               0.000581218               0.000000000               0.000000000               0.000000000               0.000000000               0.000367802               0.002050829               0.000181810              -0.000118428               0.000723079               0.000604651               0.000000000               0.000000000               0.000000000               0.000000000               0.000345683               0.002156661               0.000162347              -0.000139951               0.000765530               0.000625579               0.000000000               0.000000000               0.000000000               0.000000000               0.000324610               0.002256356               0.000141923              -0.000160315               0.000805549               0.000645234               0.000000000               0.000000000               0.000000000               0.000000000               0.000314835               0.002360315               0.000115230              -0.000176976               0.000845756               0.000668780               0.000000000               0.000000000               0.000000000               0.000000000               0.000318572               0.002474073               0.000079667              -0.000189794               0.000887948               0.000698153               0.000000000               0.000000000               0.000000000               0.000000000               0.000326456               0.002593210               0.000040978              -0.000201730               0.000931638               0.000729908               0.000000000               0.000000000               0.000000000               0.000000000               0.000326520               0.002649245               0.000020348              -0.000208710               0.000952643               0.000743933               0.000000000               0.000000000               0.000000000               0.000000000               0.000258414               0.000093763               0.000096174               0.000085184               0.000002859               0.000088043               0.000000000               0.000000000               0.000000000               0.000000000               0.000533887               0.000280298               0.000156290               0.000165169               0.000038376               0.000203544               0.000000000               0.000000000               0.000000000               0.000000000               0.000693561               0.000550598               0.000206647               0.000191259               0.000119778               0.000311036               0.000000000               0.000000000               0.000000000               0.000000000               0.000713900               0.000813148               0.000211420               0.000166067               0.000215691               0.000381758               0.000000000               0.000000000               0.000000000               0.000000000               0.000682782               0.001044958               0.000199806               0.000125422               0.000306508               0.000431931               0.000000000               0.000000000               0.000000000               0.000000000               0.000631593               0.001250019               0.000183633               0.000080594               0.000389804               0.000470398               0.000000000               0.000000000               0.000000000               0.000000000               0.000573923               0.001430653               0.000165424               0.000036389               0.000464750               0.000501139               0.000000000               0.000000000               0.000000000               0.000000000               0.000519789               0.001590363               0.000145638              -0.000003875               0.000531407               0.000527533               0.000000000               0.000000000               0.000000000               0.000000000               0.000473597               0.001731596               0.000128231              -0.000038851               0.000590143               0.000551293               0.000000000               0.000000000               0.000000000               0.000000000               0.000435487               0.001858362               0.000115672              -0.000068987               0.000642444               0.000573456               0.000000000               0.000000000               0.000000000               0.000000000               0.000406282               0.001981051               0.000104071              -0.000095276               0.000692102               0.000596827               0.000000000               0.000000000               0.000000000               0.000000000               0.000382999               0.002100490               0.000090965              -0.000118936               0.000739802               0.000620865               0.000000000               0.000000000               0.000000000               0.000000000               0.000365117               0.002214552               0.000080508              -0.000139900               0.000784810               0.000644910               0.000000000               0.000000000               0.000000000               0.000000000               0.000356727               0.002327147               0.000069586              -0.000157121               0.000828081               0.000670961               0.000000000               0.000000000               0.000000000               0.000000000               0.000367458               0.002448597               0.000047953              -0.000168277               0.000872283               0.000704006               0.000000000               0.000000000               0.000000000               0.000000000               0.000398263               0.002577777               0.000021563              -0.000172873               0.000916875               0.000744002               0.000000000               0.000000000               0.000000000               0.000000000               0.000419610               0.002641985               0.000009518              -0.000172894               0.000938284               0.000765390               0.000000000               0.000000000               0.000000000               0.000000000               0.000000000               0.000000000               0.000000000               0.000000000               0.000000000               0.000000000               0.000000000               0.000000000               0.000000000               0.000000000               0.000000000               0.000000000               0.000000000               0.000000000               0.000000000               0.000000000               0.000000000               0.000000000               0.000000000               0.000000000               0.000000000               0.000000000               0.000000000               0.000000000               0.000000000               0.000000000               0.000000000               0.000000000               0.000000000               0.000000000               0.000000000               0.000000000               0.000000000               0.000000000               0.000000000               0.000000000               0.000000000               0.000000000               0.000000000               0.000000000               0.000000000               0.000000000               0.000000000               0.000000000               0.000000000               0.000000000               0.000000000               0.000000000               0.000000000               0.000000000               0.000000000               0.000000000               0.000000000               0.000000000               0.000000000               0.000000000               0.000000000               0.000000000               0.000000000               0.000000000               0.000000000               0.000000000               0.000000000               0.000000000               0.000000000               0.000000000               0.000000000               0.000000000               0.000000000               0.000000000               0.000000000               0.000000000               0.000000000               0.000000000               0.000000000               0.000000000               0.000000000               0.000000000               0.000000000               0.000000000               0.000000000               0.000000000               0.000000000               0.000000000               0.000000000               0.000000000               0.000000000               0.000000000               0.000000000               0.000000000               0.000000000               0.000000000               0.000000000               0.000000000               0.000000000               0.000000000               0.000000000               0.000000000               0.000000000               0.000000000               0.000000000               0.000000000               0.000000000               0.000000000               0.000000000               0.000000000               0.000000000               0.000000000               0.000000000               0.000000000               0.000000000               0.000000000               0.000000000               0.000000000               0.000000000               0.000000000               0.000000000               0.000000000               0.000000000               0.000000000               0.000000000               0.000000000               0.000000000               0.000000000               0.000000000               0.000000000               0.000000000               0.000000000               0.000000000               0.000000000               0.000000000               0.000000000               0.000000000               0.000000000               0.000000000               0.000000000               0.000000000               0.000000000               0.000000000               0.000000000               0.000000000               0.000000000               0.000000000               0.000000000               0.000000000               0.000000000               0.000000000               0.000000000               0.000000000               0.000000000               0.000000000               0.000000000               0.000000000               0.000000000               0.000000000               0.000000000               0.000000000               0.000000000               0.000000000               0.000000000               0.000000000               0.000000000               0.000000000               0.000000000               0.000000000               0.000000000               0.000000000               0.000000000               0.000000000               0.000000000 </DataArray>
</PointData>
</Piece>
</UnstructuredGrid> </VTKFile>
